Crystalline OU atoms

5472 atoms
2 atom types
0.000000000000 132.252471462729 xlo xhi
0.000000000000 26.719034114279 ylo yhi
0.000000000000 23.139362307549 zlo zhi

Atoms

1 1 2.400000000000 0.000000000000 0.000000000000 0.000000000000
2 1 2.400000000000 3.148868368160 24.492447938089 0.000000000000
3 1 2.400000000000 3.148868368160 1.113293088095 21.211082115253
4 1 2.400000000000 3.148868368160 1.113293088095 1.928280192296
5 2 -1.200000000000 2.361651276120 0.000000000000 0.000000000000
6 2 -1.200000000000 3.936085460200 25.605741026184 21.211082115253
7 2 -1.200000000000 3.936085460200 25.605741026184 1.928280192296
8 2 -1.200000000000 5.510519644280 24.492447938089 0.000000000000
9 2 -1.200000000000 3.936085460200 2.226586176190 0.000000000000
10 2 -1.200000000000 5.510519644280 1.113293088095 21.211082115253
11 2 -1.200000000000 5.510519644280 1.113293088095 1.928280192296
12 2 -1.200000000000 7.084953828360 0.000000000000 0.000000000000
13 1 2.400000000000 -0.000000000000 0.000000000000 7.713120769183
14 1 2.400000000000 3.148868368160 24.492447938089 7.713120769183
15 1 2.400000000000 3.148868368160 1.113293088095 5.784840576887
16 1 2.400000000000 3.148868368160 1.113293088095 9.641400961479
17 2 -1.200000000000 2.361651276120 0.000000000000 7.713120769183
18 2 -1.200000000000 3.936085460200 25.605741026184 5.784840576887
19 2 -1.200000000000 3.936085460200 25.605741026184 9.641400961479
20 2 -1.200000000000 5.510519644280 24.492447938089 7.713120769183
21 2 -1.200000000000 3.936085460200 2.226586176190 7.713120769183
22 2 -1.200000000000 5.510519644280 1.113293088095 5.784840576887
23 2 -1.200000000000 5.510519644280 1.113293088095 9.641400961479
24 2 -1.200000000000 7.084953828360 0.000000000000 7.713120769183
25 1 2.400000000000 -0.000000000000 0.000000000000 15.426241538366
26 1 2.400000000000 3.148868368160 24.492447938089 15.426241538366
27 1 2.400000000000 3.148868368160 1.113293088095 13.497961346070
28 1 2.400000000000 3.148868368160 1.113293088095 17.354521730661
29 2 -1.200000000000 2.361651276120 0.000000000000 15.426241538366
30 2 -1.200000000000 3.936085460200 25.605741026184 13.497961346070
31 2 -1.200000000000 3.936085460200 25.605741026184 17.354521730661
32 2 -1.200000000000 5.510519644280 24.492447938089 15.426241538366
33 2 -1.200000000000 3.936085460200 2.226586176190 15.426241538366
34 2 -1.200000000000 5.510519644280 1.113293088095 13.497961346070
35 2 -1.200000000000 5.510519644280 1.113293088095 17.354521730661
36 2 -1.200000000000 7.084953828360 0.000000000000 15.426241538366
37 1 2.400000000000 -0.000000000000 6.679758528570 3.856560384591
38 1 2.400000000000 3.148868368160 4.453172352380 3.856560384591
39 1 2.400000000000 3.148868368160 7.793051616665 1.928280192296
40 1 2.400000000000 3.148868368160 7.793051616665 5.784840576887
41 2 -1.200000000000 2.361651276120 6.679758528570 3.856560384591
42 2 -1.200000000000 3.936085460200 5.566465440475 1.928280192296
43 2 -1.200000000000 3.936085460200 5.566465440475 5.784840576887
44 2 -1.200000000000 5.510519644280 4.453172352380 3.856560384591
45 2 -1.200000000000 3.936085460200 8.906344704760 3.856560384591
46 2 -1.200000000000 5.510519644280 7.793051616665 1.928280192296
47 2 -1.200000000000 5.510519644280 7.793051616665 5.784840576887
48 2 -1.200000000000 7.084953828360 6.679758528570 3.856560384591
49 1 2.400000000000 3.148868368160 4.453172352380 0.000000000000
50 1 2.400000000000 6.297736736320 2.226586176190 0.000000000000
51 1 2.400000000000 6.297736736320 5.566465440475 21.211082115253
52 1 2.400000000000 6.297736736320 5.566465440475 1.928280192296
53 2 -1.200000000000 5.510519644280 4.453172352380 0.000000000000
54 2 -1.200000000000 7.084953828360 3.339879264285 21.211082115253
55 2 -1.200000000000 7.084953828360 3.339879264285 1.928280192296
56 2 -1.200000000000 8.659388012441 2.226586176190 0.000000000000
57 2 -1.200000000000 7.084953828360 6.679758528570 0.000000000000
58 2 -1.200000000000 8.659388012441 5.566465440475 21.211082115253
59 2 -1.200000000000 8.659388012441 5.566465440475 1.928280192296
60 2 -1.200000000000 10.233822196521 4.453172352380 0.000000000000
61 1 2.400000000000 -0.000000000000 6.679758528570 11.569681153774
62 1 2.400000000000 3.148868368160 4.453172352380 11.569681153774
63 1 2.400000000000 3.148868368160 7.793051616665 9.641400961479
64 1 2.400000000000 3.148868368160 7.793051616665 13.497961346070
65 2 -1.200000000000 2.361651276120 6.679758528570 11.569681153774
66 2 -1.200000000000 3.936085460200 5.566465440475 9.641400961479
67 2 -1.200000000000 3.936085460200 5.566465440475 13.497961346070
68 2 -1.200000000000 5.510519644280 4.453172352380 11.569681153774
69 2 -1.200000000000 3.936085460200 8.906344704760 11.569681153774
70 2 -1.200000000000 5.510519644280 7.793051616665 9.641400961479
71 2 -1.200000000000 5.510519644280 7.793051616665 13.497961346070
72 2 -1.200000000000 7.084953828360 6.679758528570 11.569681153774
73 1 2.400000000000 3.148868368160 4.453172352380 7.713120769183
74 1 2.400000000000 6.297736736320 2.226586176190 7.713120769183
75 1 2.400000000000 6.297736736320 5.566465440475 5.784840576887
76 1 2.400000000000 6.297736736320 5.566465440475 9.641400961479
77 2 -1.200000000000 5.510519644280 4.453172352380 7.713120769183
78 2 -1.200000000000 7.084953828360 3.339879264285 5.784840576887
79 2 -1.200000000000 7.084953828360 3.339879264285 9.641400961479
80 2 -1.200000000000 8.659388012441 2.226586176190 7.713120769183
81 2 -1.200000000000 7.084953828360 6.679758528570 7.713120769183
82 2 -1.200000000000 8.659388012441 5.566465440475 5.784840576887
83 2 -1.200000000000 8.659388012441 5.566465440475 9.641400961479
84 2 -1.200000000000 10.233822196521 4.453172352380 7.713120769183
85 1 2.400000000000 6.297736736320 2.226586176190 3.856560384591
86 1 2.400000000000 9.446605104481 0.000000000000 3.856560384591
87 1 2.400000000000 9.446605104481 3.339879264285 1.928280192296
88 1 2.400000000000 9.446605104481 3.339879264285 5.784840576887
89 2 -1.200000000000 8.659388012441 2.226586176190 3.856560384591
90 2 -1.200000000000 10.233822196521 1.113293088095 1.928280192296
91 2 -1.200000000000 10.233822196521 1.113293088095 5.784840576887
92 2 -1.200000000000 11.808256380601 0.000000000000 3.856560384591
93 2 -1.200000000000 10.233822196521 4.453172352380 3.856560384591
94 2 -1.200000000000 11.808256380601 3.339879264285 1.928280192296
95 2 -1.200000000000 11.808256380601 3.339879264285 5.784840576887
96 2 -1.200000000000 13.382690564681 2.226586176190 3.856560384591
97 1 2.400000000000 9.446605104481 0.000000000000 0.000000000000
98 1 2.400000000000 12.595473472641 24.492447938089 0.000000000000
99 1 2.400000000000 12.595473472641 1.113293088095 21.211082115253
100 1 2.400000000000 12.595473472641 1.113293088095 1.928280192296
101 2 -1.200000000000 11.808256380601 0.000000000000 0.000000000000
102 2 -1.200000000000 13.382690564681 25.605741026184 21.211082115253
103 2 -1.200000000000 13.382690564681 25.605741026184 1.928280192296
104 2 -1.200000000000 14.957124748761 24.492447938089 0.000000000000
105 2 -1.200000000000 13.382690564681 2.226586176190 0.000000000000
106 2 -1.200000000000 14.957124748761 1.113293088095 21.211082115253
107 2 -1.200000000000 14.957124748761 1.113293088095 1.928280192296
108 2 -1.200000000000 16.531558932841 0.000000000000 0.000000000000
109 1 2.400000000000 -0.000000000000 6.679758528570 19.282801922957
110 1 2.400000000000 3.148868368160 4.453172352380 19.282801922957
111 1 2.400000000000 3.148868368160 7.793051616665 17.354521730661
112 1 2.400000000000 3.148868368160 7.793051616665 21.211082115253
113 2 -1.200000000000 2.361651276120 6.679758528570 19.282801922957
114 2 -1.200000000000 3.936085460200 5.566465440475 17.354521730661
115 2 -1.200000000000 3.936085460200 5.566465440475 21.211082115253
116 2 -1.200000000000 5.510519644280 4.453172352380 19.282801922957
117 2 -1.200000000000 3.936085460200 8.906344704760 19.282801922957
118 2 -1.200000000000 5.510519644280 7.793051616665 17.354521730661
119 2 -1.200000000000 5.510519644280 7.793051616665 21.211082115253
120 2 -1.200000000000 7.084953828360 6.679758528570 19.282801922957
121 1 2.400000000000 3.148868368160 4.453172352380 15.426241538366
122 1 2.400000000000 6.297736736320 2.226586176190 15.426241538366
123 1 2.400000000000 6.297736736320 5.566465440475 13.497961346070
124 1 2.400000000000 6.297736736320 5.566465440475 17.354521730661
125 2 -1.200000000000 5.510519644280 4.453172352380 15.426241538366
126 2 -1.200000000000 7.084953828360 3.339879264285 13.497961346070
127 2 -1.200000000000 7.084953828360 3.339879264285 17.354521730661
128 2 -1.200000000000 8.659388012441 2.226586176190 15.426241538366
129 2 -1.200000000000 7.084953828360 6.679758528570 15.426241538366
130 2 -1.200000000000 8.659388012441 5.566465440475 13.497961346070
131 2 -1.200000000000 8.659388012441 5.566465440475 17.354521730661
132 2 -1.200000000000 10.233822196521 4.453172352380 15.426241538366
133 1 2.400000000000 6.297736736320 2.226586176190 11.569681153774
134 1 2.400000000000 9.446605104481 0.000000000000 11.569681153774
135 1 2.400000000000 9.446605104481 3.339879264285 9.641400961479
136 1 2.400000000000 9.446605104481 3.339879264285 13.497961346070
137 2 -1.200000000000 8.659388012441 2.226586176190 11.569681153774
138 2 -1.200000000000 10.233822196521 1.113293088095 9.641400961479
139 2 -1.200000000000 10.233822196521 1.113293088095 13.497961346070
140 2 -1.200000000000 11.808256380601 0.000000000000 11.569681153774
141 2 -1.200000000000 10.233822196521 4.453172352380 11.569681153774
142 2 -1.200000000000 11.808256380601 3.339879264285 9.641400961479
143 2 -1.200000000000 11.808256380601 3.339879264285 13.497961346070
144 2 -1.200000000000 13.382690564681 2.226586176190 11.569681153774
145 1 2.400000000000 9.446605104481 0.000000000000 7.713120769183
146 1 2.400000000000 12.595473472641 24.492447938089 7.713120769183
147 1 2.400000000000 12.595473472641 1.113293088095 5.784840576887
148 1 2.400000000000 12.595473472641 1.113293088095 9.641400961479
149 2 -1.200000000000 11.808256380601 0.000000000000 7.713120769183
150 2 -1.200000000000 13.382690564681 25.605741026184 5.784840576887
151 2 -1.200000000000 13.382690564681 25.605741026184 9.641400961479
152 2 -1.200000000000 14.957124748761 24.492447938089 7.713120769183
153 2 -1.200000000000 13.382690564681 2.226586176190 7.713120769183
154 2 -1.200000000000 14.957124748761 1.113293088095 5.784840576887
155 2 -1.200000000000 14.957124748761 1.113293088095 9.641400961479
156 2 -1.200000000000 16.531558932841 0.000000000000 7.713120769183
157 1 2.400000000000 6.297736736320 2.226586176190 19.282801922957
158 1 2.400000000000 9.446605104481 0.000000000000 19.282801922957
159 1 2.400000000000 9.446605104481 3.339879264285 17.354521730661
160 1 2.400000000000 9.446605104481 3.339879264285 21.211082115253
161 2 -1.200000000000 8.659388012441 2.226586176190 19.282801922957
162 2 -1.200000000000 10.233822196521 1.113293088095 17.354521730661
163 2 -1.200000000000 10.233822196521 1.113293088095 21.211082115253
164 2 -1.200000000000 11.808256380601 0.000000000000 19.282801922957
165 2 -1.200000000000 10.233822196521 4.453172352380 19.282801922957
166 2 -1.200000000000 11.808256380601 3.339879264285 17.354521730661
167 2 -1.200000000000 11.808256380601 3.339879264285 21.211082115253
168 2 -1.200000000000 13.382690564681 2.226586176190 19.282801922957
169 1 2.400000000000 9.446605104481 0.000000000000 15.426241538366
170 1 2.400000000000 12.595473472641 24.492447938089 15.426241538366
171 1 2.400000000000 12.595473472641 1.113293088095 13.497961346070
172 1 2.400000000000 12.595473472641 1.113293088095 17.354521730661
173 2 -1.200000000000 11.808256380601 0.000000000000 15.426241538366
174 2 -1.200000000000 13.382690564681 25.605741026184 13.497961346070
175 2 -1.200000000000 13.382690564681 25.605741026184 17.354521730661
176 2 -1.200000000000 14.957124748761 24.492447938089 15.426241538366
177 2 -1.200000000000 13.382690564681 2.226586176190 15.426241538366
178 2 -1.200000000000 14.957124748761 1.113293088095 13.497961346070
179 2 -1.200000000000 14.957124748761 1.113293088095 17.354521730661
180 2 -1.200000000000 16.531558932841 0.000000000000 15.426241538366
181 1 2.400000000000 -0.000000000000 13.359517057139 0.000000000000
182 1 2.400000000000 3.148868368160 11.132930880950 0.000000000000
183 1 2.400000000000 3.148868368160 14.472810145234 21.211082115253
184 1 2.400000000000 3.148868368160 14.472810145234 1.928280192296
185 2 -1.200000000000 2.361651276120 13.359517057139 0.000000000000
186 2 -1.200000000000 3.936085460200 12.246223969045 21.211082115253
187 2 -1.200000000000 3.936085460200 12.246223969045 1.928280192296
188 2 -1.200000000000 5.510519644280 11.132930880950 0.000000000000
189 2 -1.200000000000 3.936085460200 15.586103233329 0.000000000000
190 2 -1.200000000000 5.510519644280 14.472810145234 21.211082115253
191 2 -1.200000000000 5.510519644280 14.472810145234 1.928280192296
192 2 -1.200000000000 7.084953828360 13.359517057139 0.000000000000
193 1 2.400000000000 -0.000000000000 13.359517057139 7.713120769183
194 1 2.400000000000 3.148868368160 11.132930880950 7.713120769183
195 1 2.400000000000 3.148868368160 14.472810145234 5.784840576887
196 1 2.400000000000 3.148868368160 14.472810145234 9.641400961479
197 2 -1.200000000000 2.361651276120 13.359517057139 7.713120769183
198 2 -1.200000000000 3.936085460200 12.246223969044 5.784840576887
199 2 -1.200000000000 3.936085460200 12.246223969044 9.641400961479
200 2 -1.200000000000 5.510519644280 11.132930880950 7.713120769183
201 2 -1.200000000000 3.936085460200 15.586103233329 7.713120769183
202 2 -1.200000000000 5.510519644280 14.472810145234 5.784840576887
203 2 -1.200000000000 5.510519644280 14.472810145234 9.641400961479
204 2 -1.200000000000 7.084953828360 13.359517057139 7.713120769183
205 1 2.400000000000 3.148868368160 11.132930880950 3.856560384591
206 1 2.400000000000 6.297736736320 8.906344704760 3.856560384591
207 1 2.400000000000 6.297736736320 12.246223969045 1.928280192296
208 1 2.400000000000 6.297736736320 12.246223969045 5.784840576887
209 2 -1.200000000000 5.510519644280 11.132930880950 3.856560384591
210 2 -1.200000000000 7.084953828360 10.019637792855 1.928280192296
211 2 -1.200000000000 7.084953828360 10.019637792855 5.784840576887
212 2 -1.200000000000 8.659388012441 8.906344704760 3.856560384591
213 2 -1.200000000000 7.084953828360 13.359517057139 3.856560384591
214 2 -1.200000000000 8.659388012441 12.246223969045 1.928280192296
215 2 -1.200000000000 8.659388012441 12.246223969045 5.784840576887
216 2 -1.200000000000 10.233822196521 11.132930880950 3.856560384591
217 1 2.400000000000 6.297736736320 8.906344704760 0.000000000000
218 1 2.400000000000 9.446605104481 6.679758528570 0.000000000000
219 1 2.400000000000 9.446605104481 10.019637792855 21.211082115253
220 1 2.400000000000 9.446605104481 10.019637792855 1.928280192296
221 2 -1.200000000000 8.659388012441 8.906344704760 0.000000000000
222 2 -1.200000000000 10.233822196521 7.793051616665 21.211082115253
223 2 -1.200000000000 10.233822196521 7.793051616665 1.928280192296
224 2 -1.200000000000 11.808256380601 6.679758528570 0.000000000000
225 2 -1.200000000000 10.233822196521 11.132930880950 0.000000000000
226 2 -1.200000000000 11.808256380601 10.019637792855 21.211082115253
227 2 -1.200000000000 11.808256380601 10.019637792855 1.928280192296
228 2 -1.200000000000 13.382690564681 8.906344704760 0.000000000000
229 1 2.400000000000 -0.000000000000 13.359517057139 15.426241538366
230 1 2.400000000000 3.148868368160 11.132930880950 15.426241538366
231 1 2.400000000000 3.148868368160 14.472810145234 13.497961346070
232 1 2.400000000000 3.148868368160 14.472810145234 17.354521730661
233 2 -1.200000000000 2.361651276120 13.359517057139 15.426241538366
234 2 -1.200000000000 3.936085460200 12.246223969045 13.497961346070
235 2 -1.200000000000 3.936085460200 12.246223969044 17.354521730661
236 2 -1.200000000000 5.510519644280 11.132930880950 15.426241538366
237 2 -1.200000000000 3.936085460200 15.586103233329 15.426241538366
238 2 -1.200000000000 5.510519644280 14.472810145234 13.497961346070
239 2 -1.200000000000 5.510519644280 14.472810145234 17.354521730661
240 2 -1.200000000000 7.084953828360 13.359517057139 15.426241538366
241 1 2.400000000000 3.148868368160 11.132930880950 11.569681153774
242 1 2.400000000000 6.297736736320 8.906344704760 11.569681153774
243 1 2.400000000000 6.297736736320 12.246223969045 9.641400961479
244 1 2.400000000000 6.297736736320 12.246223969045 13.497961346070
245 2 -1.200000000000 5.510519644280 11.132930880950 11.569681153774
246 2 -1.200000000000 7.084953828360 10.019637792855 9.641400961479
247 2 -1.200000000000 7.084953828360 10.019637792855 13.497961346070
248 2 -1.200000000000 8.659388012441 8.906344704760 11.569681153774
249 2 -1.200000000000 7.084953828360 13.359517057139 11.569681153774
250 2 -1.200000000000 8.659388012441 12.246223969045 9.641400961479
251 2 -1.200000000000 8.659388012441 12.246223969045 13.497961346070
252 2 -1.200000000000 10.233822196521 11.132930880950 11.569681153774
253 1 2.400000000000 6.297736736320 8.906344704760 7.713120769183
254 1 2.400000000000 9.446605104481 6.679758528570 7.713120769183
255 1 2.400000000000 9.446605104481 10.019637792855 5.784840576887
256 1 2.400000000000 9.446605104481 10.019637792855 9.641400961479
257 2 -1.200000000000 8.659388012441 8.906344704760 7.713120769183
258 2 -1.200000000000 10.233822196521 7.793051616665 5.784840576887
259 2 -1.200000000000 10.233822196521 7.793051616665 9.641400961479
260 2 -1.200000000000 11.808256380601 6.679758528570 7.713120769183
261 2 -1.200000000000 10.233822196521 11.132930880950 7.713120769183
262 2 -1.200000000000 11.808256380601 10.019637792855 5.784840576887
263 2 -1.200000000000 11.808256380601 10.019637792855 9.641400961479
264 2 -1.200000000000 13.382690564681 8.906344704760 7.713120769183
265 1 2.400000000000 9.446605104481 6.679758528570 3.856560384591
266 1 2.400000000000 12.595473472641 4.453172352380 3.856560384591
267 1 2.400000000000 12.595473472641 7.793051616665 1.928280192296
268 1 2.400000000000 12.595473472641 7.793051616665 5.784840576887
269 2 -1.200000000000 11.808256380601 6.679758528570 3.856560384591
270 2 -1.200000000000 13.382690564681 5.566465440475 1.928280192296
271 2 -1.200000000000 13.382690564681 5.566465440475 5.784840576887
272 2 -1.200000000000 14.957124748761 4.453172352380 3.856560384591
273 2 -1.200000000000 13.382690564681 8.906344704760 3.856560384591
274 2 -1.200000000000 14.957124748761 7.793051616665 1.928280192296
275 2 -1.200000000000 14.957124748761 7.793051616665 5.784840576887
276 2 -1.200000000000 16.531558932841 6.679758528570 3.856560384591
277 1 2.400000000000 12.595473472641 4.453172352380 0.000000000000
278 1 2.400000000000 15.744341840801 2.226586176190 0.000000000000
279 1 2.400000000000 15.744341840801 5.566465440475 21.211082115253
280 1 2.400000000000 15.744341840801 5.566465440475 1.928280192296
281 2 -1.200000000000 14.957124748761 4.453172352380 0.000000000000
282 2 -1.200000000000 16.531558932841 3.339879264285 21.211082115253
283 2 -1.200000000000 16.531558932841 3.339879264285 1.928280192296
284 2 -1.200000000000 18.105993116921 2.226586176190 0.000000000000
285 2 -1.200000000000 16.531558932841 6.679758528570 0.000000000000
286 2 -1.200000000000 18.105993116921 5.566465440475 21.211082115253
287 2 -1.200000000000 18.105993116921 5.566465440475 1.928280192296
288 2 -1.200000000000 19.680427301001 4.453172352380 0.000000000000
289 1 2.400000000000 3.148868368160 11.132930880950 19.282801922957
290 1 2.400000000000 6.297736736320 8.906344704760 19.282801922957
291 1 2.400000000000 6.297736736320 12.246223969045 17.354521730661
292 1 2.400000000000 6.297736736320 12.246223969045 21.211082115253
293 2 -1.200000000000 5.510519644280 11.132930880950 19.282801922957
294 2 -1.200000000000 7.084953828360 10.019637792855 17.354521730661
295 2 -1.200000000000 7.084953828360 10.019637792855 21.211082115253
296 2 -1.200000000000 8.659388012441 8.906344704760 19.282801922957
297 2 -1.200000000000 7.084953828360 13.359517057139 19.282801922957
298 2 -1.200000000000 8.659388012441 12.246223969045 17.354521730661
299 2 -1.200000000000 8.659388012441 12.246223969045 21.211082115253
300 2 -1.200000000000 10.233822196521 11.132930880950 19.282801922957
301 1 2.400000000000 6.297736736320 8.906344704760 15.426241538366
302 1 2.400000000000 9.446605104481 6.679758528570 15.426241538366
303 1 2.400000000000 9.446605104481 10.019637792855 13.497961346070
304 1 2.400000000000 9.446605104481 10.019637792855 17.354521730661
305 2 -1.200000000000 8.659388012441 8.906344704760 15.426241538366
306 2 -1.200000000000 10.233822196521 7.793051616665 13.497961346070
307 2 -1.200000000000 10.233822196521 7.793051616665 17.354521730661
308 2 -1.200000000000 11.808256380601 6.679758528570 15.426241538366
309 2 -1.200000000000 10.233822196521 11.132930880950 15.426241538366
310 2 -1.200000000000 11.808256380601 10.019637792855 13.497961346070
311 2 -1.200000000000 11.808256380601 10.019637792855 17.354521730661
312 2 -1.200000000000 13.382690564681 8.906344704760 15.426241538366
313 1 2.400000000000 9.446605104481 6.679758528570 11.569681153774
314 1 2.400000000000 12.595473472641 4.453172352380 11.569681153774
315 1 2.400000000000 12.595473472641 7.793051616665 9.641400961479
316 1 2.400000000000 12.595473472641 7.793051616665 13.497961346070
317 2 -1.200000000000 11.808256380601 6.679758528570 11.569681153774
318 2 -1.200000000000 13.382690564681 5.566465440475 9.641400961479
319 2 -1.200000000000 13.382690564681 5.566465440475 13.497961346070
320 2 -1.200000000000 14.957124748761 4.453172352380 11.569681153774
321 2 -1.200000000000 13.382690564681 8.906344704760 11.569681153774
322 2 -1.200000000000 14.957124748761 7.793051616665 9.641400961479
323 2 -1.200000000000 14.957124748761 7.793051616665 13.497961346070
324 2 -1.200000000000 16.531558932841 6.679758528570 11.569681153774
325 1 2.400000000000 12.595473472641 4.453172352380 7.713120769183
326 1 2.400000000000 15.744341840801 2.226586176190 7.713120769183
327 1 2.400000000000 15.744341840801 5.566465440475 5.784840576887
328 1 2.400000000000 15.744341840801 5.566465440475 9.641400961479
329 2 -1.200000000000 14.957124748761 4.453172352380 7.713120769183
330 2 -1.200000000000 16.531558932841 3.339879264285 5.784840576887
331 2 -1.200000000000 16.531558932841 3.339879264285 9.641400961479
332 2 -1.200000000000 18.105993116921 2.226586176190 7.713120769183
333 2 -1.200000000000 16.531558932841 6.679758528570 7.713120769183
334 2 -1.200000000000 18.105993116921 5.566465440475 5.784840576887
335 2 -1.200000000000 18.105993116921 5.566465440475 9.641400961479
336 2 -1.200000000000 19.680427301001 4.453172352380 7.713120769183
337 1 2.400000000000 15.744341840801 2.226586176190 3.856560384591
338 1 2.400000000000 18.893210208961 0.000000000000 3.856560384591
339 1 2.400000000000 18.893210208961 3.339879264285 1.928280192296
340 1 2.400000000000 18.893210208961 3.339879264285 5.784840576887
341 2 -1.200000000000 18.105993116921 2.226586176190 3.856560384591
342 2 -1.200000000000 19.680427301001 1.113293088095 1.928280192296
343 2 -1.200000000000 19.680427301001 1.113293088095 5.784840576887
344 2 -1.200000000000 21.254861485081 0.000000000000 3.856560384591
345 2 -1.200000000000 19.680427301001 4.453172352380 3.856560384591
346 2 -1.200000000000 21.254861485081 3.339879264285 1.928280192296
347 2 -1.200000000000 21.254861485081 3.339879264285 5.784840576887
348 2 -1.200000000000 22.829295669162 2.226586176190 3.856560384591
349 1 2.400000000000 18.893210208961 0.000000000000 0.000000000000
350 1 2.400000000000 22.042078577122 24.492447938089 0.000000000000
351 1 2.400000000000 22.042078577122 1.113293088095 21.211082115253
352 1 2.400000000000 22.042078577122 1.113293088095 1.928280192296
353 2 -1.200000000000 21.254861485081 0.000000000000 0.000000000000
354 2 -1.200000000000 22.829295669162 25.605741026184 21.211082115253
355 2 -1.200000000000 22.829295669162 25.605741026184 1.928280192296
356 2 -1.200000000000 24.403729853242 24.492447938089 0.000000000000
357 2 -1.200000000000 22.829295669162 2.226586176190 0.000000000000
358 2 -1.200000000000 24.403729853242 1.113293088095 21.211082115253
359 2 -1.200000000000 24.403729853242 1.113293088095 1.928280192296
360 2 -1.200000000000 25.978164037322 0.000000000000 0.000000000000
361 1 2.400000000000 9.446605104481 6.679758528570 19.282801922957
362 1 2.400000000000 12.595473472641 4.453172352380 19.282801922957
363 1 2.400000000000 12.595473472641 7.793051616665 17.354521730661
364 1 2.400000000000 12.595473472641 7.793051616665 21.211082115253
365 2 -1.200000000000 11.808256380601 6.679758528570 19.282801922957
366 2 -1.200000000000 13.382690564681 5.566465440475 17.354521730661
367 2 -1.200000000000 13.382690564681 5.566465440475 21.211082115253
368 2 -1.200000000000 14.957124748761 4.453172352380 19.282801922957
369 2 -1.200000000000 13.382690564681 8.906344704760 19.282801922957
370 2 -1.200000000000 14.957124748761 7.793051616665 17.354521730661
371 2 -1.200000000000 14.957124748761 7.793051616665 21.211082115253
372 2 -1.200000000000 16.531558932841 6.679758528570 19.282801922957
373 1 2.400000000000 12.595473472641 4.453172352380 15.426241538366
374 1 2.400000000000 15.744341840801 2.226586176190 15.426241538366
375 1 2.400000000000 15.744341840801 5.566465440475 13.497961346070
376 1 2.400000000000 15.744341840801 5.566465440475 17.354521730661
377 2 -1.200000000000 14.957124748761 4.453172352380 15.426241538366
378 2 -1.200000000000 16.531558932841 3.339879264285 13.497961346070
379 2 -1.200000000000 16.531558932841 3.339879264285 17.354521730661
380 2 -1.200000000000 18.105993116921 2.226586176190 15.426241538366
381 2 -1.200000000000 16.531558932841 6.679758528570 15.426241538366
382 2 -1.200000000000 18.105993116921 5.566465440475 13.497961346070
383 2 -1.200000000000 18.105993116921 5.566465440475 17.354521730661
384 2 -1.200000000000 19.680427301001 4.453172352380 15.426241538366
385 1 2.400000000000 15.744341840801 2.226586176190 11.569681153774
386 1 2.400000000000 18.893210208961 0.000000000000 11.569681153774
387 1 2.400000000000 18.893210208961 3.339879264285 9.641400961479
388 1 2.400000000000 18.893210208961 3.339879264285 13.497961346070
389 2 -1.200000000000 18.105993116921 2.226586176190 11.569681153774
390 2 -1.200000000000 19.680427301001 1.113293088095 9.641400961479
391 2 -1.200000000000 19.680427301001 1.113293088095 13.497961346070
392 2 -1.200000000000 21.254861485081 0.000000000000 11.569681153774
393 2 -1.200000000000 19.680427301001 4.453172352380 11.569681153774
394 2 -1.200000000000 21.254861485081 3.339879264285 9.641400961479
395 2 -1.200000000000 21.254861485081 3.339879264285 13.497961346070
396 2 -1.200000000000 22.829295669162 2.226586176190 11.569681153774
397 1 2.400000000000 18.893210208961 0.000000000000 7.713120769183
398 1 2.400000000000 22.042078577122 24.492447938089 7.713120769183
399 1 2.400000000000 22.042078577122 1.113293088095 5.784840576887
400 1 2.400000000000 22.042078577122 1.113293088095 9.641400961479
401 2 -1.200000000000 21.254861485081 0.000000000000 7.713120769183
402 2 -1.200000000000 22.829295669162 25.605741026184 5.784840576887
403 2 -1.200000000000 22.829295669162 25.605741026184 9.641400961479
404 2 -1.200000000000 24.403729853242 24.492447938089 7.713120769183
405 2 -1.200000000000 22.829295669162 2.226586176190 7.713120769183
406 2 -1.200000000000 24.403729853242 1.113293088095 5.784840576887
407 2 -1.200000000000 24.403729853242 1.113293088095 9.641400961479
408 2 -1.200000000000 25.978164037322 0.000000000000 7.713120769183
409 1 2.400000000000 15.744341840801 2.226586176190 19.282801922957
410 1 2.400000000000 18.893210208961 0.000000000000 19.282801922957
411 1 2.400000000000 18.893210208961 3.339879264285 17.354521730661
412 1 2.400000000000 18.893210208961 3.339879264285 21.211082115253
413 2 -1.200000000000 18.105993116921 2.226586176190 19.282801922957
414 2 -1.200000000000 19.680427301001 1.113293088095 17.354521730661
415 2 -1.200000000000 19.680427301001 1.113293088095 21.211082115253
416 2 -1.200000000000 21.254861485081 0.000000000000 19.282801922957
417 2 -1.200000000000 19.680427301001 4.453172352380 19.282801922957
418 2 -1.200000000000 21.254861485081 3.339879264285 17.354521730661
419 2 -1.200000000000 21.254861485081 3.339879264285 21.211082115253
420 2 -1.200000000000 22.829295669162 2.226586176190 19.282801922957
421 1 2.400000000000 18.893210208961 0.000000000000 15.426241538366
422 1 2.400000000000 22.042078577122 24.492447938089 15.426241538366
423 1 2.400000000000 22.042078577122 1.113293088095 13.497961346070
424 1 2.400000000000 22.042078577122 1.113293088095 17.354521730661
425 2 -1.200000000000 21.254861485081 0.000000000000 15.426241538366
426 2 -1.200000000000 22.829295669162 25.605741026184 13.497961346070
427 2 -1.200000000000 22.829295669162 25.605741026184 17.354521730661
428 2 -1.200000000000 24.403729853242 24.492447938089 15.426241538366
429 2 -1.200000000000 22.829295669162 2.226586176190 15.426241538366
430 2 -1.200000000000 24.403729853242 1.113293088095 13.497961346070
431 2 -1.200000000000 24.403729853242 1.113293088095 17.354521730661
432 2 -1.200000000000 25.978164037322 0.000000000000 15.426241538366
433 1 2.400000000000 -0.000000000000 20.039275585709 3.856560384591
434 1 2.400000000000 3.148868368160 17.812689409519 3.856560384591
435 1 2.400000000000 3.148868368160 21.152568673804 1.928280192296
436 1 2.400000000000 3.148868368160 21.152568673804 5.784840576887
437 2 -1.200000000000 2.361651276120 20.039275585709 3.856560384591
438 2 -1.200000000000 3.936085460200 18.925982497614 1.928280192296
439 2 -1.200000000000 3.936085460200 18.925982497614 5.784840576887
440 2 -1.200000000000 5.510519644280 17.812689409519 3.856560384591
441 2 -1.200000000000 3.936085460200 22.265861761899 3.856560384591
442 2 -1.200000000000 5.510519644280 21.152568673804 1.928280192296
443 2 -1.200000000000 5.510519644280 21.152568673804 5.784840576887
444 2 -1.200000000000 7.084953828360 20.039275585709 3.856560384591
445 1 2.400000000000 3.148868368160 17.812689409519 0.000000000000
446 1 2.400000000000 6.297736736320 15.586103233329 0.000000000000
447 1 2.400000000000 6.297736736320 18.925982497614 21.211082115253
448 1 2.400000000000 6.297736736320 18.925982497614 1.928280192296
449 2 -1.200000000000 5.510519644280 17.812689409519 0.000000000000
450 2 -1.200000000000 7.084953828360 16.699396321424 21.211082115253
451 2 -1.200000000000 7.084953828360 16.699396321424 1.928280192296
452 2 -1.200000000000 8.659388012441 15.586103233329 0.000000000000
453 2 -1.200000000000 7.084953828360 20.039275585709 0.000000000000
454 2 -1.200000000000 8.659388012441 18.925982497614 21.211082115253
455 2 -1.200000000000 8.659388012441 18.925982497614 1.928280192296
456 2 -1.200000000000 10.233822196521 17.812689409519 0.000000000000
457 1 2.400000000000 -0.000000000000 20.039275585709 11.569681153774
458 1 2.400000000000 3.148868368160 17.812689409519 11.569681153774
459 1 2.400000000000 3.148868368160 21.152568673804 9.641400961479
460 1 2.400000000000 3.148868368160 21.152568673804 13.497961346070
461 2 -1.200000000000 2.361651276120 20.039275585709 11.569681153774
462 2 -1.200000000000 3.936085460200 18.925982497614 9.641400961479
463 2 -1.200000000000 3.936085460200 18.925982497614 13.497961346070
464 2 -1.200000000000 5.510519644280 17.812689409519 11.569681153774
465 2 -1.200000000000 3.936085460200 22.265861761899 11.569681153774
466 2 -1.200000000000 5.510519644280 21.152568673804 9.641400961479
467 2 -1.200000000000 5.510519644280 21.152568673804 13.497961346070
468 2 -1.200000000000 7.084953828360 20.039275585709 11.569681153774
469 1 2.400000000000 3.148868368160 17.812689409519 7.713120769183
470 1 2.400000000000 6.297736736320 15.586103233329 7.713120769183
471 1 2.400000000000 6.297736736320 18.925982497614 5.784840576887
472 1 2.400000000000 6.297736736320 18.925982497614 9.641400961479
473 2 -1.200000000000 5.510519644280 17.812689409519 7.713120769183
474 2 -1.200000000000 7.084953828360 16.699396321424 5.784840576887
475 2 -1.200000000000 7.084953828360 16.699396321424 9.641400961479
476 2 -1.200000000000 8.659388012441 15.586103233329 7.713120769183
477 2 -1.200000000000 7.084953828360 20.039275585709 7.713120769183
478 2 -1.200000000000 8.659388012441 18.925982497614 5.784840576887
479 2 -1.200000000000 8.659388012441 18.925982497614 9.641400961479
480 2 -1.200000000000 10.233822196521 17.812689409519 7.713120769183
481 1 2.400000000000 6.297736736320 15.586103233329 3.856560384591
482 1 2.400000000000 9.446605104481 13.359517057139 3.856560384591
483 1 2.400000000000 9.446605104481 16.699396321424 1.928280192296
484 1 2.400000000000 9.446605104481 16.699396321424 5.784840576887
485 2 -1.200000000000 8.659388012441 15.586103233329 3.856560384591
486 2 -1.200000000000 10.233822196521 14.472810145234 1.928280192296
487 2 -1.200000000000 10.233822196521 14.472810145234 5.784840576887
488 2 -1.200000000000 11.808256380601 13.359517057139 3.856560384591
489 2 -1.200000000000 10.233822196521 17.812689409519 3.856560384591
490 2 -1.200000000000 11.808256380601 16.699396321424 1.928280192296
491 2 -1.200000000000 11.808256380601 16.699396321424 5.784840576887
492 2 -1.200000000000 13.382690564681 15.586103233329 3.856560384591
493 1 2.400000000000 9.446605104481 13.359517057139 0.000000000000
494 1 2.400000000000 12.595473472641 11.132930880950 0.000000000000
495 1 2.400000000000 12.595473472641 14.472810145234 21.211082115253
496 1 2.400000000000 12.595473472641 14.472810145234 1.928280192296
497 2 -1.200000000000 11.808256380601 13.359517057139 0.000000000000
498 2 -1.200000000000 13.382690564681 12.246223969044 21.211082115253
499 2 -1.200000000000 13.382690564681 12.246223969044 1.928280192296
500 2 -1.200000000000 14.957124748761 11.132930880950 0.000000000000
501 2 -1.200000000000 13.382690564681 15.586103233329 0.000000000000
502 2 -1.200000000000 14.957124748761 14.472810145234 21.211082115253
503 2 -1.200000000000 14.957124748761 14.472810145234 1.928280192296
504 2 -1.200000000000 16.531558932841 13.359517057139 0.000000000000
505 1 2.400000000000 -0.000000000000 20.039275585709 19.282801922957
506 1 2.400000000000 3.148868368160 17.812689409519 19.282801922957
507 1 2.400000000000 3.148868368160 21.152568673804 17.354521730661
508 1 2.400000000000 3.148868368160 21.152568673804 21.211082115253
509 2 -1.200000000000 2.361651276120 20.039275585709 19.282801922957
510 2 -1.200000000000 3.936085460200 18.925982497614 17.354521730661
511 2 -1.200000000000 3.936085460200 18.925982497614 21.211082115253
512 2 -1.200000000000 5.510519644280 17.812689409519 19.282801922957
513 2 -1.200000000000 3.936085460200 22.265861761899 19.282801922957
514 2 -1.200000000000 5.510519644280 21.152568673804 17.354521730661
515 2 -1.200000000000 5.510519644280 21.152568673804 21.211082115253
516 2 -1.200000000000 7.084953828360 20.039275585709 19.282801922957
517 1 2.400000000000 3.148868368160 17.812689409519 15.426241538366
518 1 2.400000000000 6.297736736320 15.586103233329 15.426241538366
519 1 2.400000000000 6.297736736320 18.925982497614 13.497961346070
520 1 2.400000000000 6.297736736320 18.925982497614 17.354521730661
521 2 -1.200000000000 5.510519644280 17.812689409519 15.426241538366
522 2 -1.200000000000 7.084953828360 16.699396321424 13.497961346070
523 2 -1.200000000000 7.084953828360 16.699396321424 17.354521730661
524 2 -1.200000000000 8.659388012441 15.586103233329 15.426241538366
525 2 -1.200000000000 7.084953828360 20.039275585709 15.426241538366
526 2 -1.200000000000 8.659388012441 18.925982497614 13.497961346070
527 2 -1.200000000000 8.659388012441 18.925982497614 17.354521730661
528 2 -1.200000000000 10.233822196521 17.812689409519 15.426241538366
529 1 2.400000000000 6.297736736320 15.586103233329 11.569681153774
530 1 2.400000000000 9.446605104481 13.359517057139 11.569681153774
531 1 2.400000000000 9.446605104481 16.699396321424 9.641400961479
532 1 2.400000000000 9.446605104481 16.699396321424 13.497961346070
533 2 -1.200000000000 8.659388012441 15.586103233329 11.569681153774
534 2 -1.200000000000 10.233822196521 14.472810145234 9.641400961479
535 2 -1.200000000000 10.233822196521 14.472810145234 13.497961346070
536 2 -1.200000000000 11.808256380601 13.359517057139 11.569681153774
537 2 -1.200000000000 10.233822196521 17.812689409519 11.569681153774
538 2 -1.200000000000 11.808256380601 16.699396321424 9.641400961479
539 2 -1.200000000000 11.808256380601 16.699396321424 13.497961346070
540 2 -1.200000000000 13.382690564681 15.586103233329 11.569681153774
541 1 2.400000000000 9.446605104481 13.359517057139 7.713120769183
542 1 2.400000000000 12.595473472641 11.132930880950 7.713120769183
543 1 2.400000000000 12.595473472641 14.472810145234 5.784840576887
544 1 2.400000000000 12.595473472641 14.472810145234 9.641400961479
545 2 -1.200000000000 11.808256380601 13.359517057139 7.713120769183
546 2 -1.200000000000 13.382690564681 12.246223969044 5.784840576887
547 2 -1.200000000000 13.382690564681 12.246223969044 9.641400961479
548 2 -1.200000000000 14.957124748761 11.132930880950 7.713120769183
549 2 -1.200000000000 13.382690564681 15.586103233329 7.713120769183
550 2 -1.200000000000 14.957124748761 14.472810145234 5.784840576887
551 2 -1.200000000000 14.957124748761 14.472810145234 9.641400961479
552 2 -1.200000000000 16.531558932841 13.359517057139 7.713120769183
553 1 2.400000000000 12.595473472641 11.132930880950 3.856560384591
554 1 2.400000000000 15.744341840801 8.906344704760 3.856560384591
555 1 2.400000000000 15.744341840801 12.246223969044 1.928280192296
556 1 2.400000000000 15.744341840801 12.246223969044 5.784840576887
557 2 -1.200000000000 14.957124748761 11.132930880950 3.856560384591
558 2 -1.200000000000 16.531558932841 10.019637792855 1.928280192296
559 2 -1.200000000000 16.531558932841 10.019637792855 5.784840576887
560 2 -1.200000000000 18.105993116921 8.906344704760 3.856560384591
561 2 -1.200000000000 16.531558932841 13.359517057139 3.856560384591
562 2 -1.200000000000 18.105993116921 12.246223969044 1.928280192296
563 2 -1.200000000000 18.105993116921 12.246223969044 5.784840576887
564 2 -1.200000000000 19.680427301001 11.132930880950 3.856560384591
565 1 2.400000000000 15.744341840801 8.906344704760 0.000000000000
566 1 2.400000000000 18.893210208961 6.679758528570 0.000000000000
567 1 2.400000000000 18.893210208961 10.019637792855 21.211082115253
568 1 2.400000000000 18.893210208961 10.019637792855 1.928280192296
569 2 -1.200000000000 18.105993116921 8.906344704760 0.000000000000
570 2 -1.200000000000 19.680427301001 7.793051616665 21.211082115253
571 2 -1.200000000000 19.680427301001 7.793051616665 1.928280192296
572 2 -1.200000000000 21.254861485081 6.679758528570 0.000000000000
573 2 -1.200000000000 19.680427301001 11.132930880950 0.000000000000
574 2 -1.200000000000 21.254861485081 10.019637792855 21.211082115253
575 2 -1.200000000000 21.254861485081 10.019637792855 1.928280192296
576 2 -1.200000000000 22.829295669162 8.906344704760 0.000000000000
577 1 2.400000000000 6.297736736320 15.586103233329 19.282801922957
578 1 2.400000000000 9.446605104481 13.359517057139 19.282801922957
579 1 2.400000000000 9.446605104481 16.699396321424 17.354521730661
580 1 2.400000000000 9.446605104481 16.699396321424 21.211082115253
581 2 -1.200000000000 8.659388012441 15.586103233329 19.282801922957
582 2 -1.200000000000 10.233822196521 14.472810145234 17.354521730661
583 2 -1.200000000000 10.233822196521 14.472810145234 21.211082115253
584 2 -1.200000000000 11.808256380601 13.359517057139 19.282801922957
585 2 -1.200000000000 10.233822196521 17.812689409519 19.282801922957
586 2 -1.200000000000 11.808256380601 16.699396321424 17.354521730661
587 2 -1.200000000000 11.808256380601 16.699396321424 21.211082115253
588 2 -1.200000000000 13.382690564681 15.586103233329 19.282801922957
589 1 2.400000000000 9.446605104481 13.359517057139 15.426241538366
590 1 2.400000000000 12.595473472641 11.132930880950 15.426241538366
591 1 2.400000000000 12.595473472641 14.472810145234 13.497961346070
592 1 2.400000000000 12.595473472641 14.472810145234 17.354521730661
593 2 -1.200000000000 11.808256380601 13.359517057139 15.426241538366
594 2 -1.200000000000 13.382690564681 12.246223969044 13.497961346070
595 2 -1.200000000000 13.382690564681 12.246223969044 17.354521730661
596 2 -1.200000000000 14.957124748761 11.132930880950 15.426241538366
597 2 -1.200000000000 13.382690564681 15.586103233329 15.426241538366
598 2 -1.200000000000 14.957124748761 14.472810145234 13.497961346070
599 2 -1.200000000000 14.957124748761 14.472810145234 17.354521730661
600 2 -1.200000000000 16.531558932841 13.359517057139 15.426241538366
601 1 2.400000000000 12.595473472641 11.132930880950 11.569681153774
602 1 2.400000000000 15.744341840801 8.906344704760 11.569681153774
603 1 2.400000000000 15.744341840801 12.246223969044 9.641400961479
604 1 2.400000000000 15.744341840801 12.246223969045 13.497961346070
605 2 -1.200000000000 14.957124748761 11.132930880950 11.569681153774
606 2 -1.200000000000 16.531558932841 10.019637792855 9.641400961479
607 2 -1.200000000000 16.531558932841 10.019637792855 13.497961346070
608 2 -1.200000000000 18.105993116921 8.906344704760 11.569681153774
609 2 -1.200000000000 16.531558932841 13.359517057139 11.569681153774
610 2 -1.200000000000 18.105993116921 12.246223969044 9.641400961479
611 2 -1.200000000000 18.105993116921 12.246223969044 13.497961346070
612 2 -1.200000000000 19.680427301001 11.132930880950 11.569681153774
613 1 2.400000000000 15.744341840801 8.906344704760 7.713120769183
614 1 2.400000000000 18.893210208961 6.679758528570 7.713120769183
615 1 2.400000000000 18.893210208961 10.019637792855 5.784840576887
616 1 2.400000000000 18.893210208961 10.019637792855 9.641400961479
617 2 -1.200000000000 18.105993116921 8.906344704760 7.713120769183
618 2 -1.200000000000 19.680427301001 7.793051616665 5.784840576887
619 2 -1.200000000000 19.680427301001 7.793051616665 9.641400961479
620 2 -1.200000000000 21.254861485081 6.679758528570 7.713120769183
621 2 -1.200000000000 19.680427301001 11.132930880950 7.713120769183
622 2 -1.200000000000 21.254861485081 10.019637792855 5.784840576887
623 2 -1.200000000000 21.254861485081 10.019637792855 9.641400961479
624 2 -1.200000000000 22.829295669162 8.906344704760 7.713120769183
625 1 2.400000000000 18.893210208961 6.679758528570 3.856560384591
626 1 2.400000000000 22.042078577122 4.453172352380 3.856560384591
627 1 2.400000000000 22.042078577122 7.793051616665 1.928280192296
628 1 2.400000000000 22.042078577122 7.793051616665 5.784840576887
629 2 -1.200000000000 21.254861485081 6.679758528570 3.856560384591
630 2 -1.200000000000 22.829295669162 5.566465440475 1.928280192296
631 2 -1.200000000000 22.829295669162 5.566465440475 5.784840576887
632 2 -1.200000000000 24.403729853242 4.453172352380 3.856560384591
633 2 -1.200000000000 22.829295669162 8.906344704760 3.856560384591
634 2 -1.200000000000 24.403729853242 7.793051616665 1.928280192296
635 2 -1.200000000000 24.403729853242 7.793051616665 5.784840576887
636 2 -1.200000000000 25.978164037322 6.679758528570 3.856560384591
637 1 2.400000000000 22.042078577122 4.453172352380 0.000000000000
638 1 2.400000000000 25.190946945282 2.226586176190 0.000000000000
639 1 2.400000000000 25.190946945282 5.566465440475 21.211082115253
640 1 2.400000000000 25.190946945282 5.566465440475 1.928280192296
641 2 -1.200000000000 24.403729853242 4.453172352380 0.000000000000
642 2 -1.200000000000 25.978164037322 3.339879264285 21.211082115253
643 2 -1.200000000000 25.978164037322 3.339879264285 1.928280192296
644 2 -1.200000000000 27.552598221402 2.226586176190 0.000000000000
645 2 -1.200000000000 25.978164037322 6.679758528570 0.000000000000
646 2 -1.200000000000 27.552598221402 5.566465440475 21.211082115253
647 2 -1.200000000000 27.552598221402 5.566465440475 1.928280192296
648 2 -1.200000000000 29.127032405482 4.453172352380 0.000000000000
649 1 2.400000000000 12.595473472641 11.132930880950 19.282801922957
650 1 2.400000000000 15.744341840801 8.906344704760 19.282801922957
651 1 2.400000000000 15.744341840801 12.246223969045 17.354521730661
652 1 2.400000000000 15.744341840801 12.246223969045 21.211082115253
653 2 -1.200000000000 14.957124748761 11.132930880950 19.282801922957
654 2 -1.200000000000 16.531558932841 10.019637792855 17.354521730661
655 2 -1.200000000000 16.531558932841 10.019637792855 21.211082115253
656 2 -1.200000000000 18.105993116921 8.906344704760 19.282801922957
657 2 -1.200000000000 16.531558932841 13.359517057139 19.282801922957
658 2 -1.200000000000 18.105993116921 12.246223969044 17.354521730661
659 2 -1.200000000000 18.105993116921 12.246223969044 21.211082115253
660 2 -1.200000000000 19.680427301001 11.132930880950 19.282801922957
661 1 2.400000000000 15.744341840801 8.906344704760 15.426241538366
662 1 2.400000000000 18.893210208961 6.679758528570 15.426241538366
663 1 2.400000000000 18.893210208961 10.019637792855 13.497961346070
664 1 2.400000000000 18.893210208961 10.019637792855 17.354521730661
665 2 -1.200000000000 18.105993116921 8.906344704760 15.426241538366
666 2 -1.200000000000 19.680427301001 7.793051616665 13.497961346070
667 2 -1.200000000000 19.680427301001 7.793051616665 17.354521730661
668 2 -1.200000000000 21.254861485081 6.679758528570 15.426241538366
669 2 -1.200000000000 19.680427301001 11.132930880950 15.426241538366
670 2 -1.200000000000 21.254861485081 10.019637792855 13.497961346070
671 2 -1.200000000000 21.254861485081 10.019637792855 17.354521730661
672 2 -1.200000000000 22.829295669162 8.906344704760 15.426241538366
673 1 2.400000000000 18.893210208961 6.679758528570 11.569681153774
674 1 2.400000000000 22.042078577122 4.453172352380 11.569681153774
675 1 2.400000000000 22.042078577122 7.793051616665 9.641400961479
676 1 2.400000000000 22.042078577122 7.793051616665 13.497961346070
677 2 -1.200000000000 21.254861485081 6.679758528570 11.569681153774
678 2 -1.200000000000 22.829295669162 5.566465440475 9.641400961479
679 2 -1.200000000000 22.829295669162 5.566465440475 13.497961346070
680 2 -1.200000000000 24.403729853242 4.453172352380 11.569681153774
681 2 -1.200000000000 22.829295669162 8.906344704760 11.569681153774
682 2 -1.200000000000 24.403729853242 7.793051616665 9.641400961479
683 2 -1.200000000000 24.403729853242 7.793051616665 13.497961346070
684 2 -1.200000000000 25.978164037322 6.679758528570 11.569681153774
685 1 2.400000000000 22.042078577122 4.453172352380 7.713120769183
686 1 2.400000000000 25.190946945282 2.226586176190 7.713120769183
687 1 2.400000000000 25.190946945282 5.566465440475 5.784840576887
688 1 2.400000000000 25.190946945282 5.566465440475 9.641400961479
689 2 -1.200000000000 24.403729853242 4.453172352380 7.713120769183
690 2 -1.200000000000 25.978164037322 3.339879264285 5.784840576887
691 2 -1.200000000000 25.978164037322 3.339879264285 9.641400961479
692 2 -1.200000000000 27.552598221402 2.226586176190 7.713120769183
693 2 -1.200000000000 25.978164037322 6.679758528570 7.713120769183
694 2 -1.200000000000 27.552598221402 5.566465440475 5.784840576887
695 2 -1.200000000000 27.552598221402 5.566465440475 9.641400961479
696 2 -1.200000000000 29.127032405482 4.453172352380 7.713120769183
697 1 2.400000000000 25.190946945282 2.226586176190 3.856560384591
698 1 2.400000000000 28.339815313442 0.000000000000 3.856560384591
699 1 2.400000000000 28.339815313442 3.339879264285 1.928280192296
700 1 2.400000000000 28.339815313442 3.339879264285 5.784840576887
701 2 -1.200000000000 27.552598221402 2.226586176190 3.856560384591
702 2 -1.200000000000 29.127032405482 1.113293088095 1.928280192296
703 2 -1.200000000000 29.127032405482 1.113293088095 5.784840576887
704 2 -1.200000000000 30.701466589562 0.000000000000 3.856560384591
705 2 -1.200000000000 29.127032405482 4.453172352380 3.856560384591
706 2 -1.200000000000 30.701466589562 3.339879264285 1.928280192296
707 2 -1.200000000000 30.701466589562 3.339879264285 5.784840576887
708 2 -1.200000000000 32.275900773642 2.226586176190 3.856560384591
709 1 2.400000000000 28.339815313442 0.000000000000 0.000000000000
710 1 2.400000000000 31.488683681602 24.492447938089 0.000000000000
711 1 2.400000000000 31.488683681602 1.113293088095 21.211082115253
712 1 2.400000000000 31.488683681602 1.113293088095 1.928280192296
713 2 -1.200000000000 30.701466589562 0.000000000000 0.000000000000
714 2 -1.200000000000 32.275900773642 25.605741026184 21.211082115253
715 2 -1.200000000000 32.275900773642 25.605741026184 1.928280192296
716 2 -1.200000000000 33.850334957722 24.492447938089 0.000000000000
717 2 -1.200000000000 32.275900773642 2.226586176190 0.000000000000
718 2 -1.200000000000 33.850334957722 1.113293088095 21.211082115253
719 2 -1.200000000000 33.850334957722 1.113293088095 1.928280192296
720 2 -1.200000000000 35.424769141802 0.000000000000 0.000000000000
721 1 2.400000000000 18.893210208961 6.679758528570 19.282801922957
722 1 2.400000000000 22.042078577122 4.453172352380 19.282801922957
723 1 2.400000000000 22.042078577122 7.793051616665 17.354521730661
724 1 2.400000000000 22.042078577122 7.793051616665 21.211082115253
725 2 -1.200000000000 21.254861485081 6.679758528570 19.282801922957
726 2 -1.200000000000 22.829295669162 5.566465440475 17.354521730661
727 2 -1.200000000000 22.829295669162 5.566465440475 21.211082115253
728 2 -1.200000000000 24.403729853242 4.453172352380 19.282801922957
729 2 -1.200000000000 22.829295669162 8.906344704760 19.282801922957
730 2 -1.200000000000 24.403729853242 7.793051616665 17.354521730661
731 2 -1.200000000000 24.403729853242 7.793051616665 21.211082115253
732 2 -1.200000000000 25.978164037322 6.679758528570 19.282801922957
733 1 2.400000000000 22.042078577122 4.453172352380 15.426241538366
734 1 2.400000000000 25.190946945282 2.226586176190 15.426241538366
735 1 2.400000000000 25.190946945282 5.566465440475 13.497961346070
736 1 2.400000000000 25.190946945282 5.566465440475 17.354521730661
737 2 -1.200000000000 24.403729853242 4.453172352380 15.426241538366
738 2 -1.200000000000 25.978164037322 3.339879264285 13.497961346070
739 2 -1.200000000000 25.978164037322 3.339879264285 17.354521730661
740 2 -1.200000000000 27.552598221402 2.226586176190 15.426241538366
741 2 -1.200000000000 25.978164037322 6.679758528570 15.426241538366
742 2 -1.200000000000 27.552598221402 5.566465440475 13.497961346070
743 2 -1.200000000000 27.552598221402 5.566465440475 17.354521730661
744 2 -1.200000000000 29.127032405482 4.453172352380 15.426241538366
745 1 2.400000000000 25.190946945282 2.226586176190 11.569681153774
746 1 2.400000000000 28.339815313442 0.000000000000 11.569681153774
747 1 2.400000000000 28.339815313442 3.339879264285 9.641400961479
748 1 2.400000000000 28.339815313442 3.339879264285 13.497961346070
749 2 -1.200000000000 27.552598221402 2.226586176190 11.569681153774
750 2 -1.200000000000 29.127032405482 1.113293088095 9.641400961479
751 2 -1.200000000000 29.127032405482 1.113293088095 13.497961346070
752 2 -1.200000000000 30.701466589562 0.000000000000 11.569681153774
753 2 -1.200000000000 29.127032405482 4.453172352380 11.569681153774
754 2 -1.200000000000 30.701466589562 3.339879264285 9.641400961479
755 2 -1.200000000000 30.701466589562 3.339879264285 13.497961346070
756 2 -1.200000000000 32.275900773642 2.226586176190 11.569681153774
757 1 2.400000000000 28.339815313442 0.000000000000 7.713120769183
758 1 2.400000000000 31.488683681602 24.492447938089 7.713120769183
759 1 2.400000000000 31.488683681602 1.113293088095 5.784840576887
760 1 2.400000000000 31.488683681602 1.113293088095 9.641400961479
761 2 -1.200000000000 30.701466589562 0.000000000000 7.713120769183
762 2 -1.200000000000 32.275900773642 25.605741026184 5.784840576887
763 2 -1.200000000000 32.275900773642 25.605741026184 9.641400961479
764 2 -1.200000000000 33.850334957722 24.492447938089 7.713120769183
765 2 -1.200000000000 32.275900773642 2.226586176190 7.713120769183
766 2 -1.200000000000 33.850334957722 1.113293088095 5.784840576887
767 2 -1.200000000000 33.850334957722 1.113293088095 9.641400961479
768 2 -1.200000000000 35.424769141802 0.000000000000 7.713120769183
769 1 2.400000000000 25.190946945282 2.226586176190 19.282801922957
770 1 2.400000000000 28.339815313442 0.000000000000 19.282801922957
771 1 2.400000000000 28.339815313442 3.339879264285 17.354521730661
772 1 2.400000000000 28.339815313442 3.339879264285 21.211082115253
773 2 -1.200000000000 27.552598221402 2.226586176190 19.282801922957
774 2 -1.200000000000 29.127032405482 1.113293088095 17.354521730661
775 2 -1.200000000000 29.127032405482 1.113293088095 21.211082115253
776 2 -1.200000000000 30.701466589562 0.000000000000 19.282801922957
777 2 -1.200000000000 29.127032405482 4.453172352380 19.282801922957
778 2 -1.200000000000 30.701466589562 3.339879264285 17.354521730661
779 2 -1.200000000000 30.701466589562 3.339879264285 21.211082115253
780 2 -1.200000000000 32.275900773642 2.226586176190 19.282801922957
781 1 2.400000000000 28.339815313442 0.000000000000 15.426241538366
782 1 2.400000000000 31.488683681602 24.492447938089 15.426241538366
783 1 2.400000000000 31.488683681602 1.113293088095 13.497961346070
784 1 2.400000000000 31.488683681602 1.113293088095 17.354521730661
785 2 -1.200000000000 30.701466589562 0.000000000000 15.426241538366
786 2 -1.200000000000 32.275900773642 25.605741026184 13.497961346070
787 2 -1.200000000000 32.275900773642 25.605741026184 17.354521730661
788 2 -1.200000000000 33.850334957722 24.492447938089 15.426241538366
789 2 -1.200000000000 32.275900773642 2.226586176190 15.426241538366
790 2 -1.200000000000 33.850334957722 1.113293088095 13.497961346070
791 2 -1.200000000000 33.850334957722 1.113293088095 17.354521730661
792 2 -1.200000000000 35.424769141802 0.000000000000 15.426241538366
793 1 2.400000000000 3.148868368160 24.492447938089 3.856560384591
794 1 2.400000000000 6.297736736320 22.265861761899 3.856560384591
795 1 2.400000000000 6.297736736320 25.605741026184 1.928280192296
796 1 2.400000000000 6.297736736320 25.605741026184 5.784840576887
797 2 -1.200000000000 5.510519644280 24.492447938089 3.856560384591
798 2 -1.200000000000 7.084953828360 23.379154849994 1.928280192296
799 2 -1.200000000000 7.084953828360 23.379154849994 5.784840576887
800 2 -1.200000000000 8.659388012441 22.265861761899 3.856560384591
801 2 -1.200000000000 7.084953828360 0.000000000000 3.856560384591
802 2 -1.200000000000 8.659388012441 25.605741026184 1.928280192296
803 2 -1.200000000000 8.659388012441 25.605741026184 5.784840576887
804 2 -1.200000000000 10.233822196521 24.492447938089 3.856560384591
805 1 2.400000000000 6.297736736320 22.265861761899 0.000000000000
806 1 2.400000000000 9.446605104481 20.039275585709 0.000000000000
807 1 2.400000000000 9.446605104481 23.379154849994 21.211082115253
808 1 2.400000000000 9.446605104481 23.379154849994 1.928280192296
809 2 -1.200000000000 8.659388012441 22.265861761899 0.000000000000
810 2 -1.200000000000 10.233822196521 21.152568673804 21.211082115253
811 2 -1.200000000000 10.233822196521 21.152568673804 1.928280192296
812 2 -1.200000000000 11.808256380601 20.039275585709 0.000000000000
813 2 -1.200000000000 10.233822196521 24.492447938089 0.000000000000
814 2 -1.200000000000 11.808256380601 23.379154849994 21.211082115253
815 2 -1.200000000000 11.808256380601 23.379154849994 1.928280192296
816 2 -1.200000000000 13.382690564681 22.265861761899 0.000000000000
817 1 2.400000000000 3.148868368160 24.492447938089 11.569681153774
818 1 2.400000000000 6.297736736320 22.265861761899 11.569681153774
819 1 2.400000000000 6.297736736320 25.605741026184 9.641400961479
820 1 2.400000000000 6.297736736320 25.605741026184 13.497961346070
821 2 -1.200000000000 5.510519644280 24.492447938089 11.569681153774
822 2 -1.200000000000 7.084953828360 23.379154849994 9.641400961479
823 2 -1.200000000000 7.084953828360 23.379154849994 13.497961346070
824 2 -1.200000000000 8.659388012441 22.265861761899 11.569681153774
825 2 -1.200000000000 7.084953828360 0.000000000000 11.569681153774
826 2 -1.200000000000 8.659388012441 25.605741026184 9.641400961479
827 2 -1.200000000000 8.659388012441 25.605741026184 13.497961346070
828 2 -1.200000000000 10.233822196521 24.492447938089 11.569681153774
829 1 2.400000000000 6.297736736320 22.265861761899 7.713120769183
830 1 2.400000000000 9.446605104481 20.039275585709 7.713120769183
831 1 2.400000000000 9.446605104481 23.379154849994 5.784840576887
832 1 2.400000000000 9.446605104481 23.379154849994 9.641400961479
833 2 -1.200000000000 8.659388012441 22.265861761899 7.713120769183
834 2 -1.200000000000 10.233822196521 21.152568673804 5.784840576887
835 2 -1.200000000000 10.233822196521 21.152568673804 9.641400961479
836 2 -1.200000000000 11.808256380601 20.039275585709 7.713120769183
837 2 -1.200000000000 10.233822196521 24.492447938089 7.713120769183
838 2 -1.200000000000 11.808256380601 23.379154849994 5.784840576887
839 2 -1.200000000000 11.808256380601 23.379154849994 9.641400961479
840 2 -1.200000000000 13.382690564681 22.265861761899 7.713120769183
841 1 2.400000000000 9.446605104481 20.039275585709 3.856560384591
842 1 2.400000000000 12.595473472641 17.812689409519 3.856560384591
843 1 2.400000000000 12.595473472641 21.152568673804 1.928280192296
844 1 2.400000000000 12.595473472641 21.152568673804 5.784840576887
845 2 -1.200000000000 11.808256380601 20.039275585709 3.856560384591
846 2 -1.200000000000 13.382690564681 18.925982497614 1.928280192296
847 2 -1.200000000000 13.382690564681 18.925982497614 5.784840576887
848 2 -1.200000000000 14.957124748761 17.812689409519 3.856560384591
849 2 -1.200000000000 13.382690564681 22.265861761899 3.856560384591
850 2 -1.200000000000 14.957124748761 21.152568673804 1.928280192296
851 2 -1.200000000000 14.957124748761 21.152568673804 5.784840576887
852 2 -1.200000000000 16.531558932841 20.039275585709 3.856560384591
853 1 2.400000000000 12.595473472641 17.812689409519 0.000000000000
854 1 2.400000000000 15.744341840801 15.586103233329 0.000000000000
855 1 2.400000000000 15.744341840801 18.925982497614 21.211082115253
856 1 2.400000000000 15.744341840801 18.925982497614 1.928280192296
857 2 -1.200000000000 14.957124748761 17.812689409519 0.000000000000
858 2 -1.200000000000 16.531558932841 16.699396321424 21.211082115253
859 2 -1.200000000000 16.531558932841 16.699396321424 1.928280192296
860 2 -1.200000000000 18.105993116921 15.586103233329 0.000000000000
861 2 -1.200000000000 16.531558932841 20.039275585709 0.000000000000
862 2 -1.200000000000 18.105993116921 18.925982497614 21.211082115253
863 2 -1.200000000000 18.105993116921 18.925982497614 1.928280192296
864 2 -1.200000000000 19.680427301001 17.812689409519 0.000000000000
865 1 2.400000000000 3.148868368160 24.492447938089 19.282801922957
866 1 2.400000000000 6.297736736320 22.265861761899 19.282801922957
867 1 2.400000000000 6.297736736320 25.605741026184 17.354521730661
868 1 2.400000000000 6.297736736320 25.605741026184 21.211082115253
869 2 -1.200000000000 5.510519644280 24.492447938089 19.282801922957
870 2 -1.200000000000 7.084953828360 23.379154849994 17.354521730661
871 2 -1.200000000000 7.084953828360 23.379154849994 21.211082115253
872 2 -1.200000000000 8.659388012441 22.265861761899 19.282801922957
873 2 -1.200000000000 7.084953828360 0.000000000000 19.282801922957
874 2 -1.200000000000 8.659388012441 25.605741026184 17.354521730661
875 2 -1.200000000000 8.659388012441 25.605741026184 21.211082115253
876 2 -1.200000000000 10.233822196521 24.492447938089 19.282801922957
877 1 2.400000000000 6.297736736320 22.265861761899 15.426241538366
878 1 2.400000000000 9.446605104481 20.039275585709 15.426241538366
879 1 2.400000000000 9.446605104481 23.379154849994 13.497961346070
880 1 2.400000000000 9.446605104481 23.379154849994 17.354521730661
881 2 -1.200000000000 8.659388012441 22.265861761899 15.426241538366
882 2 -1.200000000000 10.233822196521 21.152568673804 13.497961346070
883 2 -1.200000000000 10.233822196521 21.152568673804 17.354521730661
884 2 -1.200000000000 11.808256380601 20.039275585709 15.426241538366
885 2 -1.200000000000 10.233822196521 24.492447938089 15.426241538366
886 2 -1.200000000000 11.808256380601 23.379154849994 13.497961346070
887 2 -1.200000000000 11.808256380601 23.379154849994 17.354521730661
888 2 -1.200000000000 13.382690564681 22.265861761899 15.426241538366
889 1 2.400000000000 9.446605104481 20.039275585709 11.569681153774
890 1 2.400000000000 12.595473472641 17.812689409519 11.569681153774
891 1 2.400000000000 12.595473472641 21.152568673804 9.641400961479
892 1 2.400000000000 12.595473472641 21.152568673804 13.497961346070
893 2 -1.200000000000 11.808256380601 20.039275585709 11.569681153774
894 2 -1.200000000000 13.382690564681 18.925982497614 9.641400961479
895 2 -1.200000000000 13.382690564681 18.925982497614 13.497961346070
896 2 -1.200000000000 14.957124748761 17.812689409519 11.569681153774
897 2 -1.200000000000 13.382690564681 22.265861761899 11.569681153774
898 2 -1.200000000000 14.957124748761 21.152568673804 9.641400961479
899 2 -1.200000000000 14.957124748761 21.152568673804 13.497961346070
900 2 -1.200000000000 16.531558932841 20.039275585709 11.569681153774
901 1 2.400000000000 12.595473472641 17.812689409519 7.713120769183
902 1 2.400000000000 15.744341840801 15.586103233329 7.713120769183
903 1 2.400000000000 15.744341840801 18.925982497614 5.784840576887
904 1 2.400000000000 15.744341840801 18.925982497614 9.641400961479
905 2 -1.200000000000 14.957124748761 17.812689409519 7.713120769183
906 2 -1.200000000000 16.531558932841 16.699396321424 5.784840576887
907 2 -1.200000000000 16.531558932841 16.699396321424 9.641400961479
908 2 -1.200000000000 18.105993116921 15.586103233329 7.713120769183
909 2 -1.200000000000 16.531558932841 20.039275585709 7.713120769183
910 2 -1.200000000000 18.105993116921 18.925982497614 5.784840576887
911 2 -1.200000000000 18.105993116921 18.925982497614 9.641400961479
912 2 -1.200000000000 19.680427301001 17.812689409519 7.713120769183
913 1 2.400000000000 15.744341840801 15.586103233329 3.856560384591
914 1 2.400000000000 18.893210208961 13.359517057139 3.856560384591
915 1 2.400000000000 18.893210208961 16.699396321424 1.928280192296
916 1 2.400000000000 18.893210208961 16.699396321424 5.784840576887
917 2 -1.200000000000 18.105993116921 15.586103233329 3.856560384591
918 2 -1.200000000000 19.680427301001 14.472810145234 1.928280192296
919 2 -1.200000000000 19.680427301001 14.472810145234 5.784840576887
920 2 -1.200000000000 21.254861485081 13.359517057139 3.856560384591
921 2 -1.200000000000 19.680427301001 17.812689409519 3.856560384591
922 2 -1.200000000000 21.254861485081 16.699396321424 1.928280192296
923 2 -1.200000000000 21.254861485081 16.699396321424 5.784840576887
924 2 -1.200000000000 22.829295669162 15.586103233329 3.856560384591
925 1 2.400000000000 18.893210208961 13.359517057139 0.000000000000
926 1 2.400000000000 22.042078577122 11.132930880950 0.000000000000
927 1 2.400000000000 22.042078577122 14.472810145234 21.211082115253
928 1 2.400000000000 22.042078577122 14.472810145234 1.928280192296
929 2 -1.200000000000 21.254861485081 13.359517057139 0.000000000000
930 2 -1.200000000000 22.829295669162 12.246223969044 21.211082115253
931 2 -1.200000000000 22.829295669162 12.246223969044 1.928280192296
932 2 -1.200000000000 24.403729853242 11.132930880950 0.000000000000
933 2 -1.200000000000 22.829295669162 15.586103233329 0.000000000000
934 2 -1.200000000000 24.403729853242 14.472810145234 21.211082115253
935 2 -1.200000000000 24.403729853242 14.472810145234 1.928280192296
936 2 -1.200000000000 25.978164037322 13.359517057139 0.000000000000
937 1 2.400000000000 9.446605104481 20.039275585709 19.282801922957
938 1 2.400000000000 12.595473472641 17.812689409519 19.282801922957
939 1 2.400000000000 12.595473472641 21.152568673804 17.354521730661
940 1 2.400000000000 12.595473472641 21.152568673804 21.211082115253
941 2 -1.200000000000 11.808256380601 20.039275585709 19.282801922957
942 2 -1.200000000000 13.382690564681 18.925982497614 17.354521730661
943 2 -1.200000000000 13.382690564681 18.925982497614 21.211082115253
944 2 -1.200000000000 14.957124748761 17.812689409519 19.282801922957
945 2 -1.200000000000 13.382690564681 22.265861761899 19.282801922957
946 2 -1.200000000000 14.957124748761 21.152568673804 17.354521730661
947 2 -1.200000000000 14.957124748761 21.152568673804 21.211082115253
948 2 -1.200000000000 16.531558932841 20.039275585709 19.282801922957
949 1 2.400000000000 12.595473472641 17.812689409519 15.426241538366
950 1 2.400000000000 15.744341840801 15.586103233329 15.426241538366
951 1 2.400000000000 15.744341840801 18.925982497614 13.497961346070
952 1 2.400000000000 15.744341840801 18.925982497614 17.354521730661
953 2 -1.200000000000 14.957124748761 17.812689409519 15.426241538366
954 2 -1.200000000000 16.531558932841 16.699396321424 13.497961346070
955 2 -1.200000000000 16.531558932841 16.699396321424 17.354521730661
956 2 -1.200000000000 18.105993116921 15.586103233329 15.426241538366
957 2 -1.200000000000 16.531558932841 20.039275585709 15.426241538366
958 2 -1.200000000000 18.105993116921 18.925982497614 13.497961346070
959 2 -1.200000000000 18.105993116921 18.925982497614 17.354521730661
960 2 -1.200000000000 19.680427301001 17.812689409519 15.426241538366
961 1 2.400000000000 15.744341840801 15.586103233329 11.569681153774
962 1 2.400000000000 18.893210208961 13.359517057139 11.569681153774
963 1 2.400000000000 18.893210208961 16.699396321424 9.641400961479
964 1 2.400000000000 18.893210208961 16.699396321424 13.497961346070
965 2 -1.200000000000 18.105993116921 15.586103233329 11.569681153774
966 2 -1.200000000000 19.680427301001 14.472810145234 9.641400961479
967 2 -1.200000000000 19.680427301001 14.472810145234 13.497961346070
968 2 -1.200000000000 21.254861485081 13.359517057139 11.569681153774
969 2 -1.200000000000 19.680427301001 17.812689409519 11.569681153774
970 2 -1.200000000000 21.254861485081 16.699396321424 9.641400961479
971 2 -1.200000000000 21.254861485081 16.699396321424 13.497961346070
972 2 -1.200000000000 22.829295669162 15.586103233329 11.569681153774
973 1 2.400000000000 18.893210208961 13.359517057139 7.713120769183
974 1 2.400000000000 22.042078577122 11.132930880950 7.713120769183
975 1 2.400000000000 22.042078577122 14.472810145234 5.784840576887
976 1 2.400000000000 22.042078577122 14.472810145234 9.641400961479
977 2 -1.200000000000 21.254861485081 13.359517057139 7.713120769183
978 2 -1.200000000000 22.829295669162 12.246223969044 5.784840576887
979 2 -1.200000000000 22.829295669162 12.246223969044 9.641400961479
980 2 -1.200000000000 24.403729853242 11.132930880950 7.713120769183
981 2 -1.200000000000 22.829295669162 15.586103233329 7.713120769183
982 2 -1.200000000000 24.403729853242 14.472810145234 5.784840576887
983 2 -1.200000000000 24.403729853242 14.472810145234 9.641400961479
984 2 -1.200000000000 25.978164037322 13.359517057139 7.713120769183
985 1 2.400000000000 22.042078577122 11.132930880950 3.856560384591
986 1 2.400000000000 25.190946945282 8.906344704760 3.856560384591
987 1 2.400000000000 25.190946945282 12.246223969044 1.928280192296
988 1 2.400000000000 25.190946945282 12.246223969044 5.784840576887
989 2 -1.200000000000 24.403729853242 11.132930880950 3.856560384591
990 2 -1.200000000000 25.978164037322 10.019637792855 1.928280192296
991 2 -1.200000000000 25.978164037322 10.019637792855 5.784840576887
992 2 -1.200000000000 27.552598221402 8.906344704760 3.856560384591
993 2 -1.200000000000 25.978164037322 13.359517057139 3.856560384591
994 2 -1.200000000000 27.552598221402 12.246223969045 1.928280192296
995 2 -1.200000000000 27.552598221402 12.246223969045 5.784840576887
996 2 -1.200000000000 29.127032405482 11.132930880950 3.856560384591
997 1 2.400000000000 25.190946945282 8.906344704760 0.000000000000
998 1 2.400000000000 28.339815313442 6.679758528570 0.000000000000
999 1 2.400000000000 28.339815313442 10.019637792855 21.211082115253
1000 1 2.400000000000 28.339815313442 10.019637792855 1.928280192296
1001 2 -1.200000000000 27.552598221402 8.906344704760 0.000000000000
1002 2 -1.200000000000 29.127032405482 7.793051616665 21.211082115253
1003 2 -1.200000000000 29.127032405482 7.793051616665 1.928280192296
1004 2 -1.200000000000 30.701466589562 6.679758528570 0.000000000000
1005 2 -1.200000000000 29.127032405482 11.132930880950 0.000000000000
1006 2 -1.200000000000 30.701466589562 10.019637792855 21.211082115253
1007 2 -1.200000000000 30.701466589562 10.019637792855 1.928280192296
1008 2 -1.200000000000 32.275900773642 8.906344704760 0.000000000000
1009 1 2.400000000000 15.744341840801 15.586103233329 19.282801922957
1010 1 2.400000000000 18.893210208961 13.359517057139 19.282801922957
1011 1 2.400000000000 18.893210208961 16.699396321424 17.354521730661
1012 1 2.400000000000 18.893210208961 16.699396321424 21.211082115253
1013 2 -1.200000000000 18.105993116921 15.586103233329 19.282801922957
1014 2 -1.200000000000 19.680427301001 14.472810145234 17.354521730661
1015 2 -1.200000000000 19.680427301001 14.472810145234 21.211082115253
1016 2 -1.200000000000 21.254861485081 13.359517057139 19.282801922957
1017 2 -1.200000000000 19.680427301001 17.812689409519 19.282801922957
1018 2 -1.200000000000 21.254861485081 16.699396321424 17.354521730661
1019 2 -1.200000000000 21.254861485081 16.699396321424 21.211082115253
1020 2 -1.200000000000 22.829295669162 15.586103233329 19.282801922957
1021 1 2.400000000000 18.893210208961 13.359517057139 15.426241538366
1022 1 2.400000000000 22.042078577122 11.132930880950 15.426241538366
1023 1 2.400000000000 22.042078577122 14.472810145234 13.497961346070
1024 1 2.400000000000 22.042078577122 14.472810145234 17.354521730661
1025 2 -1.200000000000 21.254861485081 13.359517057139 15.426241538366
1026 2 -1.200000000000 22.829295669162 12.246223969044 13.497961346070
1027 2 -1.200000000000 22.829295669162 12.246223969044 17.354521730661
1028 2 -1.200000000000 24.403729853242 11.132930880950 15.426241538366
1029 2 -1.200000000000 22.829295669162 15.586103233329 15.426241538366
1030 2 -1.200000000000 24.403729853242 14.472810145234 13.497961346070
1031 2 -1.200000000000 24.403729853242 14.472810145234 17.354521730661
1032 2 -1.200000000000 25.978164037322 13.359517057139 15.426241538366
1033 1 2.400000000000 22.042078577122 11.132930880950 11.569681153774
1034 1 2.400000000000 25.190946945282 8.906344704760 11.569681153774
1035 1 2.400000000000 25.190946945282 12.246223969045 9.641400961479
1036 1 2.400000000000 25.190946945282 12.246223969044 13.497961346070
1037 2 -1.200000000000 24.403729853242 11.132930880950 11.569681153774
1038 2 -1.200000000000 25.978164037322 10.019637792855 9.641400961479
1039 2 -1.200000000000 25.978164037322 10.019637792855 13.497961346070
1040 2 -1.200000000000 27.552598221402 8.906344704760 11.569681153774
1041 2 -1.200000000000 25.978164037322 13.359517057139 11.569681153774
1042 2 -1.200000000000 27.552598221402 12.246223969045 9.641400961479
1043 2 -1.200000000000 27.552598221402 12.246223969045 13.497961346070
1044 2 -1.200000000000 29.127032405482 11.132930880950 11.569681153774
1045 1 2.400000000000 25.190946945282 8.906344704760 7.713120769183
1046 1 2.400000000000 28.339815313442 6.679758528570 7.713120769183
1047 1 2.400000000000 28.339815313442 10.019637792855 5.784840576887
1048 1 2.400000000000 28.339815313442 10.019637792855 9.641400961479
1049 2 -1.200000000000 27.552598221402 8.906344704760 7.713120769183
1050 2 -1.200000000000 29.127032405482 7.793051616665 5.784840576887
1051 2 -1.200000000000 29.127032405482 7.793051616665 9.641400961479
1052 2 -1.200000000000 30.701466589562 6.679758528570 7.713120769183
1053 2 -1.200000000000 29.127032405482 11.132930880950 7.713120769183
1054 2 -1.200000000000 30.701466589562 10.019637792855 5.784840576887
1055 2 -1.200000000000 30.701466589562 10.019637792855 9.641400961479
1056 2 -1.200000000000 32.275900773642 8.906344704760 7.713120769183
1057 1 2.400000000000 28.339815313442 6.679758528570 3.856560384591
1058 1 2.400000000000 31.488683681602 4.453172352380 3.856560384591
1059 1 2.400000000000 31.488683681602 7.793051616665 1.928280192296
1060 1 2.400000000000 31.488683681602 7.793051616665 5.784840576887
1061 2 -1.200000000000 30.701466589562 6.679758528570 3.856560384591
1062 2 -1.200000000000 32.275900773642 5.566465440475 1.928280192296
1063 2 -1.200000000000 32.275900773642 5.566465440475 5.784840576887
1064 2 -1.200000000000 33.850334957722 4.453172352380 3.856560384591
1065 2 -1.200000000000 32.275900773642 8.906344704760 3.856560384591
1066 2 -1.200000000000 33.850334957722 7.793051616665 1.928280192296
1067 2 -1.200000000000 33.850334957722 7.793051616665 5.784840576887
1068 2 -1.200000000000 35.424769141802 6.679758528570 3.856560384591
1069 1 2.400000000000 31.488683681602 4.453172352380 0.000000000000
1070 1 2.400000000000 34.637552049762 2.226586176190 0.000000000000
1071 1 2.400000000000 34.637552049762 5.566465440475 21.211082115253
1072 1 2.400000000000 34.637552049762 5.566465440475 1.928280192296
1073 2 -1.200000000000 33.850334957722 4.453172352380 0.000000000000
1074 2 -1.200000000000 35.424769141802 3.339879264285 21.211082115253
1075 2 -1.200000000000 35.424769141802 3.339879264285 1.928280192296
1076 2 -1.200000000000 36.999203325883 2.226586176190 0.000000000000
1077 2 -1.200000000000 35.424769141802 6.679758528570 0.000000000000
1078 2 -1.200000000000 36.999203325883 5.566465440475 21.211082115253
1079 2 -1.200000000000 36.999203325883 5.566465440475 1.928280192296
1080 2 -1.200000000000 38.573637509963 4.453172352380 0.000000000000
1081 1 2.400000000000 22.042078577122 11.132930880950 19.282801922957
1082 1 2.400000000000 25.190946945282 8.906344704760 19.282801922957
1083 1 2.400000000000 25.190946945282 12.246223969044 17.354521730661
1084 1 2.400000000000 25.190946945282 12.246223969045 21.211082115253
1085 2 -1.200000000000 24.403729853242 11.132930880950 19.282801922957
1086 2 -1.200000000000 25.978164037322 10.019637792855 17.354521730661
1087 2 -1.200000000000 25.978164037322 10.019637792855 21.211082115253
1088 2 -1.200000000000 27.552598221402 8.906344704760 19.282801922957
1089 2 -1.200000000000 25.978164037322 13.359517057139 19.282801922957
1090 2 -1.200000000000 27.552598221402 12.246223969045 17.354521730661
1091 2 -1.200000000000 27.552598221402 12.246223969045 21.211082115253
1092 2 -1.200000000000 29.127032405482 11.132930880950 19.282801922957
1093 1 2.400000000000 25.190946945282 8.906344704760 15.426241538366
1094 1 2.400000000000 28.339815313442 6.679758528570 15.426241538366
1095 1 2.400000000000 28.339815313442 10.019637792855 13.497961346070
1096 1 2.400000000000 28.339815313442 10.019637792855 17.354521730661
1097 2 -1.200000000000 27.552598221402 8.906344704760 15.426241538366
1098 2 -1.200000000000 29.127032405482 7.793051616665 13.497961346070
1099 2 -1.200000000000 29.127032405482 7.793051616665 17.354521730661
1100 2 -1.200000000000 30.701466589562 6.679758528570 15.426241538366
1101 2 -1.200000000000 29.127032405482 11.132930880950 15.426241538366
1102 2 -1.200000000000 30.701466589562 10.019637792855 13.497961346070
1103 2 -1.200000000000 30.701466589562 10.019637792855 17.354521730661
1104 2 -1.200000000000 32.275900773642 8.906344704760 15.426241538366
1105 1 2.400000000000 28.339815313442 6.679758528570 11.569681153774
1106 1 2.400000000000 31.488683681602 4.453172352380 11.569681153774
1107 1 2.400000000000 31.488683681602 7.793051616665 9.641400961479
1108 1 2.400000000000 31.488683681602 7.793051616665 13.497961346070
1109 2 -1.200000000000 30.701466589562 6.679758528570 11.569681153774
1110 2 -1.200000000000 32.275900773642 5.566465440475 9.641400961479
1111 2 -1.200000000000 32.275900773642 5.566465440475 13.497961346070
1112 2 -1.200000000000 33.850334957722 4.453172352380 11.569681153774
1113 2 -1.200000000000 32.275900773642 8.906344704760 11.569681153774
1114 2 -1.200000000000 33.850334957722 7.793051616665 9.641400961479
1115 2 -1.200000000000 33.850334957722 7.793051616665 13.497961346070
1116 2 -1.200000000000 35.424769141802 6.679758528570 11.569681153774
1117 1 2.400000000000 31.488683681602 4.453172352380 7.713120769183
1118 1 2.400000000000 34.637552049762 2.226586176190 7.713120769183
1119 1 2.400000000000 34.637552049762 5.566465440475 5.784840576887
1120 1 2.400000000000 34.637552049762 5.566465440475 9.641400961479
1121 2 -1.200000000000 33.850334957722 4.453172352380 7.713120769183
1122 2 -1.200000000000 35.424769141802 3.339879264285 5.784840576887
1123 2 -1.200000000000 35.424769141802 3.339879264285 9.641400961479
1124 2 -1.200000000000 36.999203325883 2.226586176190 7.713120769183
1125 2 -1.200000000000 35.424769141802 6.679758528570 7.713120769183
1126 2 -1.200000000000 36.999203325883 5.566465440475 5.784840576887
1127 2 -1.200000000000 36.999203325883 5.566465440475 9.641400961479
1128 2 -1.200000000000 38.573637509963 4.453172352380 7.713120769183
1129 1 2.400000000000 34.637552049762 2.226586176190 3.856560384591
1130 1 2.400000000000 37.786420417923 0.000000000000 3.856560384591
1131 1 2.400000000000 37.786420417923 3.339879264285 1.928280192296
1132 1 2.400000000000 37.786420417923 3.339879264285 5.784840576887
1133 2 -1.200000000000 36.999203325883 2.226586176190 3.856560384591
1134 2 -1.200000000000 38.573637509963 1.113293088095 1.928280192296
1135 2 -1.200000000000 38.573637509963 1.113293088095 5.784840576887
1136 2 -1.200000000000 40.148071694043 0.000000000000 3.856560384591
1137 2 -1.200000000000 38.573637509963 4.453172352380 3.856560384591
1138 2 -1.200000000000 40.148071694043 3.339879264285 1.928280192296
1139 2 -1.200000000000 40.148071694043 3.339879264285 5.784840576887
1140 2 -1.200000000000 41.722505878123 2.226586176190 3.856560384591
1141 1 2.400000000000 37.786420417923 0.000000000000 0.000000000000
1142 1 2.400000000000 40.935288786083 24.492447938089 0.000000000000
1143 1 2.400000000000 40.935288786083 1.113293088095 21.211082115253
1144 1 2.400000000000 40.935288786083 1.113293088095 1.928280192296
1145 2 -1.200000000000 40.148071694043 0.000000000000 0.000000000000
1146 2 -1.200000000000 41.722505878123 25.605741026184 21.211082115253
1147 2 -1.200000000000 41.722505878123 25.605741026184 1.928280192296
1148 2 -1.200000000000 43.296940062203 24.492447938089 0.000000000000
1149 2 -1.200000000000 41.722505878123 2.226586176190 0.000000000000
1150 2 -1.200000000000 43.296940062203 1.113293088095 21.211082115253
1151 2 -1.200000000000 43.296940062203 1.113293088095 1.928280192296
1152 2 -1.200000000000 44.871374246283 0.000000000000 0.000000000000
1153 1 2.400000000000 28.339815313442 6.679758528570 19.282801922957
1154 1 2.400000000000 31.488683681602 4.453172352380 19.282801922957
1155 1 2.400000000000 31.488683681602 7.793051616665 17.354521730661
1156 1 2.400000000000 31.488683681602 7.793051616665 21.211082115253
1157 2 -1.200000000000 30.701466589562 6.679758528570 19.282801922957
1158 2 -1.200000000000 32.275900773642 5.566465440475 17.354521730661
1159 2 -1.200000000000 32.275900773642 5.566465440475 21.211082115253
1160 2 -1.200000000000 33.850334957722 4.453172352380 19.282801922957
1161 2 -1.200000000000 32.275900773642 8.906344704760 19.282801922957
1162 2 -1.200000000000 33.850334957722 7.793051616665 17.354521730661
1163 2 -1.200000000000 33.850334957722 7.793051616665 21.211082115253
1164 2 -1.200000000000 35.424769141802 6.679758528570 19.282801922957
1165 1 2.400000000000 31.488683681602 4.453172352380 15.426241538366
1166 1 2.400000000000 34.637552049762 2.226586176190 15.426241538366
1167 1 2.400000000000 34.637552049762 5.566465440475 13.497961346070
1168 1 2.400000000000 34.637552049762 5.566465440475 17.354521730661
1169 2 -1.200000000000 33.850334957722 4.453172352380 15.426241538366
1170 2 -1.200000000000 35.424769141802 3.339879264285 13.497961346070
1171 2 -1.200000000000 35.424769141802 3.339879264285 17.354521730661
1172 2 -1.200000000000 36.999203325883 2.226586176190 15.426241538366
1173 2 -1.200000000000 35.424769141802 6.679758528570 15.426241538366
1174 2 -1.200000000000 36.999203325883 5.566465440475 13.497961346070
1175 2 -1.200000000000 36.999203325883 5.566465440475 17.354521730661
1176 2 -1.200000000000 38.573637509963 4.453172352380 15.426241538366
1177 1 2.400000000000 34.637552049762 2.226586176190 11.569681153774
1178 1 2.400000000000 37.786420417923 0.000000000000 11.569681153774
1179 1 2.400000000000 37.786420417923 3.339879264285 9.641400961479
1180 1 2.400000000000 37.786420417923 3.339879264285 13.497961346070
1181 2 -1.200000000000 36.999203325883 2.226586176190 11.569681153774
1182 2 -1.200000000000 38.573637509963 1.113293088095 9.641400961479
1183 2 -1.200000000000 38.573637509963 1.113293088095 13.497961346070
1184 2 -1.200000000000 40.148071694043 0.000000000000 11.569681153774
1185 2 -1.200000000000 38.573637509963 4.453172352380 11.569681153774
1186 2 -1.200000000000 40.148071694043 3.339879264285 9.641400961479
1187 2 -1.200000000000 40.148071694043 3.339879264285 13.497961346070
1188 2 -1.200000000000 41.722505878123 2.226586176190 11.569681153774
1189 1 2.400000000000 37.786420417923 0.000000000000 7.713120769183
1190 1 2.400000000000 40.935288786083 24.492447938089 7.713120769183
1191 1 2.400000000000 40.935288786083 1.113293088095 5.784840576887
1192 1 2.400000000000 40.935288786083 1.113293088095 9.641400961479
1193 2 -1.200000000000 40.148071694043 0.000000000000 7.713120769183
1194 2 -1.200000000000 41.722505878123 25.605741026184 5.784840576887
1195 2 -1.200000000000 41.722505878123 25.605741026184 9.641400961479
1196 2 -1.200000000000 43.296940062203 24.492447938089 7.713120769183
1197 2 -1.200000000000 41.722505878123 2.226586176190 7.713120769183
1198 2 -1.200000000000 43.296940062203 1.113293088095 5.784840576887
1199 2 -1.200000000000 43.296940062203 1.113293088095 9.641400961479
1200 2 -1.200000000000 44.871374246283 0.000000000000 7.713120769183
1201 1 2.400000000000 34.637552049762 2.226586176190 19.282801922957
1202 1 2.400000000000 37.786420417923 0.000000000000 19.282801922957
1203 1 2.400000000000 37.786420417923 3.339879264285 17.354521730661
1204 1 2.400000000000 37.786420417923 3.339879264285 21.211082115253
1205 2 -1.200000000000 36.999203325883 2.226586176190 19.282801922957
1206 2 -1.200000000000 38.573637509963 1.113293088095 17.354521730661
1207 2 -1.200000000000 38.573637509963 1.113293088095 21.211082115253
1208 2 -1.200000000000 40.148071694043 0.000000000000 19.282801922957
1209 2 -1.200000000000 38.573637509963 4.453172352380 19.282801922957
1210 2 -1.200000000000 40.148071694043 3.339879264285 17.354521730661
1211 2 -1.200000000000 40.148071694043 3.339879264285 21.211082115253
1212 2 -1.200000000000 41.722505878123 2.226586176190 19.282801922957
1213 1 2.400000000000 37.786420417923 0.000000000000 15.426241538366
1214 1 2.400000000000 40.935288786083 24.492447938089 15.426241538366
1215 1 2.400000000000 40.935288786083 1.113293088095 13.497961346070
1216 1 2.400000000000 40.935288786083 1.113293088095 17.354521730661
1217 2 -1.200000000000 40.148071694043 0.000000000000 15.426241538366
1218 2 -1.200000000000 41.722505878123 25.605741026184 13.497961346070
1219 2 -1.200000000000 41.722505878123 25.605741026184 17.354521730661
1220 2 -1.200000000000 43.296940062203 24.492447938089 15.426241538366
1221 2 -1.200000000000 41.722505878123 2.226586176190 15.426241538366
1222 2 -1.200000000000 43.296940062203 1.113293088095 13.497961346070
1223 2 -1.200000000000 43.296940062203 1.113293088095 17.354521730661
1224 2 -1.200000000000 44.871374246283 0.000000000000 15.426241538366
1225 1 2.400000000000 12.595473472641 24.492447938089 3.856560384591
1226 1 2.400000000000 15.744341840801 22.265861761899 3.856560384591
1227 1 2.400000000000 15.744341840801 25.605741026184 1.928280192296
1228 1 2.400000000000 15.744341840801 25.605741026184 5.784840576887
1229 2 -1.200000000000 14.957124748761 24.492447938089 3.856560384591
1230 2 -1.200000000000 16.531558932841 23.379154849994 1.928280192296
1231 2 -1.200000000000 16.531558932841 23.379154849994 5.784840576887
1232 2 -1.200000000000 18.105993116921 22.265861761899 3.856560384591
1233 2 -1.200000000000 16.531558932841 0.000000000000 3.856560384591
1234 2 -1.200000000000 18.105993116921 25.605741026184 1.928280192296
1235 2 -1.200000000000 18.105993116921 25.605741026184 5.784840576887
1236 2 -1.200000000000 19.680427301001 24.492447938089 3.856560384591
1237 1 2.400000000000 15.744341840801 22.265861761899 0.000000000000
1238 1 2.400000000000 18.893210208961 20.039275585709 0.000000000000
1239 1 2.400000000000 18.893210208961 23.379154849994 21.211082115253
1240 1 2.400000000000 18.893210208961 23.379154849994 1.928280192296
1241 2 -1.200000000000 18.105993116921 22.265861761899 0.000000000000
1242 2 -1.200000000000 19.680427301001 21.152568673804 21.211082115253
1243 2 -1.200000000000 19.680427301001 21.152568673804 1.928280192296
1244 2 -1.200000000000 21.254861485081 20.039275585709 0.000000000000
1245 2 -1.200000000000 19.680427301001 24.492447938089 0.000000000000
1246 2 -1.200000000000 21.254861485081 23.379154849994 21.211082115253
1247 2 -1.200000000000 21.254861485081 23.379154849994 1.928280192296
1248 2 -1.200000000000 22.829295669162 22.265861761899 0.000000000000
1249 1 2.400000000000 12.595473472641 24.492447938089 11.569681153774
1250 1 2.400000000000 15.744341840801 22.265861761899 11.569681153774
1251 1 2.400000000000 15.744341840801 25.605741026184 9.641400961479
1252 1 2.400000000000 15.744341840801 25.605741026184 13.497961346070
1253 2 -1.200000000000 14.957124748761 24.492447938089 11.569681153774
1254 2 -1.200000000000 16.531558932841 23.379154849994 9.641400961479
1255 2 -1.200000000000 16.531558932841 23.379154849994 13.497961346070
1256 2 -1.200000000000 18.105993116921 22.265861761899 11.569681153774
1257 2 -1.200000000000 16.531558932841 0.000000000000 11.569681153774
1258 2 -1.200000000000 18.105993116921 25.605741026184 9.641400961479
1259 2 -1.200000000000 18.105993116921 25.605741026184 13.497961346070
1260 2 -1.200000000000 19.680427301001 24.492447938089 11.569681153774
1261 1 2.400000000000 15.744341840801 22.265861761899 7.713120769183
1262 1 2.400000000000 18.893210208961 20.039275585709 7.713120769183
1263 1 2.400000000000 18.893210208961 23.379154849994 5.784840576887
1264 1 2.400000000000 18.893210208961 23.379154849994 9.641400961479
1265 2 -1.200000000000 18.105993116921 22.265861761899 7.713120769183
1266 2 -1.200000000000 19.680427301001 21.152568673804 5.784840576887
1267 2 -1.200000000000 19.680427301001 21.152568673804 9.641400961479
1268 2 -1.200000000000 21.254861485081 20.039275585709 7.713120769183
1269 2 -1.200000000000 19.680427301001 24.492447938089 7.713120769183
1270 2 -1.200000000000 21.254861485081 23.379154849994 5.784840576887
1271 2 -1.200000000000 21.254861485081 23.379154849994 9.641400961479
1272 2 -1.200000000000 22.829295669162 22.265861761899 7.713120769183
1273 1 2.400000000000 18.893210208961 20.039275585709 3.856560384591
1274 1 2.400000000000 22.042078577122 17.812689409519 3.856560384591
1275 1 2.400000000000 22.042078577122 21.152568673804 1.928280192296
1276 1 2.400000000000 22.042078577122 21.152568673804 5.784840576887
1277 2 -1.200000000000 21.254861485081 20.039275585709 3.856560384591
1278 2 -1.200000000000 22.829295669162 18.925982497614 1.928280192296
1279 2 -1.200000000000 22.829295669162 18.925982497614 5.784840576887
1280 2 -1.200000000000 24.403729853242 17.812689409519 3.856560384591
1281 2 -1.200000000000 22.829295669162 22.265861761899 3.856560384591
1282 2 -1.200000000000 24.403729853242 21.152568673804 1.928280192296
1283 2 -1.200000000000 24.403729853242 21.152568673804 5.784840576887
1284 2 -1.200000000000 25.978164037322 20.039275585709 3.856560384591
1285 1 2.400000000000 22.042078577122 17.812689409519 0.000000000000
1286 1 2.400000000000 25.190946945282 15.586103233329 0.000000000000
1287 1 2.400000000000 25.190946945282 18.925982497614 21.211082115253
1288 1 2.400000000000 25.190946945282 18.925982497614 1.928280192296
1289 2 -1.200000000000 24.403729853242 17.812689409519 0.000000000000
1290 2 -1.200000000000 25.978164037322 16.699396321424 21.211082115253
1291 2 -1.200000000000 25.978164037322 16.699396321424 1.928280192296
1292 2 -1.200000000000 27.552598221402 15.586103233329 0.000000000000
1293 2 -1.200000000000 25.978164037322 20.039275585709 0.000000000000
1294 2 -1.200000000000 27.552598221402 18.925982497614 21.211082115253
1295 2 -1.200000000000 27.552598221402 18.925982497614 1.928280192296
1296 2 -1.200000000000 29.127032405482 17.812689409519 0.000000000000
1297 1 2.400000000000 12.595473472641 24.492447938089 19.282801922957
1298 1 2.400000000000 15.744341840801 22.265861761899 19.282801922957
1299 1 2.400000000000 15.744341840801 25.605741026184 17.354521730661
1300 1 2.400000000000 15.744341840801 25.605741026184 21.211082115253
1301 2 -1.200000000000 14.957124748761 24.492447938089 19.282801922957
1302 2 -1.200000000000 16.531558932841 23.379154849994 17.354521730661
1303 2 -1.200000000000 16.531558932841 23.379154849994 21.211082115253
1304 2 -1.200000000000 18.105993116921 22.265861761899 19.282801922957
1305 2 -1.200000000000 16.531558932841 0.000000000000 19.282801922957
1306 2 -1.200000000000 18.105993116921 25.605741026184 17.354521730661
1307 2 -1.200000000000 18.105993116921 25.605741026184 21.211082115253
1308 2 -1.200000000000 19.680427301001 24.492447938089 19.282801922957
1309 1 2.400000000000 15.744341840801 22.265861761899 15.426241538366
1310 1 2.400000000000 18.893210208961 20.039275585709 15.426241538366
1311 1 2.400000000000 18.893210208961 23.379154849994 13.497961346070
1312 1 2.400000000000 18.893210208961 23.379154849994 17.354521730661
1313 2 -1.200000000000 18.105993116921 22.265861761899 15.426241538366
1314 2 -1.200000000000 19.680427301001 21.152568673804 13.497961346070
1315 2 -1.200000000000 19.680427301001 21.152568673804 17.354521730661
1316 2 -1.200000000000 21.254861485081 20.039275585709 15.426241538366
1317 2 -1.200000000000 19.680427301001 24.492447938089 15.426241538366
1318 2 -1.200000000000 21.254861485081 23.379154849994 13.497961346070
1319 2 -1.200000000000 21.254861485081 23.379154849994 17.354521730661
1320 2 -1.200000000000 22.829295669162 22.265861761899 15.426241538366
1321 1 2.400000000000 18.893210208961 20.039275585709 11.569681153774
1322 1 2.400000000000 22.042078577122 17.812689409519 11.569681153774
1323 1 2.400000000000 22.042078577122 21.152568673804 9.641400961479
1324 1 2.400000000000 22.042078577122 21.152568673804 13.497961346070
1325 2 -1.200000000000 21.254861485081 20.039275585709 11.569681153774
1326 2 -1.200000000000 22.829295669162 18.925982497614 9.641400961479
1327 2 -1.200000000000 22.829295669162 18.925982497614 13.497961346070
1328 2 -1.200000000000 24.403729853242 17.812689409519 11.569681153774
1329 2 -1.200000000000 22.829295669162 22.265861761899 11.569681153774
1330 2 -1.200000000000 24.403729853242 21.152568673804 9.641400961479
1331 2 -1.200000000000 24.403729853242 21.152568673804 13.497961346070
1332 2 -1.200000000000 25.978164037322 20.039275585709 11.569681153774
1333 1 2.400000000000 22.042078577122 17.812689409519 7.713120769183
1334 1 2.400000000000 25.190946945282 15.586103233329 7.713120769183
1335 1 2.400000000000 25.190946945282 18.925982497614 5.784840576887
1336 1 2.400000000000 25.190946945282 18.925982497614 9.641400961479
1337 2 -1.200000000000 24.403729853242 17.812689409519 7.713120769183
1338 2 -1.200000000000 25.978164037322 16.699396321424 5.784840576887
1339 2 -1.200000000000 25.978164037322 16.699396321424 9.641400961479
1340 2 -1.200000000000 27.552598221402 15.586103233329 7.713120769183
1341 2 -1.200000000000 25.978164037322 20.039275585709 7.713120769183
1342 2 -1.200000000000 27.552598221402 18.925982497614 5.784840576887
1343 2 -1.200000000000 27.552598221402 18.925982497614 9.641400961479
1344 2 -1.200000000000 29.127032405482 17.812689409519 7.713120769183
1345 1 2.400000000000 25.190946945282 15.586103233329 3.856560384591
1346 1 2.400000000000 28.339815313442 13.359517057139 3.856560384591
1347 1 2.400000000000 28.339815313442 16.699396321424 1.928280192296
1348 1 2.400000000000 28.339815313442 16.699396321424 5.784840576887
1349 2 -1.200000000000 27.552598221402 15.586103233329 3.856560384591
1350 2 -1.200000000000 29.127032405482 14.472810145234 1.928280192296
1351 2 -1.200000000000 29.127032405482 14.472810145234 5.784840576887
1352 2 -1.200000000000 30.701466589562 13.359517057139 3.856560384591
1353 2 -1.200000000000 29.127032405482 17.812689409519 3.856560384591
1354 2 -1.200000000000 30.701466589562 16.699396321424 1.928280192296
1355 2 -1.200000000000 30.701466589562 16.699396321424 5.784840576887
1356 2 -1.200000000000 32.275900773642 15.586103233329 3.856560384591
1357 1 2.400000000000 28.339815313442 13.359517057139 0.000000000000
1358 1 2.400000000000 31.488683681602 11.132930880950 0.000000000000
1359 1 2.400000000000 31.488683681602 14.472810145234 21.211082115253
1360 1 2.400000000000 31.488683681602 14.472810145234 1.928280192296
1361 2 -1.200000000000 30.701466589562 13.359517057139 0.000000000000
1362 2 -1.200000000000 32.275900773642 12.246223969045 21.211082115253
1363 2 -1.200000000000 32.275900773642 12.246223969044 1.928280192296
1364 2 -1.200000000000 33.850334957722 11.132930880950 0.000000000000
1365 2 -1.200000000000 32.275900773642 15.586103233329 0.000000000000
1366 2 -1.200000000000 33.850334957722 14.472810145234 21.211082115253
1367 2 -1.200000000000 33.850334957722 14.472810145234 1.928280192296
1368 2 -1.200000000000 35.424769141802 13.359517057139 0.000000000000
1369 1 2.400000000000 18.893210208961 20.039275585709 19.282801922957
1370 1 2.400000000000 22.042078577122 17.812689409519 19.282801922957
1371 1 2.400000000000 22.042078577122 21.152568673804 17.354521730661
1372 1 2.400000000000 22.042078577122 21.152568673804 21.211082115253
1373 2 -1.200000000000 21.254861485081 20.039275585709 19.282801922957
1374 2 -1.200000000000 22.829295669162 18.925982497614 17.354521730661
1375 2 -1.200000000000 22.829295669162 18.925982497614 21.211082115253
1376 2 -1.200000000000 24.403729853242 17.812689409519 19.282801922957
1377 2 -1.200000000000 22.829295669162 22.265861761899 19.282801922957
1378 2 -1.200000000000 24.403729853242 21.152568673804 17.354521730661
1379 2 -1.200000000000 24.403729853242 21.152568673804 21.211082115253
1380 2 -1.200000000000 25.978164037322 20.039275585709 19.282801922957
1381 1 2.400000000000 22.042078577122 17.812689409519 15.426241538366
1382 1 2.400000000000 25.190946945282 15.586103233329 15.426241538366
1383 1 2.400000000000 25.190946945282 18.925982497614 13.497961346070
1384 1 2.400000000000 25.190946945282 18.925982497614 17.354521730661
1385 2 -1.200000000000 24.403729853242 17.812689409519 15.426241538366
1386 2 -1.200000000000 25.978164037322 16.699396321424 13.497961346070
1387 2 -1.200000000000 25.978164037322 16.699396321424 17.354521730661
1388 2 -1.200000000000 27.552598221402 15.586103233329 15.426241538366
1389 2 -1.200000000000 25.978164037322 20.039275585709 15.426241538366
1390 2 -1.200000000000 27.552598221402 18.925982497614 13.497961346070
1391 2 -1.200000000000 27.552598221402 18.925982497614 17.354521730661
1392 2 -1.200000000000 29.127032405482 17.812689409519 15.426241538366
1393 1 2.400000000000 25.190946945282 15.586103233329 11.569681153774
1394 1 2.400000000000 28.339815313442 13.359517057139 11.569681153774
1395 1 2.400000000000 28.339815313442 16.699396321424 9.641400961479
1396 1 2.400000000000 28.339815313442 16.699396321424 13.497961346070
1397 2 -1.200000000000 27.552598221402 15.586103233329 11.569681153774
1398 2 -1.200000000000 29.127032405482 14.472810145234 9.641400961479
1399 2 -1.200000000000 29.127032405482 14.472810145234 13.497961346070
1400 2 -1.200000000000 30.701466589562 13.359517057139 11.569681153774
1401 2 -1.200000000000 29.127032405482 17.812689409519 11.569681153774
1402 2 -1.200000000000 30.701466589562 16.699396321424 9.641400961479
1403 2 -1.200000000000 30.701466589562 16.699396321424 13.497961346070
1404 2 -1.200000000000 32.275900773642 15.586103233329 11.569681153774
1405 1 2.400000000000 28.339815313442 13.359517057139 7.713120769183
1406 1 2.400000000000 31.488683681602 11.132930880950 7.713120769183
1407 1 2.400000000000 31.488683681602 14.472810145234 5.784840576887
1408 1 2.400000000000 31.488683681602 14.472810145234 9.641400961479
1409 2 -1.200000000000 30.701466589562 13.359517057139 7.713120769183
1410 2 -1.200000000000 32.275900773642 12.246223969045 5.784840576887
1411 2 -1.200000000000 32.275900773642 12.246223969045 9.641400961479
1412 2 -1.200000000000 33.850334957722 11.132930880950 7.713120769183
1413 2 -1.200000000000 32.275900773642 15.586103233329 7.713120769183
1414 2 -1.200000000000 33.850334957722 14.472810145234 5.784840576887
1415 2 -1.200000000000 33.850334957722 14.472810145234 9.641400961479
1416 2 -1.200000000000 35.424769141802 13.359517057139 7.713120769183
1417 1 2.400000000000 31.488683681602 11.132930880950 3.856560384591
1418 1 2.400000000000 34.637552049762 8.906344704760 3.856560384591
1419 1 2.400000000000 34.637552049762 12.246223969045 1.928280192296
1420 1 2.400000000000 34.637552049762 12.246223969045 5.784840576887
1421 2 -1.200000000000 33.850334957722 11.132930880950 3.856560384591
1422 2 -1.200000000000 35.424769141802 10.019637792855 1.928280192296
1423 2 -1.200000000000 35.424769141802 10.019637792855 5.784840576887
1424 2 -1.200000000000 36.999203325883 8.906344704760 3.856560384591
1425 2 -1.200000000000 35.424769141802 13.359517057139 3.856560384591
1426 2 -1.200000000000 36.999203325883 12.246223969045 1.928280192296
1427 2 -1.200000000000 36.999203325883 12.246223969044 5.784840576887
1428 2 -1.200000000000 38.573637509963 11.132930880950 3.856560384591
1429 1 2.400000000000 34.637552049762 8.906344704760 0.000000000000
1430 1 2.400000000000 37.786420417923 6.679758528570 0.000000000000
1431 1 2.400000000000 37.786420417923 10.019637792855 21.211082115253
1432 1 2.400000000000 37.786420417923 10.019637792855 1.928280192296
1433 2 -1.200000000000 36.999203325883 8.906344704760 0.000000000000
1434 2 -1.200000000000 38.573637509963 7.793051616665 21.211082115253
1435 2 -1.200000000000 38.573637509963 7.793051616665 1.928280192296
1436 2 -1.200000000000 40.148071694043 6.679758528570 0.000000000000
1437 2 -1.200000000000 38.573637509963 11.132930880950 0.000000000000
1438 2 -1.200000000000 40.148071694043 10.019637792855 21.211082115253
1439 2 -1.200000000000 40.148071694043 10.019637792855 1.928280192296
1440 2 -1.200000000000 41.722505878123 8.906344704760 0.000000000000
1441 1 2.400000000000 25.190946945282 15.586103233329 19.282801922957
1442 1 2.400000000000 28.339815313442 13.359517057139 19.282801922957
1443 1 2.400000000000 28.339815313442 16.699396321424 17.354521730661
1444 1 2.400000000000 28.339815313442 16.699396321424 21.211082115253
1445 2 -1.200000000000 27.552598221402 15.586103233329 19.282801922957
1446 2 -1.200000000000 29.127032405482 14.472810145234 17.354521730661
1447 2 -1.200000000000 29.127032405482 14.472810145234 21.211082115253
1448 2 -1.200000000000 30.701466589562 13.359517057139 19.282801922957
1449 2 -1.200000000000 29.127032405482 17.812689409519 19.282801922957
1450 2 -1.200000000000 30.701466589562 16.699396321424 17.354521730661
1451 2 -1.200000000000 30.701466589562 16.699396321424 21.211082115253
1452 2 -1.200000000000 32.275900773642 15.586103233329 19.282801922957
1453 1 2.400000000000 28.339815313442 13.359517057139 15.426241538366
1454 1 2.400000000000 31.488683681602 11.132930880950 15.426241538366
1455 1 2.400000000000 31.488683681602 14.472810145234 13.497961346070
1456 1 2.400000000000 31.488683681602 14.472810145234 17.354521730661
1457 2 -1.200000000000 30.701466589562 13.359517057139 15.426241538366
1458 2 -1.200000000000 32.275900773642 12.246223969045 13.497961346070
1459 2 -1.200000000000 32.275900773642 12.246223969044 17.354521730661
1460 2 -1.200000000000 33.850334957722 11.132930880950 15.426241538366
1461 2 -1.200000000000 32.275900773642 15.586103233329 15.426241538366
1462 2 -1.200000000000 33.850334957722 14.472810145234 13.497961346070
1463 2 -1.200000000000 33.850334957722 14.472810145234 17.354521730661
1464 2 -1.200000000000 35.424769141802 13.359517057139 15.426241538366
1465 1 2.400000000000 31.488683681602 11.132930880950 11.569681153774
1466 1 2.400000000000 34.637552049762 8.906344704760 11.569681153774
1467 1 2.400000000000 34.637552049762 12.246223969045 9.641400961479
1468 1 2.400000000000 34.637552049762 12.246223969045 13.497961346070
1469 2 -1.200000000000 33.850334957722 11.132930880950 11.569681153774
1470 2 -1.200000000000 35.424769141802 10.019637792855 9.641400961479
1471 2 -1.200000000000 35.424769141802 10.019637792855 13.497961346070
1472 2 -1.200000000000 36.999203325883 8.906344704760 11.569681153774
1473 2 -1.200000000000 35.424769141802 13.359517057139 11.569681153774
1474 2 -1.200000000000 36.999203325883 12.246223969044 9.641400961479
1475 2 -1.200000000000 36.999203325883 12.246223969044 13.497961346070
1476 2 -1.200000000000 38.573637509963 11.132930880950 11.569681153774
1477 1 2.400000000000 34.637552049762 8.906344704760 7.713120769183
1478 1 2.400000000000 37.786420417923 6.679758528570 7.713120769183
1479 1 2.400000000000 37.786420417923 10.019637792855 5.784840576887
1480 1 2.400000000000 37.786420417923 10.019637792855 9.641400961479
1481 2 -1.200000000000 36.999203325883 8.906344704760 7.713120769183
1482 2 -1.200000000000 38.573637509963 7.793051616665 5.784840576887
1483 2 -1.200000000000 38.573637509963 7.793051616665 9.641400961479
1484 2 -1.200000000000 40.148071694043 6.679758528570 7.713120769183
1485 2 -1.200000000000 38.573637509963 11.132930880950 7.713120769183
1486 2 -1.200000000000 40.148071694043 10.019637792855 5.784840576887
1487 2 -1.200000000000 40.148071694043 10.019637792855 9.641400961479
1488 2 -1.200000000000 41.722505878123 8.906344704760 7.713120769183
1489 1 2.400000000000 37.786420417923 6.679758528570 3.856560384591
1490 1 2.400000000000 40.935288786083 4.453172352380 3.856560384591
1491 1 2.400000000000 40.935288786083 7.793051616665 1.928280192296
1492 1 2.400000000000 40.935288786083 7.793051616665 5.784840576887
1493 2 -1.200000000000 40.148071694043 6.679758528570 3.856560384591
1494 2 -1.200000000000 41.722505878123 5.566465440475 1.928280192296
1495 2 -1.200000000000 41.722505878123 5.566465440475 5.784840576887
1496 2 -1.200000000000 43.296940062203 4.453172352380 3.856560384591
1497 2 -1.200000000000 41.722505878123 8.906344704760 3.856560384591
1498 2 -1.200000000000 43.296940062203 7.793051616665 1.928280192296
1499 2 -1.200000000000 43.296940062203 7.793051616665 5.784840576887
1500 2 -1.200000000000 44.871374246283 6.679758528570 3.856560384591
1501 1 2.400000000000 40.935288786083 4.453172352380 0.000000000000
1502 1 2.400000000000 44.084157154243 2.226586176190 0.000000000000
1503 1 2.400000000000 44.084157154243 5.566465440475 21.211082115253
1504 1 2.400000000000 44.084157154243 5.566465440475 1.928280192296
1505 2 -1.200000000000 43.296940062203 4.453172352380 0.000000000000
1506 2 -1.200000000000 44.871374246283 3.339879264285 21.211082115253
1507 2 -1.200000000000 44.871374246283 3.339879264285 1.928280192296
1508 2 -1.200000000000 46.445808430363 2.226586176190 0.000000000000
1509 2 -1.200000000000 44.871374246283 6.679758528570 0.000000000000
1510 2 -1.200000000000 46.445808430363 5.566465440475 21.211082115253
1511 2 -1.200000000000 46.445808430363 5.566465440475 1.928280192296
1512 2 -1.200000000000 48.020242614443 4.453172352380 0.000000000000
1513 1 2.400000000000 31.488683681602 11.132930880950 19.282801922957
1514 1 2.400000000000 34.637552049762 8.906344704760 19.282801922957
1515 1 2.400000000000 34.637552049762 12.246223969045 17.354521730661
1516 1 2.400000000000 34.637552049762 12.246223969045 21.211082115253
1517 2 -1.200000000000 33.850334957722 11.132930880950 19.282801922957
1518 2 -1.200000000000 35.424769141802 10.019637792855 17.354521730661
1519 2 -1.200000000000 35.424769141802 10.019637792855 21.211082115253
1520 2 -1.200000000000 36.999203325883 8.906344704760 19.282801922957
1521 2 -1.200000000000 35.424769141802 13.359517057139 19.282801922957
1522 2 -1.200000000000 36.999203325883 12.246223969044 17.354521730661
1523 2 -1.200000000000 36.999203325883 12.246223969044 21.211082115253
1524 2 -1.200000000000 38.573637509963 11.132930880950 19.282801922957
1525 1 2.400000000000 34.637552049762 8.906344704760 15.426241538366
1526 1 2.400000000000 37.786420417923 6.679758528570 15.426241538366
1527 1 2.400000000000 37.786420417923 10.019637792855 13.497961346070
1528 1 2.400000000000 37.786420417923 10.019637792855 17.354521730661
1529 2 -1.200000000000 36.999203325883 8.906344704760 15.426241538366
1530 2 -1.200000000000 38.573637509963 7.793051616665 13.497961346070
1531 2 -1.200000000000 38.573637509963 7.793051616665 17.354521730661
1532 2 -1.200000000000 40.148071694043 6.679758528570 15.426241538366
1533 2 -1.200000000000 38.573637509963 11.132930880950 15.426241538366
1534 2 -1.200000000000 40.148071694043 10.019637792855 13.497961346070
1535 2 -1.200000000000 40.148071694043 10.019637792855 17.354521730661
1536 2 -1.200000000000 41.722505878123 8.906344704760 15.426241538366
1537 1 2.400000000000 37.786420417923 6.679758528570 11.569681153774
1538 1 2.400000000000 40.935288786083 4.453172352380 11.569681153774
1539 1 2.400000000000 40.935288786083 7.793051616665 9.641400961479
1540 1 2.400000000000 40.935288786083 7.793051616665 13.497961346070
1541 2 -1.200000000000 40.148071694043 6.679758528570 11.569681153774
1542 2 -1.200000000000 41.722505878123 5.566465440475 9.641400961479
1543 2 -1.200000000000 41.722505878123 5.566465440475 13.497961346070
1544 2 -1.200000000000 43.296940062203 4.453172352380 11.569681153774
1545 2 -1.200000000000 41.722505878123 8.906344704760 11.569681153774
1546 2 -1.200000000000 43.296940062203 7.793051616665 9.641400961479
1547 2 -1.200000000000 43.296940062203 7.793051616665 13.497961346070
1548 2 -1.200000000000 44.871374246283 6.679758528570 11.569681153774
1549 1 2.400000000000 40.935288786083 4.453172352380 7.713120769183
1550 1 2.400000000000 44.084157154243 2.226586176190 7.713120769183
1551 1 2.400000000000 44.084157154243 5.566465440475 5.784840576887
1552 1 2.400000000000 44.084157154243 5.566465440475 9.641400961479
1553 2 -1.200000000000 43.296940062203 4.453172352380 7.713120769183
1554 2 -1.200000000000 44.871374246283 3.339879264285 5.784840576887
1555 2 -1.200000000000 44.871374246283 3.339879264285 9.641400961479
1556 2 -1.200000000000 46.445808430363 2.226586176190 7.713120769183
1557 2 -1.200000000000 44.871374246283 6.679758528570 7.713120769183
1558 2 -1.200000000000 46.445808430363 5.566465440475 5.784840576887
1559 2 -1.200000000000 46.445808430363 5.566465440475 9.641400961479
1560 2 -1.200000000000 48.020242614443 4.453172352380 7.713120769183
1561 1 2.400000000000 44.084157154243 2.226586176190 3.856560384591
1562 1 2.400000000000 47.233025522403 0.000000000000 3.856560384591
1563 1 2.400000000000 47.233025522403 3.339879264285 1.928280192296
1564 1 2.400000000000 47.233025522403 3.339879264285 5.784840576887
1565 2 -1.200000000000 46.445808430363 2.226586176190 3.856560384591
1566 2 -1.200000000000 48.020242614443 1.113293088095 1.928280192296
1567 2 -1.200000000000 48.020242614443 1.113293088095 5.784840576887
1568 2 -1.200000000000 49.594676798523 0.000000000000 3.856560384591
1569 2 -1.200000000000 48.020242614443 4.453172352380 3.856560384591
1570 2 -1.200000000000 49.594676798523 3.339879264285 1.928280192296
1571 2 -1.200000000000 49.594676798523 3.339879264285 5.784840576887
1572 2 -1.200000000000 51.169110982604 2.226586176190 3.856560384591
1573 1 2.400000000000 47.233025522403 0.000000000000 0.000000000000
1574 1 2.400000000000 50.381893890564 24.492447938089 0.000000000000
1575 1 2.400000000000 50.381893890564 1.113293088095 21.211082115253
1576 1 2.400000000000 50.381893890564 1.113293088095 1.928280192296
1577 2 -1.200000000000 49.594676798523 0.000000000000 0.000000000000
1578 2 -1.200000000000 51.169110982604 25.605741026184 21.211082115253
1579 2 -1.200000000000 51.169110982604 25.605741026184 1.928280192296
1580 2 -1.200000000000 52.743545166684 24.492447938089 0.000000000000
1581 2 -1.200000000000 51.169110982604 2.226586176190 0.000000000000
1582 2 -1.200000000000 52.743545166684 1.113293088095 21.211082115253
1583 2 -1.200000000000 52.743545166684 1.113293088095 1.928280192296
1584 2 -1.200000000000 54.317979350764 0.000000000000 0.000000000000
1585 1 2.400000000000 37.786420417923 6.679758528570 19.282801922957
1586 1 2.400000000000 40.935288786083 4.453172352380 19.282801922957
1587 1 2.400000000000 40.935288786083 7.793051616665 17.354521730661
1588 1 2.400000000000 40.935288786083 7.793051616665 21.211082115253
1589 2 -1.200000000000 40.148071694043 6.679758528570 19.282801922957
1590 2 -1.200000000000 41.722505878123 5.566465440475 17.354521730661
1591 2 -1.200000000000 41.722505878123 5.566465440475 21.211082115253
1592 2 -1.200000000000 43.296940062203 4.453172352380 19.282801922957
1593 2 -1.200000000000 41.722505878123 8.906344704760 19.282801922957
1594 2 -1.200000000000 43.296940062203 7.793051616665 17.354521730661
1595 2 -1.200000000000 43.296940062203 7.793051616665 21.211082115253
1596 2 -1.200000000000 44.871374246283 6.679758528570 19.282801922957
1597 1 2.400000000000 40.935288786083 4.453172352380 15.426241538366
1598 1 2.400000000000 44.084157154243 2.226586176190 15.426241538366
1599 1 2.400000000000 44.084157154243 5.566465440475 13.497961346070
1600 1 2.400000000000 44.084157154243 5.566465440475 17.354521730661
1601 2 -1.200000000000 43.296940062203 4.453172352380 15.426241538366
1602 2 -1.200000000000 44.871374246283 3.339879264285 13.497961346070
1603 2 -1.200000000000 44.871374246283 3.339879264285 17.354521730661
1604 2 -1.200000000000 46.445808430363 2.226586176190 15.426241538366
1605 2 -1.200000000000 44.871374246283 6.679758528570 15.426241538366
1606 2 -1.200000000000 46.445808430363 5.566465440475 13.497961346070
1607 2 -1.200000000000 46.445808430363 5.566465440475 17.354521730661
1608 2 -1.200000000000 48.020242614443 4.453172352380 15.426241538366
1609 1 2.400000000000 44.084157154243 2.226586176190 11.569681153774
1610 1 2.400000000000 47.233025522403 0.000000000000 11.569681153774
1611 1 2.400000000000 47.233025522403 3.339879264285 9.641400961479
1612 1 2.400000000000 47.233025522403 3.339879264285 13.497961346070
1613 2 -1.200000000000 46.445808430363 2.226586176190 11.569681153774
1614 2 -1.200000000000 48.020242614443 1.113293088095 9.641400961479
1615 2 -1.200000000000 48.020242614443 1.113293088095 13.497961346070
1616 2 -1.200000000000 49.594676798523 0.000000000000 11.569681153774
1617 2 -1.200000000000 48.020242614443 4.453172352380 11.569681153774
1618 2 -1.200000000000 49.594676798523 3.339879264285 9.641400961479
1619 2 -1.200000000000 49.594676798523 3.339879264285 13.497961346070
1620 2 -1.200000000000 51.169110982604 2.226586176190 11.569681153774
1621 1 2.400000000000 47.233025522403 0.000000000000 7.713120769183
1622 1 2.400000000000 50.381893890564 24.492447938089 7.713120769183
1623 1 2.400000000000 50.381893890564 1.113293088095 5.784840576887
1624 1 2.400000000000 50.381893890564 1.113293088095 9.641400961479
1625 2 -1.200000000000 49.594676798523 0.000000000000 7.713120769183
1626 2 -1.200000000000 51.169110982604 25.605741026184 5.784840576887
1627 2 -1.200000000000 51.169110982604 25.605741026184 9.641400961479
1628 2 -1.200000000000 52.743545166684 24.492447938089 7.713120769183
1629 2 -1.200000000000 51.169110982604 2.226586176190 7.713120769183
1630 2 -1.200000000000 52.743545166684 1.113293088095 5.784840576887
1631 2 -1.200000000000 52.743545166684 1.113293088095 9.641400961479
1632 2 -1.200000000000 54.317979350764 0.000000000000 7.713120769183
1633 1 2.400000000000 44.084157154243 2.226586176190 19.282801922957
1634 1 2.400000000000 47.233025522403 0.000000000000 19.282801922957
1635 1 2.400000000000 47.233025522403 3.339879264285 17.354521730661
1636 1 2.400000000000 47.233025522403 3.339879264285 21.211082115253
1637 2 -1.200000000000 46.445808430363 2.226586176190 19.282801922957
1638 2 -1.200000000000 48.020242614443 1.113293088095 17.354521730661
1639 2 -1.200000000000 48.020242614443 1.113293088095 21.211082115253
1640 2 -1.200000000000 49.594676798523 0.000000000000 19.282801922957
1641 2 -1.200000000000 48.020242614443 4.453172352380 19.282801922957
1642 2 -1.200000000000 49.594676798523 3.339879264285 17.354521730661
1643 2 -1.200000000000 49.594676798523 3.339879264285 21.211082115253
1644 2 -1.200000000000 51.169110982604 2.226586176190 19.282801922957
1645 1 2.400000000000 47.233025522403 0.000000000000 15.426241538366
1646 1 2.400000000000 50.381893890564 24.492447938089 15.426241538366
1647 1 2.400000000000 50.381893890564 1.113293088095 13.497961346070
1648 1 2.400000000000 50.381893890564 1.113293088095 17.354521730661
1649 2 -1.200000000000 49.594676798523 0.000000000000 15.426241538366
1650 2 -1.200000000000 51.169110982604 25.605741026184 13.497961346070
1651 2 -1.200000000000 51.169110982604 25.605741026184 17.354521730661
1652 2 -1.200000000000 52.743545166684 24.492447938089 15.426241538366
1653 2 -1.200000000000 51.169110982604 2.226586176190 15.426241538366
1654 2 -1.200000000000 52.743545166684 1.113293088095 13.497961346070
1655 2 -1.200000000000 52.743545166684 1.113293088095 17.354521730661
1656 2 -1.200000000000 54.317979350764 0.000000000000 15.426241538366
1657 1 2.400000000000 22.042078577122 24.492447938089 3.856560384591
1658 1 2.400000000000 25.190946945282 22.265861761899 3.856560384591
1659 1 2.400000000000 25.190946945282 25.605741026184 1.928280192296
1660 1 2.400000000000 25.190946945282 25.605741026184 5.784840576887
1661 2 -1.200000000000 24.403729853242 24.492447938089 3.856560384591
1662 2 -1.200000000000 25.978164037322 23.379154849994 1.928280192296
1663 2 -1.200000000000 25.978164037322 23.379154849994 5.784840576887
1664 2 -1.200000000000 27.552598221402 22.265861761899 3.856560384591
1665 2 -1.200000000000 25.978164037322 0.000000000000 3.856560384591
1666 2 -1.200000000000 27.552598221402 25.605741026184 1.928280192296
1667 2 -1.200000000000 27.552598221402 25.605741026184 5.784840576887
1668 2 -1.200000000000 29.127032405482 24.492447938089 3.856560384591
1669 1 2.400000000000 25.190946945282 22.265861761899 0.000000000000
1670 1 2.400000000000 28.339815313442 20.039275585709 0.000000000000
1671 1 2.400000000000 28.339815313442 23.379154849994 21.211082115253
1672 1 2.400000000000 28.339815313442 23.379154849994 1.928280192296
1673 2 -1.200000000000 27.552598221402 22.265861761899 0.000000000000
1674 2 -1.200000000000 29.127032405482 21.152568673804 21.211082115253
1675 2 -1.200000000000 29.127032405482 21.152568673804 1.928280192296
1676 2 -1.200000000000 30.701466589562 20.039275585709 0.000000000000
1677 2 -1.200000000000 29.127032405482 24.492447938089 0.000000000000
1678 2 -1.200000000000 30.701466589562 23.379154849994 21.211082115253
1679 2 -1.200000000000 30.701466589562 23.379154849994 1.928280192296
1680 2 -1.200000000000 32.275900773642 22.265861761899 0.000000000000
1681 1 2.400000000000 22.042078577122 24.492447938089 11.569681153774
1682 1 2.400000000000 25.190946945282 22.265861761899 11.569681153774
1683 1 2.400000000000 25.190946945282 25.605741026184 9.641400961479
1684 1 2.400000000000 25.190946945282 25.605741026184 13.497961346070
1685 2 -1.200000000000 24.403729853242 24.492447938089 11.569681153774
1686 2 -1.200000000000 25.978164037322 23.379154849994 9.641400961479
1687 2 -1.200000000000 25.978164037322 23.379154849994 13.497961346070
1688 2 -1.200000000000 27.552598221402 22.265861761899 11.569681153774
1689 2 -1.200000000000 25.978164037322 0.000000000000 11.569681153774
1690 2 -1.200000000000 27.552598221402 25.605741026184 9.641400961479
1691 2 -1.200000000000 27.552598221402 25.605741026184 13.497961346070
1692 2 -1.200000000000 29.127032405482 24.492447938089 11.569681153774
1693 1 2.400000000000 25.190946945282 22.265861761899 7.713120769183
1694 1 2.400000000000 28.339815313442 20.039275585709 7.713120769183
1695 1 2.400000000000 28.339815313442 23.379154849994 5.784840576887
1696 1 2.400000000000 28.339815313442 23.379154849994 9.641400961479
1697 2 -1.200000000000 27.552598221402 22.265861761899 7.713120769183
1698 2 -1.200000000000 29.127032405482 21.152568673804 5.784840576887
1699 2 -1.200000000000 29.127032405482 21.152568673804 9.641400961479
1700 2 -1.200000000000 30.701466589562 20.039275585709 7.713120769183
1701 2 -1.200000000000 29.127032405482 24.492447938089 7.713120769183
1702 2 -1.200000000000 30.701466589562 23.379154849994 5.784840576887
1703 2 -1.200000000000 30.701466589562 23.379154849994 9.641400961479
1704 2 -1.200000000000 32.275900773642 22.265861761899 7.713120769183
1705 1 2.400000000000 28.339815313442 20.039275585709 3.856560384591
1706 1 2.400000000000 31.488683681602 17.812689409519 3.856560384591
1707 1 2.400000000000 31.488683681602 21.152568673804 1.928280192296
1708 1 2.400000000000 31.488683681602 21.152568673804 5.784840576887
1709 2 -1.200000000000 30.701466589562 20.039275585709 3.856560384591
1710 2 -1.200000000000 32.275900773642 18.925982497614 1.928280192296
1711 2 -1.200000000000 32.275900773642 18.925982497614 5.784840576887
1712 2 -1.200000000000 33.850334957722 17.812689409519 3.856560384591
1713 2 -1.200000000000 32.275900773642 22.265861761899 3.856560384591
1714 2 -1.200000000000 33.850334957722 21.152568673804 1.928280192296
1715 2 -1.200000000000 33.850334957722 21.152568673804 5.784840576887
1716 2 -1.200000000000 35.424769141802 20.039275585709 3.856560384591
1717 1 2.400000000000 31.488683681602 17.812689409519 0.000000000000
1718 1 2.400000000000 34.637552049762 15.586103233329 0.000000000000
1719 1 2.400000000000 34.637552049762 18.925982497614 21.211082115253
1720 1 2.400000000000 34.637552049762 18.925982497614 1.928280192296
1721 2 -1.200000000000 33.850334957722 17.812689409519 0.000000000000
1722 2 -1.200000000000 35.424769141802 16.699396321424 21.211082115253
1723 2 -1.200000000000 35.424769141802 16.699396321424 1.928280192296
1724 2 -1.200000000000 36.999203325883 15.586103233329 0.000000000000
1725 2 -1.200000000000 35.424769141802 20.039275585709 0.000000000000
1726 2 -1.200000000000 36.999203325883 18.925982497614 21.211082115253
1727 2 -1.200000000000 36.999203325883 18.925982497614 1.928280192296
1728 2 -1.200000000000 38.573637509963 17.812689409519 0.000000000000
1729 1 2.400000000000 22.042078577122 24.492447938089 19.282801922957
1730 1 2.400000000000 25.190946945282 22.265861761899 19.282801922957
1731 1 2.400000000000 25.190946945282 25.605741026184 17.354521730661
1732 1 2.400000000000 25.190946945282 25.605741026184 21.211082115253
1733 2 -1.200000000000 24.403729853242 24.492447938089 19.282801922957
1734 2 -1.200000000000 25.978164037322 23.379154849994 17.354521730661
1735 2 -1.200000000000 25.978164037322 23.379154849994 21.211082115253
1736 2 -1.200000000000 27.552598221402 22.265861761899 19.282801922957
1737 2 -1.200000000000 25.978164037322 0.000000000000 19.282801922957
1738 2 -1.200000000000 27.552598221402 25.605741026184 17.354521730661
1739 2 -1.200000000000 27.552598221402 25.605741026184 21.211082115253
1740 2 -1.200000000000 29.127032405482 24.492447938089 19.282801922957
1741 1 2.400000000000 25.190946945282 22.265861761899 15.426241538366
1742 1 2.400000000000 28.339815313442 20.039275585709 15.426241538366
1743 1 2.400000000000 28.339815313442 23.379154849994 13.497961346070
1744 1 2.400000000000 28.339815313442 23.379154849994 17.354521730661
1745 2 -1.200000000000 27.552598221402 22.265861761899 15.426241538366
1746 2 -1.200000000000 29.127032405482 21.152568673804 13.497961346070
1747 2 -1.200000000000 29.127032405482 21.152568673804 17.354521730661
1748 2 -1.200000000000 30.701466589562 20.039275585709 15.426241538366
1749 2 -1.200000000000 29.127032405482 24.492447938089 15.426241538366
1750 2 -1.200000000000 30.701466589562 23.379154849994 13.497961346070
1751 2 -1.200000000000 30.701466589562 23.379154849994 17.354521730661
1752 2 -1.200000000000 32.275900773642 22.265861761899 15.426241538366
1753 1 2.400000000000 28.339815313442 20.039275585709 11.569681153774
1754 1 2.400000000000 31.488683681602 17.812689409519 11.569681153774
1755 1 2.400000000000 31.488683681602 21.152568673804 9.641400961479
1756 1 2.400000000000 31.488683681602 21.152568673804 13.497961346070
1757 2 -1.200000000000 30.701466589562 20.039275585709 11.569681153774
1758 2 -1.200000000000 32.275900773642 18.925982497614 9.641400961479
1759 2 -1.200000000000 32.275900773642 18.925982497614 13.497961346070
1760 2 -1.200000000000 33.850334957722 17.812689409519 11.569681153774
1761 2 -1.200000000000 32.275900773642 22.265861761899 11.569681153774
1762 2 -1.200000000000 33.850334957722 21.152568673804 9.641400961479
1763 2 -1.200000000000 33.850334957722 21.152568673804 13.497961346070
1764 2 -1.200000000000 35.424769141802 20.039275585709 11.569681153774
1765 1 2.400000000000 31.488683681602 17.812689409519 7.713120769183
1766 1 2.400000000000 34.637552049762 15.586103233329 7.713120769183
1767 1 2.400000000000 34.637552049762 18.925982497614 5.784840576887
1768 1 2.400000000000 34.637552049762 18.925982497614 9.641400961479
1769 2 -1.200000000000 33.850334957722 17.812689409519 7.713120769183
1770 2 -1.200000000000 35.424769141802 16.699396321424 5.784840576887
1771 2 -1.200000000000 35.424769141802 16.699396321424 9.641400961479
1772 2 -1.200000000000 36.999203325883 15.586103233329 7.713120769183
1773 2 -1.200000000000 35.424769141802 20.039275585709 7.713120769183
1774 2 -1.200000000000 36.999203325883 18.925982497614 5.784840576887
1775 2 -1.200000000000 36.999203325883 18.925982497614 9.641400961479
1776 2 -1.200000000000 38.573637509963 17.812689409519 7.713120769183
1777 1 2.400000000000 34.637552049762 15.586103233329 3.856560384591
1778 1 2.400000000000 37.786420417923 13.359517057139 3.856560384591
1779 1 2.400000000000 37.786420417923 16.699396321424 1.928280192296
1780 1 2.400000000000 37.786420417923 16.699396321424 5.784840576887
1781 2 -1.200000000000 36.999203325883 15.586103233329 3.856560384591
1782 2 -1.200000000000 38.573637509963 14.472810145234 1.928280192296
1783 2 -1.200000000000 38.573637509963 14.472810145234 5.784840576887
1784 2 -1.200000000000 40.148071694043 13.359517057139 3.856560384591
1785 2 -1.200000000000 38.573637509963 17.812689409519 3.856560384591
1786 2 -1.200000000000 40.148071694043 16.699396321424 1.928280192296
1787 2 -1.200000000000 40.148071694043 16.699396321424 5.784840576887
1788 2 -1.200000000000 41.722505878123 15.586103233329 3.856560384591
1789 1 2.400000000000 37.786420417923 13.359517057139 0.000000000000
1790 1 2.400000000000 40.935288786083 11.132930880950 0.000000000000
1791 1 2.400000000000 40.935288786083 14.472810145234 21.211082115253
1792 1 2.400000000000 40.935288786083 14.472810145234 1.928280192296
1793 2 -1.200000000000 40.148071694043 13.359517057139 0.000000000000
1794 2 -1.200000000000 41.722505878123 12.246223969045 21.211082115253
1795 2 -1.200000000000 41.722505878123 12.246223969045 1.928280192296
1796 2 -1.200000000000 43.296940062203 11.132930880950 0.000000000000
1797 2 -1.200000000000 41.722505878123 15.586103233329 0.000000000000
1798 2 -1.200000000000 43.296940062203 14.472810145234 21.211082115253
1799 2 -1.200000000000 43.296940062203 14.472810145234 1.928280192296
1800 2 -1.200000000000 44.871374246283 13.359517057139 0.000000000000
1801 1 2.400000000000 28.339815313442 20.039275585709 19.282801922957
1802 1 2.400000000000 31.488683681602 17.812689409519 19.282801922957
1803 1 2.400000000000 31.488683681602 21.152568673804 17.354521730661
1804 1 2.400000000000 31.488683681602 21.152568673804 21.211082115253
1805 2 -1.200000000000 30.701466589562 20.039275585709 19.282801922957
1806 2 -1.200000000000 32.275900773642 18.925982497614 17.354521730661
1807 2 -1.200000000000 32.275900773642 18.925982497614 21.211082115253
1808 2 -1.200000000000 33.850334957722 17.812689409519 19.282801922957
1809 2 -1.200000000000 32.275900773642 22.265861761899 19.282801922957
1810 2 -1.200000000000 33.850334957722 21.152568673804 17.354521730661
1811 2 -1.200000000000 33.850334957722 21.152568673804 21.211082115253
1812 2 -1.200000000000 35.424769141802 20.039275585709 19.282801922957
1813 1 2.400000000000 31.488683681602 17.812689409519 15.426241538366
1814 1 2.400000000000 34.637552049762 15.586103233329 15.426241538366
1815 1 2.400000000000 34.637552049762 18.925982497614 13.497961346070
1816 1 2.400000000000 34.637552049762 18.925982497614 17.354521730661
1817 2 -1.200000000000 33.850334957722 17.812689409519 15.426241538366
1818 2 -1.200000000000 35.424769141802 16.699396321424 13.497961346070
1819 2 -1.200000000000 35.424769141802 16.699396321424 17.354521730661
1820 2 -1.200000000000 36.999203325883 15.586103233329 15.426241538366
1821 2 -1.200000000000 35.424769141802 20.039275585709 15.426241538366
1822 2 -1.200000000000 36.999203325883 18.925982497614 13.497961346070
1823 2 -1.200000000000 36.999203325883 18.925982497614 17.354521730661
1824 2 -1.200000000000 38.573637509963 17.812689409519 15.426241538366
1825 1 2.400000000000 34.637552049762 15.586103233329 11.569681153774
1826 1 2.400000000000 37.786420417923 13.359517057139 11.569681153774
1827 1 2.400000000000 37.786420417923 16.699396321424 9.641400961479
1828 1 2.400000000000 37.786420417923 16.699396321424 13.497961346070
1829 2 -1.200000000000 36.999203325883 15.586103233329 11.569681153774
1830 2 -1.200000000000 38.573637509963 14.472810145234 9.641400961479
1831 2 -1.200000000000 38.573637509963 14.472810145234 13.497961346070
1832 2 -1.200000000000 40.148071694043 13.359517057139 11.569681153774
1833 2 -1.200000000000 38.573637509963 17.812689409519 11.569681153774
1834 2 -1.200000000000 40.148071694043 16.699396321424 9.641400961479
1835 2 -1.200000000000 40.148071694043 16.699396321424 13.497961346070
1836 2 -1.200000000000 41.722505878123 15.586103233329 11.569681153774
1837 1 2.400000000000 37.786420417923 13.359517057139 7.713120769183
1838 1 2.400000000000 40.935288786083 11.132930880950 7.713120769183
1839 1 2.400000000000 40.935288786083 14.472810145234 5.784840576887
1840 1 2.400000000000 40.935288786083 14.472810145234 9.641400961479
1841 2 -1.200000000000 40.148071694043 13.359517057139 7.713120769183
1842 2 -1.200000000000 41.722505878123 12.246223969045 5.784840576887
1843 2 -1.200000000000 41.722505878123 12.246223969045 9.641400961479
1844 2 -1.200000000000 43.296940062203 11.132930880950 7.713120769183
1845 2 -1.200000000000 41.722505878123 15.586103233329 7.713120769183
1846 2 -1.200000000000 43.296940062203 14.472810145234 5.784840576887
1847 2 -1.200000000000 43.296940062203 14.472810145234 9.641400961479
1848 2 -1.200000000000 44.871374246283 13.359517057139 7.713120769183
1849 1 2.400000000000 40.935288786083 11.132930880950 3.856560384591
1850 1 2.400000000000 44.084157154243 8.906344704760 3.856560384591
1851 1 2.400000000000 44.084157154243 12.246223969044 1.928280192296
1852 1 2.400000000000 44.084157154243 12.246223969044 5.784840576887
1853 2 -1.200000000000 43.296940062203 11.132930880950 3.856560384591
1854 2 -1.200000000000 44.871374246283 10.019637792855 1.928280192296
1855 2 -1.200000000000 44.871374246283 10.019637792855 5.784840576887
1856 2 -1.200000000000 46.445808430363 8.906344704760 3.856560384591
1857 2 -1.200000000000 44.871374246283 13.359517057139 3.856560384591
1858 2 -1.200000000000 46.445808430363 12.246223969044 1.928280192296
1859 2 -1.200000000000 46.445808430363 12.246223969044 5.784840576887
1860 2 -1.200000000000 48.020242614443 11.132930880950 3.856560384591
1861 1 2.400000000000 44.084157154243 8.906344704760 0.000000000000
1862 1 2.400000000000 47.233025522403 6.679758528570 0.000000000000
1863 1 2.400000000000 47.233025522403 10.019637792855 21.211082115253
1864 1 2.400000000000 47.233025522403 10.019637792855 1.928280192296
1865 2 -1.200000000000 46.445808430363 8.906344704760 0.000000000000
1866 2 -1.200000000000 48.020242614443 7.793051616665 21.211082115253
1867 2 -1.200000000000 48.020242614443 7.793051616665 1.928280192296
1868 2 -1.200000000000 49.594676798523 6.679758528570 0.000000000000
1869 2 -1.200000000000 48.020242614443 11.132930880950 0.000000000000
1870 2 -1.200000000000 49.594676798523 10.019637792855 21.211082115253
1871 2 -1.200000000000 49.594676798523 10.019637792855 1.928280192296
1872 2 -1.200000000000 51.169110982604 8.906344704760 0.000000000000
1873 1 2.400000000000 34.637552049762 15.586103233329 19.282801922957
1874 1 2.400000000000 37.786420417923 13.359517057139 19.282801922957
1875 1 2.400000000000 37.786420417923 16.699396321424 17.354521730661
1876 1 2.400000000000 37.786420417923 16.699396321424 21.211082115253
1877 2 -1.200000000000 36.999203325883 15.586103233329 19.282801922957
1878 2 -1.200000000000 38.573637509963 14.472810145234 17.354521730661
1879 2 -1.200000000000 38.573637509963 14.472810145234 21.211082115253
1880 2 -1.200000000000 40.148071694043 13.359517057139 19.282801922957
1881 2 -1.200000000000 38.573637509963 17.812689409519 19.282801922957
1882 2 -1.200000000000 40.148071694043 16.699396321424 17.354521730661
1883 2 -1.200000000000 40.148071694043 16.699396321424 21.211082115253
1884 2 -1.200000000000 41.722505878123 15.586103233329 19.282801922957
1885 1 2.400000000000 37.786420417923 13.359517057139 15.426241538366
1886 1 2.400000000000 40.935288786083 11.132930880950 15.426241538366
1887 1 2.400000000000 40.935288786083 14.472810145234 13.497961346070
1888 1 2.400000000000 40.935288786083 14.472810145234 17.354521730661
1889 2 -1.200000000000 40.148071694043 13.359517057139 15.426241538366
1890 2 -1.200000000000 41.722505878123 12.246223969045 13.497961346070
1891 2 -1.200000000000 41.722505878123 12.246223969045 17.354521730661
1892 2 -1.200000000000 43.296940062203 11.132930880950 15.426241538366
1893 2 -1.200000000000 41.722505878123 15.586103233329 15.426241538366
1894 2 -1.200000000000 43.296940062203 14.472810145234 13.497961346070
1895 2 -1.200000000000 43.296940062203 14.472810145234 17.354521730661
1896 2 -1.200000000000 44.871374246283 13.359517057139 15.426241538366
1897 1 2.400000000000 40.935288786083 11.132930880950 11.569681153774
1898 1 2.400000000000 44.084157154243 8.906344704760 11.569681153774
1899 1 2.400000000000 44.084157154243 12.246223969044 9.641400961479
1900 1 2.400000000000 44.084157154243 12.246223969044 13.497961346070
1901 2 -1.200000000000 43.296940062203 11.132930880950 11.569681153774
1902 2 -1.200000000000 44.871374246283 10.019637792855 9.641400961479
1903 2 -1.200000000000 44.871374246283 10.019637792855 13.497961346070
1904 2 -1.200000000000 46.445808430363 8.906344704760 11.569681153774
1905 2 -1.200000000000 44.871374246283 13.359517057139 11.569681153774
1906 2 -1.200000000000 46.445808430363 12.246223969044 9.641400961479
1907 2 -1.200000000000 46.445808430363 12.246223969044 13.497961346070
1908 2 -1.200000000000 48.020242614443 11.132930880950 11.569681153774
1909 1 2.400000000000 44.084157154243 8.906344704760 7.713120769183
1910 1 2.400000000000 47.233025522403 6.679758528570 7.713120769183
1911 1 2.400000000000 47.233025522403 10.019637792855 5.784840576887
1912 1 2.400000000000 47.233025522403 10.019637792855 9.641400961479
1913 2 -1.200000000000 46.445808430363 8.906344704760 7.713120769183
1914 2 -1.200000000000 48.020242614443 7.793051616665 5.784840576887
1915 2 -1.200000000000 48.020242614443 7.793051616665 9.641400961479
1916 2 -1.200000000000 49.594676798523 6.679758528570 7.713120769183
1917 2 -1.200000000000 48.020242614443 11.132930880950 7.713120769183
1918 2 -1.200000000000 49.594676798523 10.019637792855 5.784840576887
1919 2 -1.200000000000 49.594676798523 10.019637792855 9.641400961479
1920 2 -1.200000000000 51.169110982604 8.906344704760 7.713120769183
1921 1 2.400000000000 47.233025522403 6.679758528570 3.856560384591
1922 1 2.400000000000 50.381893890564 4.453172352380 3.856560384591
1923 1 2.400000000000 50.381893890564 7.793051616665 1.928280192296
1924 1 2.400000000000 50.381893890564 7.793051616665 5.784840576887
1925 2 -1.200000000000 49.594676798523 6.679758528570 3.856560384591
1926 2 -1.200000000000 51.169110982604 5.566465440475 1.928280192296
1927 2 -1.200000000000 51.169110982604 5.566465440475 5.784840576887
1928 2 -1.200000000000 52.743545166684 4.453172352380 3.856560384591
1929 2 -1.200000000000 51.169110982604 8.906344704760 3.856560384591
1930 2 -1.200000000000 52.743545166684 7.793051616665 1.928280192296
1931 2 -1.200000000000 52.743545166684 7.793051616665 5.784840576887
1932 2 -1.200000000000 54.317979350764 6.679758528570 3.856560384591
1933 1 2.400000000000 50.381893890564 4.453172352380 0.000000000000
1934 1 2.400000000000 53.530762258724 2.226586176190 0.000000000000
1935 1 2.400000000000 53.530762258724 5.566465440475 21.211082115253
1936 1 2.400000000000 53.530762258724 5.566465440475 1.928280192296
1937 2 -1.200000000000 52.743545166684 4.453172352380 0.000000000000
1938 2 -1.200000000000 54.317979350764 3.339879264285 21.211082115253
1939 2 -1.200000000000 54.317979350764 3.339879264285 1.928280192296
1940 2 -1.200000000000 55.892413534844 2.226586176190 0.000000000000
1941 2 -1.200000000000 54.317979350764 6.679758528570 0.000000000000
1942 2 -1.200000000000 55.892413534844 5.566465440475 21.211082115253
1943 2 -1.200000000000 55.892413534844 5.566465440475 1.928280192296
1944 2 -1.200000000000 57.466847718924 4.453172352380 0.000000000000
1945 1 2.400000000000 40.935288786083 11.132930880950 19.282801922957
1946 1 2.400000000000 44.084157154243 8.906344704760 19.282801922957
1947 1 2.400000000000 44.084157154243 12.246223969044 17.354521730661
1948 1 2.400000000000 44.084157154243 12.246223969044 21.211082115253
1949 2 -1.200000000000 43.296940062203 11.132930880950 19.282801922957
1950 2 -1.200000000000 44.871374246283 10.019637792855 17.354521730661
1951 2 -1.200000000000 44.871374246283 10.019637792855 21.211082115253
1952 2 -1.200000000000 46.445808430363 8.906344704760 19.282801922957
1953 2 -1.200000000000 44.871374246283 13.359517057139 19.282801922957
1954 2 -1.200000000000 46.445808430363 12.246223969044 17.354521730661
1955 2 -1.200000000000 46.445808430363 12.246223969044 21.211082115253
1956 2 -1.200000000000 48.020242614443 11.132930880950 19.282801922957
1957 1 2.400000000000 44.084157154243 8.906344704760 15.426241538366
1958 1 2.400000000000 47.233025522403 6.679758528570 15.426241538366
1959 1 2.400000000000 47.233025522403 10.019637792855 13.497961346070
1960 1 2.400000000000 47.233025522403 10.019637792855 17.354521730661
1961 2 -1.200000000000 46.445808430363 8.906344704760 15.426241538366
1962 2 -1.200000000000 48.020242614443 7.793051616665 13.497961346070
1963 2 -1.200000000000 48.020242614443 7.793051616665 17.354521730661
1964 2 -1.200000000000 49.594676798523 6.679758528570 15.426241538366
1965 2 -1.200000000000 48.020242614443 11.132930880950 15.426241538366
1966 2 -1.200000000000 49.594676798523 10.019637792855 13.497961346070
1967 2 -1.200000000000 49.594676798523 10.019637792855 17.354521730661
1968 2 -1.200000000000 51.169110982604 8.906344704760 15.426241538366
1969 1 2.400000000000 47.233025522403 6.679758528570 11.569681153774
1970 1 2.400000000000 50.381893890564 4.453172352380 11.569681153774
1971 1 2.400000000000 50.381893890564 7.793051616665 9.641400961479
1972 1 2.400000000000 50.381893890564 7.793051616665 13.497961346070
1973 2 -1.200000000000 49.594676798523 6.679758528570 11.569681153774
1974 2 -1.200000000000 51.169110982604 5.566465440475 9.641400961479
1975 2 -1.200000000000 51.169110982604 5.566465440475 13.497961346070
1976 2 -1.200000000000 52.743545166684 4.453172352380 11.569681153774
1977 2 -1.200000000000 51.169110982604 8.906344704760 11.569681153774
1978 2 -1.200000000000 52.743545166684 7.793051616665 9.641400961479
1979 2 -1.200000000000 52.743545166684 7.793051616665 13.497961346070
1980 2 -1.200000000000 54.317979350764 6.679758528570 11.569681153774
1981 1 2.400000000000 50.381893890564 4.453172352380 7.713120769183
1982 1 2.400000000000 53.530762258724 2.226586176190 7.713120769183
1983 1 2.400000000000 53.530762258724 5.566465440475 5.784840576887
1984 1 2.400000000000 53.530762258724 5.566465440475 9.641400961479
1985 2 -1.200000000000 52.743545166684 4.453172352380 7.713120769183
1986 2 -1.200000000000 54.317979350764 3.339879264285 5.784840576887
1987 2 -1.200000000000 54.317979350764 3.339879264285 9.641400961479
1988 2 -1.200000000000 55.892413534844 2.226586176190 7.713120769183
1989 2 -1.200000000000 54.317979350764 6.679758528570 7.713120769183
1990 2 -1.200000000000 55.892413534844 5.566465440475 5.784840576887
1991 2 -1.200000000000 55.892413534844 5.566465440475 9.641400961479
1992 2 -1.200000000000 57.466847718924 4.453172352380 7.713120769183
1993 1 2.400000000000 53.530762258724 2.226586176190 3.856560384591
1994 1 2.400000000000 56.679630626884 0.000000000000 3.856560384591
1995 1 2.400000000000 56.679630626884 3.339879264285 1.928280192296
1996 1 2.400000000000 56.679630626884 3.339879264285 5.784840576887
1997 2 -1.200000000000 55.892413534844 2.226586176190 3.856560384591
1998 2 -1.200000000000 57.466847718924 1.113293088095 1.928280192296
1999 2 -1.200000000000 57.466847718924 1.113293088095 5.784840576887
2000 2 -1.200000000000 59.041281903004 0.000000000000 3.856560384591
2001 2 -1.200000000000 57.466847718924 4.453172352380 3.856560384591
2002 2 -1.200000000000 59.041281903004 3.339879264285 1.928280192296
2003 2 -1.200000000000 59.041281903004 3.339879264285 5.784840576887
2004 2 -1.200000000000 60.615716087084 2.226586176190 3.856560384591
2005 1 2.400000000000 56.679630626884 0.000000000000 0.000000000000
2006 1 2.400000000000 59.828498995044 24.492447938089 0.000000000000
2007 1 2.400000000000 59.828498995044 1.113293088095 21.211082115253
2008 1 2.400000000000 59.828498995044 1.113293088095 1.928280192296
2009 2 -1.200000000000 59.041281903004 0.000000000000 0.000000000000
2010 2 -1.200000000000 60.615716087084 25.605741026184 21.211082115253
2011 2 -1.200000000000 60.615716087084 25.605741026184 1.928280192296
2012 2 -1.200000000000 62.190150271164 24.492447938089 0.000000000000
2013 2 -1.200000000000 60.615716087084 2.226586176190 0.000000000000
2014 2 -1.200000000000 62.190150271164 1.113293088095 21.211082115253
2015 2 -1.200000000000 62.190150271164 1.113293088095 1.928280192296
2016 2 -1.200000000000 63.764584455244 0.000000000000 0.000000000000
2017 1 2.400000000000 47.233025522403 6.679758528570 19.282801922957
2018 1 2.400000000000 50.381893890564 4.453172352380 19.282801922957
2019 1 2.400000000000 50.381893890564 7.793051616665 17.354521730661
2020 1 2.400000000000 50.381893890564 7.793051616665 21.211082115253
2021 2 -1.200000000000 49.594676798523 6.679758528570 19.282801922957
2022 2 -1.200000000000 51.169110982604 5.566465440475 17.354521730661
2023 2 -1.200000000000 51.169110982604 5.566465440475 21.211082115253
2024 2 -1.200000000000 52.743545166684 4.453172352380 19.282801922957
2025 2 -1.200000000000 51.169110982604 8.906344704760 19.282801922957
2026 2 -1.200000000000 52.743545166684 7.793051616665 17.354521730661
2027 2 -1.200000000000 52.743545166684 7.793051616665 21.211082115253
2028 2 -1.200000000000 54.317979350764 6.679758528570 19.282801922957
2029 1 2.400000000000 50.381893890564 4.453172352380 15.426241538366
2030 1 2.400000000000 53.530762258724 2.226586176190 15.426241538366
2031 1 2.400000000000 53.530762258724 5.566465440475 13.497961346070
2032 1 2.400000000000 53.530762258724 5.566465440475 17.354521730661
2033 2 -1.200000000000 52.743545166684 4.453172352380 15.426241538366
2034 2 -1.200000000000 54.317979350764 3.339879264285 13.497961346070
2035 2 -1.200000000000 54.317979350764 3.339879264285 17.354521730661
2036 2 -1.200000000000 55.892413534844 2.226586176190 15.426241538366
2037 2 -1.200000000000 54.317979350764 6.679758528570 15.426241538366
2038 2 -1.200000000000 55.892413534844 5.566465440475 13.497961346070
2039 2 -1.200000000000 55.892413534844 5.566465440475 17.354521730661
2040 2 -1.200000000000 57.466847718924 4.453172352380 15.426241538366
2041 1 2.400000000000 53.530762258724 2.226586176190 11.569681153774
2042 1 2.400000000000 56.679630626884 0.000000000000 11.569681153774
2043 1 2.400000000000 56.679630626884 3.339879264285 9.641400961479
2044 1 2.400000000000 56.679630626884 3.339879264285 13.497961346070
2045 2 -1.200000000000 55.892413534844 2.226586176190 11.569681153774
2046 2 -1.200000000000 57.466847718924 1.113293088095 9.641400961479
2047 2 -1.200000000000 57.466847718924 1.113293088095 13.497961346070
2048 2 -1.200000000000 59.041281903004 0.000000000000 11.569681153774
2049 2 -1.200000000000 57.466847718924 4.453172352380 11.569681153774
2050 2 -1.200000000000 59.041281903004 3.339879264285 9.641400961479
2051 2 -1.200000000000 59.041281903004 3.339879264285 13.497961346070
2052 2 -1.200000000000 60.615716087084 2.226586176190 11.569681153774
2053 1 2.400000000000 56.679630626884 0.000000000000 7.713120769183
2054 1 2.400000000000 59.828498995044 24.492447938089 7.713120769183
2055 1 2.400000000000 59.828498995044 1.113293088095 5.784840576887
2056 1 2.400000000000 59.828498995044 1.113293088095 9.641400961479
2057 2 -1.200000000000 59.041281903004 0.000000000000 7.713120769183
2058 2 -1.200000000000 60.615716087084 25.605741026184 5.784840576887
2059 2 -1.200000000000 60.615716087084 25.605741026184 9.641400961479
2060 2 -1.200000000000 62.190150271164 24.492447938089 7.713120769183
2061 2 -1.200000000000 60.615716087084 2.226586176190 7.713120769183
2062 2 -1.200000000000 62.190150271164 1.113293088095 5.784840576887
2063 2 -1.200000000000 62.190150271164 1.113293088095 9.641400961479
2064 2 -1.200000000000 63.764584455244 0.000000000000 7.713120769183
2065 1 2.400000000000 53.530762258724 2.226586176190 19.282801922957
2066 1 2.400000000000 56.679630626884 0.000000000000 19.282801922957
2067 1 2.400000000000 56.679630626884 3.339879264285 17.354521730661
2068 1 2.400000000000 56.679630626884 3.339879264285 21.211082115253
2069 2 -1.200000000000 55.892413534844 2.226586176190 19.282801922957
2070 2 -1.200000000000 57.466847718924 1.113293088095 17.354521730661
2071 2 -1.200000000000 57.466847718924 1.113293088095 21.211082115253
2072 2 -1.200000000000 59.041281903004 0.000000000000 19.282801922957
2073 2 -1.200000000000 57.466847718924 4.453172352380 19.282801922957
2074 2 -1.200000000000 59.041281903004 3.339879264285 17.354521730661
2075 2 -1.200000000000 59.041281903004 3.339879264285 21.211082115253
2076 2 -1.200000000000 60.615716087084 2.226586176190 19.282801922957
2077 1 2.400000000000 56.679630626884 0.000000000000 15.426241538366
2078 1 2.400000000000 59.828498995044 24.492447938089 15.426241538366
2079 1 2.400000000000 59.828498995044 1.113293088095 13.497961346070
2080 1 2.400000000000 59.828498995044 1.113293088095 17.354521730661
2081 2 -1.200000000000 59.041281903004 0.000000000000 15.426241538366
2082 2 -1.200000000000 60.615716087084 25.605741026184 13.497961346070
2083 2 -1.200000000000 60.615716087084 25.605741026184 17.354521730661
2084 2 -1.200000000000 62.190150271164 24.492447938089 15.426241538366
2085 2 -1.200000000000 60.615716087084 2.226586176190 15.426241538366
2086 2 -1.200000000000 62.190150271164 1.113293088095 13.497961346070
2087 2 -1.200000000000 62.190150271164 1.113293088095 17.354521730661
2088 2 -1.200000000000 63.764584455244 0.000000000000 15.426241538366
2089 1 2.400000000000 31.488683681602 24.492447938089 3.856560384591
2090 1 2.400000000000 34.637552049762 22.265861761899 3.856560384591
2091 1 2.400000000000 34.637552049762 25.605741026184 1.928280192296
2092 1 2.400000000000 34.637552049762 25.605741026184 5.784840576887
2093 2 -1.200000000000 33.850334957722 24.492447938089 3.856560384591
2094 2 -1.200000000000 35.424769141802 23.379154849994 1.928280192296
2095 2 -1.200000000000 35.424769141802 23.379154849994 5.784840576887
2096 2 -1.200000000000 36.999203325883 22.265861761899 3.856560384591
2097 2 -1.200000000000 35.424769141802 0.000000000000 3.856560384591
2098 2 -1.200000000000 36.999203325883 25.605741026184 1.928280192296
2099 2 -1.200000000000 36.999203325883 25.605741026184 5.784840576887
2100 2 -1.200000000000 38.573637509963 24.492447938089 3.856560384591
2101 1 2.400000000000 34.637552049762 22.265861761899 0.000000000000
2102 1 2.400000000000 37.786420417923 20.039275585709 0.000000000000
2103 1 2.400000000000 37.786420417923 23.379154849994 21.211082115253
2104 1 2.400000000000 37.786420417923 23.379154849994 1.928280192296
2105 2 -1.200000000000 36.999203325883 22.265861761899 0.000000000000
2106 2 -1.200000000000 38.573637509963 21.152568673804 21.211082115253
2107 2 -1.200000000000 38.573637509963 21.152568673804 1.928280192296
2108 2 -1.200000000000 40.148071694043 20.039275585709 0.000000000000
2109 2 -1.200000000000 38.573637509963 24.492447938089 0.000000000000
2110 2 -1.200000000000 40.148071694043 23.379154849994 21.211082115253
2111 2 -1.200000000000 40.148071694043 23.379154849994 1.928280192296
2112 2 -1.200000000000 41.722505878123 22.265861761899 0.000000000000
2113 1 2.400000000000 31.488683681602 24.492447938089 11.569681153774
2114 1 2.400000000000 34.637552049762 22.265861761899 11.569681153774
2115 1 2.400000000000 34.637552049762 25.605741026184 9.641400961479
2116 1 2.400000000000 34.637552049762 25.605741026184 13.497961346070
2117 2 -1.200000000000 33.850334957722 24.492447938089 11.569681153774
2118 2 -1.200000000000 35.424769141802 23.379154849994 9.641400961479
2119 2 -1.200000000000 35.424769141802 23.379154849994 13.497961346070
2120 2 -1.200000000000 36.999203325883 22.265861761899 11.569681153774
2121 2 -1.200000000000 35.424769141802 0.000000000000 11.569681153774
2122 2 -1.200000000000 36.999203325883 25.605741026184 9.641400961479
2123 2 -1.200000000000 36.999203325883 25.605741026184 13.497961346070
2124 2 -1.200000000000 38.573637509963 24.492447938089 11.569681153774
2125 1 2.400000000000 34.637552049762 22.265861761899 7.713120769183
2126 1 2.400000000000 37.786420417923 20.039275585709 7.713120769183
2127 1 2.400000000000 37.786420417923 23.379154849994 5.784840576887
2128 1 2.400000000000 37.786420417923 23.379154849994 9.641400961479
2129 2 -1.200000000000 36.999203325883 22.265861761899 7.713120769183
2130 2 -1.200000000000 38.573637509963 21.152568673804 5.784840576887
2131 2 -1.200000000000 38.573637509963 21.152568673804 9.641400961479
2132 2 -1.200000000000 40.148071694043 20.039275585709 7.713120769183
2133 2 -1.200000000000 38.573637509963 24.492447938089 7.713120769183
2134 2 -1.200000000000 40.148071694043 23.379154849994 5.784840576887
2135 2 -1.200000000000 40.148071694043 23.379154849994 9.641400961479
2136 2 -1.200000000000 41.722505878123 22.265861761899 7.713120769183
2137 1 2.400000000000 37.786420417923 20.039275585709 3.856560384591
2138 1 2.400000000000 40.935288786083 17.812689409519 3.856560384591
2139 1 2.400000000000 40.935288786083 21.152568673804 1.928280192296
2140 1 2.400000000000 40.935288786083 21.152568673804 5.784840576887
2141 2 -1.200000000000 40.148071694043 20.039275585709 3.856560384591
2142 2 -1.200000000000 41.722505878123 18.925982497614 1.928280192296
2143 2 -1.200000000000 41.722505878123 18.925982497614 5.784840576887
2144 2 -1.200000000000 43.296940062203 17.812689409519 3.856560384591
2145 2 -1.200000000000 41.722505878123 22.265861761899 3.856560384591
2146 2 -1.200000000000 43.296940062203 21.152568673804 1.928280192296
2147 2 -1.200000000000 43.296940062203 21.152568673804 5.784840576887
2148 2 -1.200000000000 44.871374246283 20.039275585709 3.856560384591
2149 1 2.400000000000 40.935288786083 17.812689409519 0.000000000000
2150 1 2.400000000000 44.084157154243 15.586103233329 0.000000000000
2151 1 2.400000000000 44.084157154243 18.925982497614 21.211082115253
2152 1 2.400000000000 44.084157154243 18.925982497614 1.928280192296
2153 2 -1.200000000000 43.296940062203 17.812689409519 0.000000000000
2154 2 -1.200000000000 44.871374246283 16.699396321424 21.211082115253
2155 2 -1.200000000000 44.871374246283 16.699396321424 1.928280192296
2156 2 -1.200000000000 46.445808430363 15.586103233329 0.000000000000
2157 2 -1.200000000000 44.871374246283 20.039275585709 0.000000000000
2158 2 -1.200000000000 46.445808430363 18.925982497614 21.211082115253
2159 2 -1.200000000000 46.445808430363 18.925982497614 1.928280192296
2160 2 -1.200000000000 48.020242614443 17.812689409519 0.000000000000
2161 1 2.400000000000 31.488683681602 24.492447938089 19.282801922957
2162 1 2.400000000000 34.637552049762 22.265861761899 19.282801922957
2163 1 2.400000000000 34.637552049762 25.605741026184 17.354521730661
2164 1 2.400000000000 34.637552049762 25.605741026184 21.211082115253
2165 2 -1.200000000000 33.850334957722 24.492447938089 19.282801922957
2166 2 -1.200000000000 35.424769141802 23.379154849994 17.354521730661
2167 2 -1.200000000000 35.424769141802 23.379154849994 21.211082115253
2168 2 -1.200000000000 36.999203325883 22.265861761899 19.282801922957
2169 2 -1.200000000000 35.424769141802 0.000000000000 19.282801922957
2170 2 -1.200000000000 36.999203325883 25.605741026184 17.354521730661
2171 2 -1.200000000000 36.999203325883 25.605741026184 21.211082115253
2172 2 -1.200000000000 38.573637509963 24.492447938089 19.282801922957
2173 1 2.400000000000 34.637552049762 22.265861761899 15.426241538366
2174 1 2.400000000000 37.786420417923 20.039275585709 15.426241538366
2175 1 2.400000000000 37.786420417923 23.379154849994 13.497961346070
2176 1 2.400000000000 37.786420417923 23.379154849994 17.354521730661
2177 2 -1.200000000000 36.999203325883 22.265861761899 15.426241538366
2178 2 -1.200000000000 38.573637509963 21.152568673804 13.497961346070
2179 2 -1.200000000000 38.573637509963 21.152568673804 17.354521730661
2180 2 -1.200000000000 40.148071694043 20.039275585709 15.426241538366
2181 2 -1.200000000000 38.573637509963 24.492447938089 15.426241538366
2182 2 -1.200000000000 40.148071694043 23.379154849994 13.497961346070
2183 2 -1.200000000000 40.148071694043 23.379154849994 17.354521730661
2184 2 -1.200000000000 41.722505878123 22.265861761899 15.426241538366
2185 1 2.400000000000 37.786420417923 20.039275585709 11.569681153774
2186 1 2.400000000000 40.935288786083 17.812689409519 11.569681153774
2187 1 2.400000000000 40.935288786083 21.152568673804 9.641400961479
2188 1 2.400000000000 40.935288786083 21.152568673804 13.497961346070
2189 2 -1.200000000000 40.148071694043 20.039275585709 11.569681153774
2190 2 -1.200000000000 41.722505878123 18.925982497614 9.641400961479
2191 2 -1.200000000000 41.722505878123 18.925982497614 13.497961346070
2192 2 -1.200000000000 43.296940062203 17.812689409519 11.569681153774
2193 2 -1.200000000000 41.722505878123 22.265861761899 11.569681153774
2194 2 -1.200000000000 43.296940062203 21.152568673804 9.641400961479
2195 2 -1.200000000000 43.296940062203 21.152568673804 13.497961346070
2196 2 -1.200000000000 44.871374246283 20.039275585709 11.569681153774
2197 1 2.400000000000 40.935288786083 17.812689409519 7.713120769183
2198 1 2.400000000000 44.084157154243 15.586103233329 7.713120769183
2199 1 2.400000000000 44.084157154243 18.925982497614 5.784840576887
2200 1 2.400000000000 44.084157154243 18.925982497614 9.641400961479
2201 2 -1.200000000000 43.296940062203 17.812689409519 7.713120769183
2202 2 -1.200000000000 44.871374246283 16.699396321424 5.784840576887
2203 2 -1.200000000000 44.871374246283 16.699396321424 9.641400961479
2204 2 -1.200000000000 46.445808430363 15.586103233329 7.713120769183
2205 2 -1.200000000000 44.871374246283 20.039275585709 7.713120769183
2206 2 -1.200000000000 46.445808430363 18.925982497614 5.784840576887
2207 2 -1.200000000000 46.445808430363 18.925982497614 9.641400961479
2208 2 -1.200000000000 48.020242614443 17.812689409519 7.713120769183
2209 1 2.400000000000 44.084157154243 15.586103233329 3.856560384591
2210 1 2.400000000000 47.233025522403 13.359517057139 3.856560384591
2211 1 2.400000000000 47.233025522403 16.699396321424 1.928280192296
2212 1 2.400000000000 47.233025522403 16.699396321424 5.784840576887
2213 2 -1.200000000000 46.445808430363 15.586103233329 3.856560384591
2214 2 -1.200000000000 48.020242614443 14.472810145234 1.928280192296
2215 2 -1.200000000000 48.020242614443 14.472810145234 5.784840576887
2216 2 -1.200000000000 49.594676798523 13.359517057139 3.856560384591
2217 2 -1.200000000000 48.020242614443 17.812689409519 3.856560384591
2218 2 -1.200000000000 49.594676798523 16.699396321424 1.928280192296
2219 2 -1.200000000000 49.594676798523 16.699396321424 5.784840576887
2220 2 -1.200000000000 51.169110982604 15.586103233329 3.856560384591
2221 1 2.400000000000 47.233025522403 13.359517057139 0.000000000000
2222 1 2.400000000000 50.381893890564 11.132930880950 0.000000000000
2223 1 2.400000000000 50.381893890564 14.472810145234 21.211082115253
2224 1 2.400000000000 50.381893890564 14.472810145234 1.928280192296
2225 2 -1.200000000000 49.594676798523 13.359517057139 0.000000000000
2226 2 -1.200000000000 51.169110982604 12.246223969045 21.211082115253
2227 2 -1.200000000000 51.169110982604 12.246223969045 1.928280192296
2228 2 -1.200000000000 52.743545166684 11.132930880950 0.000000000000
2229 2 -1.200000000000 51.169110982604 15.586103233329 0.000000000000
2230 2 -1.200000000000 52.743545166684 14.472810145234 21.211082115253
2231 2 -1.200000000000 52.743545166684 14.472810145234 1.928280192296
2232 2 -1.200000000000 54.317979350764 13.359517057139 0.000000000000
2233 1 2.400000000000 37.786420417923 20.039275585709 19.282801922957
2234 1 2.400000000000 40.935288786083 17.812689409519 19.282801922957
2235 1 2.400000000000 40.935288786083 21.152568673804 17.354521730661
2236 1 2.400000000000 40.935288786083 21.152568673804 21.211082115253
2237 2 -1.200000000000 40.148071694043 20.039275585709 19.282801922957
2238 2 -1.200000000000 41.722505878123 18.925982497614 17.354521730661
2239 2 -1.200000000000 41.722505878123 18.925982497614 21.211082115253
2240 2 -1.200000000000 43.296940062203 17.812689409519 19.282801922957
2241 2 -1.200000000000 41.722505878123 22.265861761899 19.282801922957
2242 2 -1.200000000000 43.296940062203 21.152568673804 17.354521730661
2243 2 -1.200000000000 43.296940062203 21.152568673804 21.211082115253
2244 2 -1.200000000000 44.871374246283 20.039275585709 19.282801922957
2245 1 2.400000000000 40.935288786083 17.812689409519 15.426241538366
2246 1 2.400000000000 44.084157154243 15.586103233329 15.426241538366
2247 1 2.400000000000 44.084157154243 18.925982497614 13.497961346070
2248 1 2.400000000000 44.084157154243 18.925982497614 17.354521730661
2249 2 -1.200000000000 43.296940062203 17.812689409519 15.426241538366
2250 2 -1.200000000000 44.871374246283 16.699396321424 13.497961346070
2251 2 -1.200000000000 44.871374246283 16.699396321424 17.354521730661
2252 2 -1.200000000000 46.445808430363 15.586103233329 15.426241538366
2253 2 -1.200000000000 44.871374246283 20.039275585709 15.426241538366
2254 2 -1.200000000000 46.445808430363 18.925982497614 13.497961346070
2255 2 -1.200000000000 46.445808430363 18.925982497614 17.354521730661
2256 2 -1.200000000000 48.020242614443 17.812689409519 15.426241538366
2257 1 2.400000000000 44.084157154243 15.586103233329 11.569681153774
2258 1 2.400000000000 47.233025522403 13.359517057139 11.569681153774
2259 1 2.400000000000 47.233025522403 16.699396321424 9.641400961479
2260 1 2.400000000000 47.233025522403 16.699396321424 13.497961346070
2261 2 -1.200000000000 46.445808430363 15.586103233329 11.569681153774
2262 2 -1.200000000000 48.020242614443 14.472810145234 9.641400961479
2263 2 -1.200000000000 48.020242614443 14.472810145234 13.497961346070
2264 2 -1.200000000000 49.594676798523 13.359517057139 11.569681153774
2265 2 -1.200000000000 48.020242614443 17.812689409519 11.569681153774
2266 2 -1.200000000000 49.594676798523 16.699396321424 9.641400961479
2267 2 -1.200000000000 49.594676798523 16.699396321424 13.497961346070
2268 2 -1.200000000000 51.169110982604 15.586103233329 11.569681153774
2269 1 2.400000000000 47.233025522403 13.359517057139 7.713120769183
2270 1 2.400000000000 50.381893890564 11.132930880950 7.713120769183
2271 1 2.400000000000 50.381893890564 14.472810145234 5.784840576887
2272 1 2.400000000000 50.381893890564 14.472810145234 9.641400961479
2273 2 -1.200000000000 49.594676798523 13.359517057139 7.713120769183
2274 2 -1.200000000000 51.169110982604 12.246223969045 5.784840576887
2275 2 -1.200000000000 51.169110982604 12.246223969045 9.641400961479
2276 2 -1.200000000000 52.743545166684 11.132930880950 7.713120769183
2277 2 -1.200000000000 51.169110982604 15.586103233329 7.713120769183
2278 2 -1.200000000000 52.743545166684 14.472810145234 5.784840576887
2279 2 -1.200000000000 52.743545166684 14.472810145234 9.641400961479
2280 2 -1.200000000000 54.317979350764 13.359517057139 7.713120769183
2281 1 2.400000000000 50.381893890564 11.132930880950 3.856560384591
2282 1 2.400000000000 53.530762258724 8.906344704760 3.856560384591
2283 1 2.400000000000 53.530762258724 12.246223969044 1.928280192296
2284 1 2.400000000000 53.530762258724 12.246223969044 5.784840576887
2285 2 -1.200000000000 52.743545166684 11.132930880950 3.856560384591
2286 2 -1.200000000000 54.317979350764 10.019637792855 1.928280192296
2287 2 -1.200000000000 54.317979350764 10.019637792855 5.784840576887
2288 2 -1.200000000000 55.892413534844 8.906344704760 3.856560384591
2289 2 -1.200000000000 54.317979350764 13.359517057139 3.856560384591
2290 2 -1.200000000000 55.892413534844 12.246223969044 1.928280192296
2291 2 -1.200000000000 55.892413534844 12.246223969044 5.784840576887
2292 2 -1.200000000000 57.466847718924 11.132930880950 3.856560384591
2293 1 2.400000000000 53.530762258724 8.906344704760 0.000000000000
2294 1 2.400000000000 56.679630626884 6.679758528570 0.000000000000
2295 1 2.400000000000 56.679630626884 10.019637792855 21.211082115253
2296 1 2.400000000000 56.679630626884 10.019637792855 1.928280192296
2297 2 -1.200000000000 55.892413534844 8.906344704760 0.000000000000
2298 2 -1.200000000000 57.466847718924 7.793051616665 21.211082115253
2299 2 -1.200000000000 57.466847718924 7.793051616665 1.928280192296
2300 2 -1.200000000000 59.041281903004 6.679758528570 0.000000000000
2301 2 -1.200000000000 57.466847718924 11.132930880950 0.000000000000
2302 2 -1.200000000000 59.041281903004 10.019637792855 21.211082115253
2303 2 -1.200000000000 59.041281903004 10.019637792855 1.928280192296
2304 2 -1.200000000000 60.615716087084 8.906344704760 0.000000000000
2305 1 2.400000000000 44.084157154243 15.586103233329 19.282801922957
2306 1 2.400000000000 47.233025522403 13.359517057139 19.282801922957
2307 1 2.400000000000 47.233025522403 16.699396321424 17.354521730661
2308 1 2.400000000000 47.233025522403 16.699396321424 21.211082115253
2309 2 -1.200000000000 46.445808430363 15.586103233329 19.282801922957
2310 2 -1.200000000000 48.020242614443 14.472810145234 17.354521730661
2311 2 -1.200000000000 48.020242614443 14.472810145234 21.211082115253
2312 2 -1.200000000000 49.594676798523 13.359517057139 19.282801922957
2313 2 -1.200000000000 48.020242614443 17.812689409519 19.282801922957
2314 2 -1.200000000000 49.594676798523 16.699396321424 17.354521730661
2315 2 -1.200000000000 49.594676798523 16.699396321424 21.211082115253
2316 2 -1.200000000000 51.169110982604 15.586103233329 19.282801922957
2317 1 2.400000000000 47.233025522403 13.359517057139 15.426241538366
2318 1 2.400000000000 50.381893890564 11.132930880950 15.426241538366
2319 1 2.400000000000 50.381893890564 14.472810145234 13.497961346070
2320 1 2.400000000000 50.381893890564 14.472810145234 17.354521730661
2321 2 -1.200000000000 49.594676798523 13.359517057139 15.426241538366
2322 2 -1.200000000000 51.169110982604 12.246223969045 13.497961346070
2323 2 -1.200000000000 51.169110982604 12.246223969045 17.354521730661
2324 2 -1.200000000000 52.743545166684 11.132930880950 15.426241538366
2325 2 -1.200000000000 51.169110982604 15.586103233329 15.426241538366
2326 2 -1.200000000000 52.743545166684 14.472810145234 13.497961346070
2327 2 -1.200000000000 52.743545166684 14.472810145234 17.354521730661
2328 2 -1.200000000000 54.317979350764 13.359517057139 15.426241538366
2329 1 2.400000000000 50.381893890564 11.132930880950 11.569681153774
2330 1 2.400000000000 53.530762258724 8.906344704760 11.569681153774
2331 1 2.400000000000 53.530762258724 12.246223969044 9.641400961479
2332 1 2.400000000000 53.530762258724 12.246223969044 13.497961346070
2333 2 -1.200000000000 52.743545166684 11.132930880950 11.569681153774
2334 2 -1.200000000000 54.317979350764 10.019637792855 9.641400961479
2335 2 -1.200000000000 54.317979350764 10.019637792855 13.497961346070
2336 2 -1.200000000000 55.892413534844 8.906344704760 11.569681153774
2337 2 -1.200000000000 54.317979350764 13.359517057139 11.569681153774
2338 2 -1.200000000000 55.892413534844 12.246223969045 9.641400961479
2339 2 -1.200000000000 55.892413534844 12.246223969044 13.497961346070
2340 2 -1.200000000000 57.466847718924 11.132930880950 11.569681153774
2341 1 2.400000000000 53.530762258724 8.906344704760 7.713120769183
2342 1 2.400000000000 56.679630626884 6.679758528570 7.713120769183
2343 1 2.400000000000 56.679630626884 10.019637792855 5.784840576887
2344 1 2.400000000000 56.679630626884 10.019637792855 9.641400961479
2345 2 -1.200000000000 55.892413534844 8.906344704760 7.713120769183
2346 2 -1.200000000000 57.466847718924 7.793051616665 5.784840576887
2347 2 -1.200000000000 57.466847718924 7.793051616665 9.641400961479
2348 2 -1.200000000000 59.041281903004 6.679758528570 7.713120769183
2349 2 -1.200000000000 57.466847718924 11.132930880950 7.713120769183
2350 2 -1.200000000000 59.041281903004 10.019637792855 5.784840576887
2351 2 -1.200000000000 59.041281903004 10.019637792855 9.641400961479
2352 2 -1.200000000000 60.615716087084 8.906344704760 7.713120769183
2353 1 2.400000000000 56.679630626884 6.679758528570 3.856560384591
2354 1 2.400000000000 59.828498995044 4.453172352380 3.856560384591
2355 1 2.400000000000 59.828498995044 7.793051616665 1.928280192296
2356 1 2.400000000000 59.828498995044 7.793051616665 5.784840576887
2357 2 -1.200000000000 59.041281903004 6.679758528570 3.856560384591
2358 2 -1.200000000000 60.615716087084 5.566465440475 1.928280192296
2359 2 -1.200000000000 60.615716087084 5.566465440475 5.784840576887
2360 2 -1.200000000000 62.190150271164 4.453172352380 3.856560384591
2361 2 -1.200000000000 60.615716087084 8.906344704760 3.856560384591
2362 2 -1.200000000000 62.190150271164 7.793051616665 1.928280192296
2363 2 -1.200000000000 62.190150271164 7.793051616665 5.784840576887
2364 2 -1.200000000000 63.764584455244 6.679758528570 3.856560384591
2365 1 2.400000000000 50.381893890564 11.132930880950 19.282801922957
2366 1 2.400000000000 53.530762258724 8.906344704760 19.282801922957
2367 1 2.400000000000 53.530762258724 12.246223969044 17.354521730661
2368 1 2.400000000000 53.530762258724 12.246223969044 21.211082115253
2369 2 -1.200000000000 52.743545166684 11.132930880950 19.282801922957
2370 2 -1.200000000000 54.317979350764 10.019637792855 17.354521730661
2371 2 -1.200000000000 54.317979350764 10.019637792855 21.211082115253
2372 2 -1.200000000000 55.892413534844 8.906344704760 19.282801922957
2373 2 -1.200000000000 54.317979350764 13.359517057139 19.282801922957
2374 2 -1.200000000000 55.892413534844 12.246223969044 17.354521730661
2375 2 -1.200000000000 55.892413534844 12.246223969044 21.211082115253
2376 2 -1.200000000000 57.466847718924 11.132930880950 19.282801922957
2377 1 2.400000000000 53.530762258724 8.906344704760 15.426241538366
2378 1 2.400000000000 56.679630626884 6.679758528570 15.426241538366
2379 1 2.400000000000 56.679630626884 10.019637792855 13.497961346070
2380 1 2.400000000000 56.679630626884 10.019637792855 17.354521730661
2381 2 -1.200000000000 55.892413534844 8.906344704760 15.426241538366
2382 2 -1.200000000000 57.466847718924 7.793051616665 13.497961346070
2383 2 -1.200000000000 57.466847718924 7.793051616665 17.354521730661
2384 2 -1.200000000000 59.041281903004 6.679758528570 15.426241538366
2385 2 -1.200000000000 57.466847718924 11.132930880950 15.426241538366
2386 2 -1.200000000000 59.041281903004 10.019637792855 13.497961346070
2387 2 -1.200000000000 59.041281903004 10.019637792855 17.354521730661
2388 2 -1.200000000000 60.615716087084 8.906344704760 15.426241538366
2389 1 2.400000000000 56.679630626884 6.679758528570 11.569681153774
2390 1 2.400000000000 59.828498995044 4.453172352380 11.569681153774
2391 1 2.400000000000 59.828498995044 7.793051616665 9.641400961479
2392 1 2.400000000000 59.828498995044 7.793051616665 13.497961346070
2393 2 -1.200000000000 59.041281903004 6.679758528570 11.569681153774
2394 2 -1.200000000000 60.615716087084 5.566465440475 9.641400961479
2395 2 -1.200000000000 60.615716087084 5.566465440475 13.497961346070
2396 2 -1.200000000000 62.190150271164 4.453172352380 11.569681153774
2397 2 -1.200000000000 60.615716087084 8.906344704760 11.569681153774
2398 2 -1.200000000000 62.190150271164 7.793051616665 9.641400961479
2399 2 -1.200000000000 62.190150271164 7.793051616665 13.497961346070
2400 2 -1.200000000000 63.764584455244 6.679758528570 11.569681153774
2401 1 2.400000000000 56.679630626884 6.679758528570 19.282801922957
2402 1 2.400000000000 59.828498995044 4.453172352380 19.282801922957
2403 1 2.400000000000 59.828498995044 7.793051616665 17.354521730661
2404 1 2.400000000000 59.828498995044 7.793051616665 21.211082115253
2405 2 -1.200000000000 59.041281903004 6.679758528570 19.282801922957
2406 2 -1.200000000000 60.615716087084 5.566465440475 17.354521730661
2407 2 -1.200000000000 60.615716087084 5.566465440475 21.211082115253
2408 2 -1.200000000000 62.190150271164 4.453172352380 19.282801922957
2409 2 -1.200000000000 60.615716087084 8.906344704760 19.282801922957
2410 2 -1.200000000000 62.190150271164 7.793051616665 17.354521730661
2411 2 -1.200000000000 62.190150271164 7.793051616665 21.211082115253
2412 2 -1.200000000000 63.764584455244 6.679758528570 19.282801922957
2413 1 2.400000000000 40.935288786083 24.492447938089 3.856560384591
2414 1 2.400000000000 44.084157154243 22.265861761899 3.856560384591
2415 1 2.400000000000 44.084157154243 25.605741026184 1.928280192296
2416 1 2.400000000000 44.084157154243 25.605741026184 5.784840576887
2417 2 -1.200000000000 43.296940062203 24.492447938089 3.856560384591
2418 2 -1.200000000000 44.871374246283 23.379154849994 1.928280192296
2419 2 -1.200000000000 44.871374246283 23.379154849994 5.784840576887
2420 2 -1.200000000000 46.445808430363 22.265861761899 3.856560384591
2421 2 -1.200000000000 44.871374246283 0.000000000000 3.856560384591
2422 2 -1.200000000000 46.445808430363 25.605741026184 1.928280192296
2423 2 -1.200000000000 46.445808430363 25.605741026184 5.784840576887
2424 2 -1.200000000000 48.020242614443 24.492447938089 3.856560384591
2425 1 2.400000000000 44.084157154243 22.265861761899 0.000000000000
2426 1 2.400000000000 47.233025522403 20.039275585709 0.000000000000
2427 1 2.400000000000 47.233025522403 23.379154849994 21.211082115253
2428 1 2.400000000000 47.233025522403 23.379154849994 1.928280192296
2429 2 -1.200000000000 46.445808430363 22.265861761899 0.000000000000
2430 2 -1.200000000000 48.020242614443 21.152568673804 21.211082115253
2431 2 -1.200000000000 48.020242614443 21.152568673804 1.928280192296
2432 2 -1.200000000000 49.594676798523 20.039275585709 0.000000000000
2433 2 -1.200000000000 48.020242614443 24.492447938089 0.000000000000
2434 2 -1.200000000000 49.594676798523 23.379154849994 21.211082115253
2435 2 -1.200000000000 49.594676798523 23.379154849994 1.928280192296
2436 2 -1.200000000000 51.169110982604 22.265861761899 0.000000000000
2437 1 2.400000000000 40.935288786083 24.492447938089 11.569681153774
2438 1 2.400000000000 44.084157154243 22.265861761899 11.569681153774
2439 1 2.400000000000 44.084157154243 25.605741026184 9.641400961479
2440 1 2.400000000000 44.084157154243 25.605741026184 13.497961346070
2441 2 -1.200000000000 43.296940062203 24.492447938089 11.569681153774
2442 2 -1.200000000000 44.871374246283 23.379154849994 9.641400961479
2443 2 -1.200000000000 44.871374246283 23.379154849994 13.497961346070
2444 2 -1.200000000000 46.445808430363 22.265861761899 11.569681153774
2445 2 -1.200000000000 44.871374246283 0.000000000000 11.569681153774
2446 2 -1.200000000000 46.445808430363 25.605741026184 9.641400961479
2447 2 -1.200000000000 46.445808430363 25.605741026184 13.497961346070
2448 2 -1.200000000000 48.020242614443 24.492447938089 11.569681153774
2449 1 2.400000000000 44.084157154243 22.265861761899 7.713120769183
2450 1 2.400000000000 47.233025522403 20.039275585709 7.713120769183
2451 1 2.400000000000 47.233025522403 23.379154849994 5.784840576887
2452 1 2.400000000000 47.233025522403 23.379154849994 9.641400961479
2453 2 -1.200000000000 46.445808430363 22.265861761899 7.713120769183
2454 2 -1.200000000000 48.020242614443 21.152568673804 5.784840576887
2455 2 -1.200000000000 48.020242614443 21.152568673804 9.641400961479
2456 2 -1.200000000000 49.594676798523 20.039275585709 7.713120769183
2457 2 -1.200000000000 48.020242614443 24.492447938089 7.713120769183
2458 2 -1.200000000000 49.594676798523 23.379154849994 5.784840576887
2459 2 -1.200000000000 49.594676798523 23.379154849994 9.641400961479
2460 2 -1.200000000000 51.169110982604 22.265861761899 7.713120769183
2461 1 2.400000000000 47.233025522403 20.039275585709 3.856560384591
2462 1 2.400000000000 50.381893890564 17.812689409519 3.856560384591
2463 1 2.400000000000 50.381893890564 21.152568673804 1.928280192296
2464 1 2.400000000000 50.381893890564 21.152568673804 5.784840576887
2465 2 -1.200000000000 49.594676798523 20.039275585709 3.856560384591
2466 2 -1.200000000000 51.169110982604 18.925982497614 1.928280192296
2467 2 -1.200000000000 51.169110982604 18.925982497614 5.784840576887
2468 2 -1.200000000000 52.743545166684 17.812689409519 3.856560384591
2469 2 -1.200000000000 51.169110982604 22.265861761899 3.856560384591
2470 2 -1.200000000000 52.743545166684 21.152568673804 1.928280192296
2471 2 -1.200000000000 52.743545166684 21.152568673804 5.784840576887
2472 2 -1.200000000000 54.317979350764 20.039275585709 3.856560384591
2473 1 2.400000000000 50.381893890564 17.812689409519 0.000000000000
2474 1 2.400000000000 53.530762258724 15.586103233329 0.000000000000
2475 1 2.400000000000 53.530762258724 18.925982497614 21.211082115253
2476 1 2.400000000000 53.530762258724 18.925982497614 1.928280192296
2477 2 -1.200000000000 52.743545166684 17.812689409519 0.000000000000
2478 2 -1.200000000000 54.317979350764 16.699396321424 21.211082115253
2479 2 -1.200000000000 54.317979350764 16.699396321424 1.928280192296
2480 2 -1.200000000000 55.892413534844 15.586103233329 0.000000000000
2481 2 -1.200000000000 54.317979350764 20.039275585709 0.000000000000
2482 2 -1.200000000000 55.892413534844 18.925982497614 21.211082115253
2483 2 -1.200000000000 55.892413534844 18.925982497614 1.928280192296
2484 2 -1.200000000000 57.466847718924 17.812689409519 0.000000000000
2485 1 2.400000000000 40.935288786083 24.492447938089 19.282801922957
2486 1 2.400000000000 44.084157154243 22.265861761899 19.282801922957
2487 1 2.400000000000 44.084157154243 25.605741026184 17.354521730661
2488 1 2.400000000000 44.084157154243 25.605741026184 21.211082115253
2489 2 -1.200000000000 43.296940062203 24.492447938089 19.282801922957
2490 2 -1.200000000000 44.871374246283 23.379154849994 17.354521730661
2491 2 -1.200000000000 44.871374246283 23.379154849994 21.211082115253
2492 2 -1.200000000000 46.445808430363 22.265861761899 19.282801922957
2493 2 -1.200000000000 44.871374246283 0.000000000000 19.282801922957
2494 2 -1.200000000000 46.445808430363 25.605741026184 17.354521730661
2495 2 -1.200000000000 46.445808430363 25.605741026184 21.211082115253
2496 2 -1.200000000000 48.020242614443 24.492447938089 19.282801922957
2497 1 2.400000000000 44.084157154243 22.265861761899 15.426241538366
2498 1 2.400000000000 47.233025522403 20.039275585709 15.426241538366
2499 1 2.400000000000 47.233025522403 23.379154849994 13.497961346070
2500 1 2.400000000000 47.233025522403 23.379154849994 17.354521730661
2501 2 -1.200000000000 46.445808430363 22.265861761899 15.426241538366
2502 2 -1.200000000000 48.020242614443 21.152568673804 13.497961346070
2503 2 -1.200000000000 48.020242614443 21.152568673804 17.354521730661
2504 2 -1.200000000000 49.594676798523 20.039275585709 15.426241538366
2505 2 -1.200000000000 48.020242614443 24.492447938089 15.426241538366
2506 2 -1.200000000000 49.594676798523 23.379154849994 13.497961346070
2507 2 -1.200000000000 49.594676798523 23.379154849994 17.354521730661
2508 2 -1.200000000000 51.169110982604 22.265861761899 15.426241538366
2509 1 2.400000000000 47.233025522403 20.039275585709 11.569681153774
2510 1 2.400000000000 50.381893890564 17.812689409519 11.569681153774
2511 1 2.400000000000 50.381893890564 21.152568673804 9.641400961479
2512 1 2.400000000000 50.381893890564 21.152568673804 13.497961346070
2513 2 -1.200000000000 49.594676798523 20.039275585709 11.569681153774
2514 2 -1.200000000000 51.169110982604 18.925982497614 9.641400961479
2515 2 -1.200000000000 51.169110982604 18.925982497614 13.497961346070
2516 2 -1.200000000000 52.743545166684 17.812689409519 11.569681153774
2517 2 -1.200000000000 51.169110982604 22.265861761899 11.569681153774
2518 2 -1.200000000000 52.743545166684 21.152568673804 9.641400961479
2519 2 -1.200000000000 52.743545166684 21.152568673804 13.497961346070
2520 2 -1.200000000000 54.317979350764 20.039275585709 11.569681153774
2521 1 2.400000000000 50.381893890564 17.812689409519 7.713120769183
2522 1 2.400000000000 53.530762258724 15.586103233329 7.713120769183
2523 1 2.400000000000 53.530762258724 18.925982497614 5.784840576887
2524 1 2.400000000000 53.530762258724 18.925982497614 9.641400961479
2525 2 -1.200000000000 52.743545166684 17.812689409519 7.713120769183
2526 2 -1.200000000000 54.317979350764 16.699396321424 5.784840576887
2527 2 -1.200000000000 54.317979350764 16.699396321424 9.641400961479
2528 2 -1.200000000000 55.892413534844 15.586103233329 7.713120769183
2529 2 -1.200000000000 54.317979350764 20.039275585709 7.713120769183
2530 2 -1.200000000000 55.892413534844 18.925982497614 5.784840576887
2531 2 -1.200000000000 55.892413534844 18.925982497614 9.641400961479
2532 2 -1.200000000000 57.466847718924 17.812689409519 7.713120769183
2533 1 2.400000000000 53.530762258724 15.586103233329 3.856560384591
2534 1 2.400000000000 56.679630626884 13.359517057139 3.856560384591
2535 1 2.400000000000 56.679630626884 16.699396321424 1.928280192296
2536 1 2.400000000000 56.679630626884 16.699396321424 5.784840576887
2537 2 -1.200000000000 55.892413534844 15.586103233329 3.856560384591
2538 2 -1.200000000000 57.466847718924 14.472810145234 1.928280192296
2539 2 -1.200000000000 57.466847718924 14.472810145234 5.784840576887
2540 2 -1.200000000000 59.041281903004 13.359517057139 3.856560384591
2541 2 -1.200000000000 57.466847718924 17.812689409519 3.856560384591
2542 2 -1.200000000000 59.041281903004 16.699396321424 1.928280192296
2543 2 -1.200000000000 59.041281903004 16.699396321424 5.784840576887
2544 2 -1.200000000000 60.615716087084 15.586103233329 3.856560384591
2545 1 2.400000000000 56.679630626884 13.359517057139 0.000000000000
2546 1 2.400000000000 59.828498995044 11.132930880950 0.000000000000
2547 1 2.400000000000 59.828498995044 14.472810145234 21.211082115253
2548 1 2.400000000000 59.828498995044 14.472810145234 1.928280192296
2549 2 -1.200000000000 59.041281903004 13.359517057139 0.000000000000
2550 2 -1.200000000000 60.615716087084 12.246223969045 21.211082115253
2551 2 -1.200000000000 60.615716087084 12.246223969045 1.928280192296
2552 2 -1.200000000000 62.190150271164 11.132930880950 0.000000000000
2553 2 -1.200000000000 60.615716087084 15.586103233329 0.000000000000
2554 2 -1.200000000000 62.190150271164 14.472810145234 21.211082115253
2555 2 -1.200000000000 62.190150271164 14.472810145234 1.928280192296
2556 2 -1.200000000000 63.764584455244 13.359517057139 0.000000000000
2557 1 2.400000000000 47.233025522403 20.039275585709 19.282801922957
2558 1 2.400000000000 50.381893890564 17.812689409519 19.282801922957
2559 1 2.400000000000 50.381893890564 21.152568673804 17.354521730661
2560 1 2.400000000000 50.381893890564 21.152568673804 21.211082115253
2561 2 -1.200000000000 49.594676798523 20.039275585709 19.282801922957
2562 2 -1.200000000000 51.169110982604 18.925982497614 17.354521730661
2563 2 -1.200000000000 51.169110982604 18.925982497614 21.211082115253
2564 2 -1.200000000000 52.743545166684 17.812689409519 19.282801922957
2565 2 -1.200000000000 51.169110982604 22.265861761899 19.282801922957
2566 2 -1.200000000000 52.743545166684 21.152568673804 17.354521730661
2567 2 -1.200000000000 52.743545166684 21.152568673804 21.211082115253
2568 2 -1.200000000000 54.317979350764 20.039275585709 19.282801922957
2569 1 2.400000000000 50.381893890564 17.812689409519 15.426241538366
2570 1 2.400000000000 53.530762258724 15.586103233329 15.426241538366
2571 1 2.400000000000 53.530762258724 18.925982497614 13.497961346070
2572 1 2.400000000000 53.530762258724 18.925982497614 17.354521730661
2573 2 -1.200000000000 52.743545166684 17.812689409519 15.426241538366
2574 2 -1.200000000000 54.317979350764 16.699396321424 13.497961346070
2575 2 -1.200000000000 54.317979350764 16.699396321424 17.354521730661
2576 2 -1.200000000000 55.892413534844 15.586103233329 15.426241538366
2577 2 -1.200000000000 54.317979350764 20.039275585709 15.426241538366
2578 2 -1.200000000000 55.892413534844 18.925982497614 13.497961346070
2579 2 -1.200000000000 55.892413534844 18.925982497614 17.354521730661
2580 2 -1.200000000000 57.466847718924 17.812689409519 15.426241538366
2581 1 2.400000000000 53.530762258724 15.586103233329 11.569681153774
2582 1 2.400000000000 56.679630626884 13.359517057139 11.569681153774
2583 1 2.400000000000 56.679630626884 16.699396321424 9.641400961479
2584 1 2.400000000000 56.679630626884 16.699396321424 13.497961346070
2585 2 -1.200000000000 55.892413534844 15.586103233329 11.569681153774
2586 2 -1.200000000000 57.466847718924 14.472810145234 9.641400961479
2587 2 -1.200000000000 57.466847718924 14.472810145234 13.497961346070
2588 2 -1.200000000000 59.041281903004 13.359517057139 11.569681153774
2589 2 -1.200000000000 57.466847718924 17.812689409519 11.569681153774
2590 2 -1.200000000000 59.041281903004 16.699396321424 9.641400961479
2591 2 -1.200000000000 59.041281903004 16.699396321424 13.497961346070
2592 2 -1.200000000000 60.615716087084 15.586103233329 11.569681153774
2593 1 2.400000000000 56.679630626884 13.359517057139 7.713120769183
2594 1 2.400000000000 59.828498995044 11.132930880950 7.713120769183
2595 1 2.400000000000 59.828498995044 14.472810145234 5.784840576887
2596 1 2.400000000000 59.828498995044 14.472810145234 9.641400961479
2597 2 -1.200000000000 59.041281903004 13.359517057139 7.713120769183
2598 2 -1.200000000000 60.615716087084 12.246223969045 5.784840576887
2599 2 -1.200000000000 60.615716087084 12.246223969045 9.641400961479
2600 2 -1.200000000000 62.190150271164 11.132930880950 7.713120769183
2601 2 -1.200000000000 60.615716087084 15.586103233329 7.713120769183
2602 2 -1.200000000000 62.190150271164 14.472810145234 5.784840576887
2603 2 -1.200000000000 62.190150271164 14.472810145234 9.641400961479
2604 2 -1.200000000000 63.764584455244 13.359517057139 7.713120769183
2605 1 2.400000000000 53.530762258724 15.586103233329 19.282801922957
2606 1 2.400000000000 56.679630626884 13.359517057139 19.282801922957
2607 1 2.400000000000 56.679630626884 16.699396321424 17.354521730661
2608 1 2.400000000000 56.679630626884 16.699396321424 21.211082115253
2609 2 -1.200000000000 55.892413534844 15.586103233329 19.282801922957
2610 2 -1.200000000000 57.466847718924 14.472810145234 17.354521730661
2611 2 -1.200000000000 57.466847718924 14.472810145234 21.211082115253
2612 2 -1.200000000000 59.041281903004 13.359517057139 19.282801922957
2613 2 -1.200000000000 57.466847718924 17.812689409519 19.282801922957
2614 2 -1.200000000000 59.041281903004 16.699396321424 17.354521730661
2615 2 -1.200000000000 59.041281903004 16.699396321424 21.211082115253
2616 2 -1.200000000000 60.615716087084 15.586103233329 19.282801922957
2617 1 2.400000000000 56.679630626884 13.359517057139 15.426241538366
2618 1 2.400000000000 59.828498995044 11.132930880950 15.426241538366
2619 1 2.400000000000 59.828498995044 14.472810145234 13.497961346070
2620 1 2.400000000000 59.828498995044 14.472810145234 17.354521730661
2621 2 -1.200000000000 59.041281903004 13.359517057139 15.426241538366
2622 2 -1.200000000000 60.615716087084 12.246223969045 13.497961346070
2623 2 -1.200000000000 60.615716087084 12.246223969045 17.354521730661
2624 2 -1.200000000000 62.190150271164 11.132930880950 15.426241538366
2625 2 -1.200000000000 60.615716087084 15.586103233329 15.426241538366
2626 2 -1.200000000000 62.190150271164 14.472810145234 13.497961346070
2627 2 -1.200000000000 62.190150271164 14.472810145234 17.354521730661
2628 2 -1.200000000000 63.764584455244 13.359517057139 15.426241538366
2629 1 2.400000000000 50.381893890564 24.492447938089 3.856560384591
2630 1 2.400000000000 53.530762258724 22.265861761899 3.856560384591
2631 1 2.400000000000 53.530762258724 25.605741026184 1.928280192296
2632 1 2.400000000000 53.530762258724 25.605741026184 5.784840576887
2633 2 -1.200000000000 52.743545166684 24.492447938089 3.856560384591
2634 2 -1.200000000000 54.317979350764 23.379154849994 1.928280192296
2635 2 -1.200000000000 54.317979350764 23.379154849994 5.784840576887
2636 2 -1.200000000000 55.892413534844 22.265861761899 3.856560384591
2637 2 -1.200000000000 54.317979350764 0.000000000000 3.856560384591
2638 2 -1.200000000000 55.892413534844 25.605741026184 1.928280192296
2639 2 -1.200000000000 55.892413534844 25.605741026184 5.784840576887
2640 2 -1.200000000000 57.466847718924 24.492447938089 3.856560384591
2641 1 2.400000000000 53.530762258724 22.265861761899 0.000000000000
2642 1 2.400000000000 56.679630626884 20.039275585709 0.000000000000
2643 1 2.400000000000 56.679630626884 23.379154849994 21.211082115253
2644 1 2.400000000000 56.679630626884 23.379154849994 1.928280192296
2645 2 -1.200000000000 55.892413534844 22.265861761899 0.000000000000
2646 2 -1.200000000000 57.466847718924 21.152568673804 21.211082115253
2647 2 -1.200000000000 57.466847718924 21.152568673804 1.928280192296
2648 2 -1.200000000000 59.041281903004 20.039275585709 0.000000000000
2649 2 -1.200000000000 57.466847718924 24.492447938089 0.000000000000
2650 2 -1.200000000000 59.041281903004 23.379154849994 21.211082115253
2651 2 -1.200000000000 59.041281903004 23.379154849994 1.928280192296
2652 2 -1.200000000000 60.615716087084 22.265861761899 0.000000000000
2653 1 2.400000000000 50.381893890564 24.492447938089 11.569681153774
2654 1 2.400000000000 53.530762258724 22.265861761899 11.569681153774
2655 1 2.400000000000 53.530762258724 25.605741026184 9.641400961479
2656 1 2.400000000000 53.530762258724 25.605741026184 13.497961346070
2657 2 -1.200000000000 52.743545166684 24.492447938089 11.569681153774
2658 2 -1.200000000000 54.317979350764 23.379154849994 9.641400961479
2659 2 -1.200000000000 54.317979350764 23.379154849994 13.497961346070
2660 2 -1.200000000000 55.892413534844 22.265861761899 11.569681153774
2661 2 -1.200000000000 54.317979350764 0.000000000000 11.569681153774
2662 2 -1.200000000000 55.892413534844 25.605741026184 9.641400961479
2663 2 -1.200000000000 55.892413534844 25.605741026184 13.497961346070
2664 2 -1.200000000000 57.466847718924 24.492447938089 11.569681153774
2665 1 2.400000000000 53.530762258724 22.265861761899 7.713120769183
2666 1 2.400000000000 56.679630626884 20.039275585709 7.713120769183
2667 1 2.400000000000 56.679630626884 23.379154849994 5.784840576887
2668 1 2.400000000000 56.679630626884 23.379154849994 9.641400961479
2669 2 -1.200000000000 55.892413534844 22.265861761899 7.713120769183
2670 2 -1.200000000000 57.466847718924 21.152568673804 5.784840576887
2671 2 -1.200000000000 57.466847718924 21.152568673804 9.641400961479
2672 2 -1.200000000000 59.041281903004 20.039275585709 7.713120769183
2673 2 -1.200000000000 57.466847718924 24.492447938089 7.713120769183
2674 2 -1.200000000000 59.041281903004 23.379154849994 5.784840576887
2675 2 -1.200000000000 59.041281903004 23.379154849994 9.641400961479
2676 2 -1.200000000000 60.615716087084 22.265861761899 7.713120769183
2677 1 2.400000000000 56.679630626884 20.039275585709 3.856560384591
2678 1 2.400000000000 59.828498995044 17.812689409519 3.856560384591
2679 1 2.400000000000 59.828498995044 21.152568673804 1.928280192296
2680 1 2.400000000000 59.828498995044 21.152568673804 5.784840576887
2681 2 -1.200000000000 59.041281903004 20.039275585709 3.856560384591
2682 2 -1.200000000000 60.615716087084 18.925982497614 1.928280192296
2683 2 -1.200000000000 60.615716087084 18.925982497614 5.784840576887
2684 2 -1.200000000000 62.190150271164 17.812689409519 3.856560384591
2685 2 -1.200000000000 60.615716087084 22.265861761899 3.856560384591
2686 2 -1.200000000000 62.190150271164 21.152568673804 1.928280192296
2687 2 -1.200000000000 62.190150271164 21.152568673804 5.784840576887
2688 2 -1.200000000000 63.764584455244 20.039275585709 3.856560384591
2689 1 2.400000000000 50.381893890564 24.492447938089 19.282801922957
2690 1 2.400000000000 53.530762258724 22.265861761899 19.282801922957
2691 1 2.400000000000 53.530762258724 25.605741026184 17.354521730661
2692 1 2.400000000000 53.530762258724 25.605741026184 21.211082115253
2693 2 -1.200000000000 52.743545166684 24.492447938089 19.282801922957
2694 2 -1.200000000000 54.317979350764 23.379154849994 17.354521730661
2695 2 -1.200000000000 54.317979350764 23.379154849994 21.211082115253
2696 2 -1.200000000000 55.892413534844 22.265861761899 19.282801922957
2697 2 -1.200000000000 54.317979350764 0.000000000000 19.282801922957
2698 2 -1.200000000000 55.892413534844 25.605741026184 17.354521730661
2699 2 -1.200000000000 55.892413534844 25.605741026184 21.211082115253
2700 2 -1.200000000000 57.466847718924 24.492447938089 19.282801922957
2701 1 2.400000000000 53.530762258724 22.265861761899 15.426241538366
2702 1 2.400000000000 56.679630626884 20.039275585709 15.426241538366
2703 1 2.400000000000 56.679630626884 23.379154849994 13.497961346070
2704 1 2.400000000000 56.679630626884 23.379154849994 17.354521730661
2705 2 -1.200000000000 55.892413534844 22.265861761899 15.426241538366
2706 2 -1.200000000000 57.466847718924 21.152568673804 13.497961346070
2707 2 -1.200000000000 57.466847718924 21.152568673804 17.354521730661
2708 2 -1.200000000000 59.041281903004 20.039275585709 15.426241538366
2709 2 -1.200000000000 57.466847718924 24.492447938089 15.426241538366
2710 2 -1.200000000000 59.041281903004 23.379154849994 13.497961346070
2711 2 -1.200000000000 59.041281903004 23.379154849994 17.354521730661
2712 2 -1.200000000000 60.615716087084 22.265861761899 15.426241538366
2713 1 2.400000000000 56.679630626884 20.039275585709 11.569681153774
2714 1 2.400000000000 59.828498995044 17.812689409519 11.569681153774
2715 1 2.400000000000 59.828498995044 21.152568673804 9.641400961479
2716 1 2.400000000000 59.828498995044 21.152568673804 13.497961346070
2717 2 -1.200000000000 59.041281903004 20.039275585709 11.569681153774
2718 2 -1.200000000000 60.615716087084 18.925982497614 9.641400961479
2719 2 -1.200000000000 60.615716087084 18.925982497614 13.497961346070
2720 2 -1.200000000000 62.190150271164 17.812689409519 11.569681153774
2721 2 -1.200000000000 60.615716087084 22.265861761899 11.569681153774
2722 2 -1.200000000000 62.190150271164 21.152568673804 9.641400961479
2723 2 -1.200000000000 62.190150271164 21.152568673804 13.497961346070
2724 2 -1.200000000000 63.764584455244 20.039275585709 11.569681153774
2725 1 2.400000000000 56.679630626884 20.039275585709 19.282801922957
2726 1 2.400000000000 59.828498995044 17.812689409519 19.282801922957
2727 1 2.400000000000 59.828498995044 21.152568673804 17.354521730661
2728 1 2.400000000000 59.828498995044 21.152568673804 21.211082115253
2729 2 -1.200000000000 59.041281903004 20.039275585709 19.282801922957
2730 2 -1.200000000000 60.615716087084 18.925982497614 17.354521730661
2731 2 -1.200000000000 60.615716087084 18.925982497614 21.211082115253
2732 2 -1.200000000000 62.190150271164 17.812689409519 19.282801922957
2733 2 -1.200000000000 60.615716087084 22.265861761899 19.282801922957
2734 2 -1.200000000000 62.190150271164 21.152568673804 17.354521730661
2735 2 -1.200000000000 62.190150271164 21.152568673804 21.211082115253
2736 2 -1.200000000000 63.764584455244 20.039275585709 19.282801922957
2737 1 2.400000000000 66.126235731365 0.000000000000 0.000000000000
2738 1 2.400000000000 69.275104099525 25.605741026184 21.211082115253
2739 1 2.400000000000 69.275104099525 2.226586176190 0.000000000000
2740 1 2.400000000000 69.275104099525 25.605741026184 1.928280192296
2741 2 -1.200000000000 68.487887007485 0.000000000000 0.000000000000
2742 2 -1.200000000000 70.062321191565 1.113293088095 21.211082115253
2743 2 -1.200000000000 70.062321191565 24.492447938089 0.000000000000
2744 2 -1.200000000000 71.636755375645 25.605741026184 21.211082115253
2745 2 -1.200000000000 70.062321191565 1.113293088095 1.928280192296
2746 2 -1.200000000000 71.636755375645 2.226586176190 0.000000000000
2747 2 -1.200000000000 71.636755375645 25.605741026184 1.928280192296
2748 2 -1.200000000000 73.211189559725 0.000000000000 0.000000000000
2749 1 2.400000000000 66.126235731365 13.359517057139 0.000000000000
2750 1 2.400000000000 69.275104099525 12.246223969045 21.211082115253
2751 1 2.400000000000 69.275104099525 15.586103233329 0.000000000000
2752 1 2.400000000000 69.275104099525 12.246223969045 1.928280192296
2753 2 -1.200000000000 68.487887007485 13.359517057139 0.000000000000
2754 2 -1.200000000000 70.062321191565 14.472810145234 21.211082115253
2755 2 -1.200000000000 70.062321191565 11.132930880950 0.000000000000
2756 2 -1.200000000000 71.636755375645 12.246223969045 21.211082115253
2757 2 -1.200000000000 70.062321191565 14.472810145234 1.928280192296
2758 2 -1.200000000000 71.636755375645 15.586103233329 0.000000000000
2759 2 -1.200000000000 71.636755375645 12.246223969045 1.928280192296
2760 2 -1.200000000000 73.211189559725 13.359517057139 0.000000000000
2761 1 2.400000000000 66.126235731365 6.679758528570 3.856560384591
2762 1 2.400000000000 69.275104099525 5.566465440475 1.928280192296
2763 1 2.400000000000 69.275104099525 8.906344704760 3.856560384591
2764 1 2.400000000000 69.275104099525 5.566465440475 5.784840576887
2765 2 -1.200000000000 68.487887007485 6.679758528570 3.856560384591
2766 2 -1.200000000000 70.062321191565 7.793051616665 1.928280192296
2767 2 -1.200000000000 70.062321191565 4.453172352380 3.856560384591
2768 2 -1.200000000000 71.636755375645 5.566465440475 1.928280192296
2769 2 -1.200000000000 70.062321191565 7.793051616665 5.784840576887
2770 2 -1.200000000000 71.636755375645 8.906344704760 3.856560384591
2771 2 -1.200000000000 71.636755375645 5.566465440475 5.784840576887
2772 2 -1.200000000000 73.211189559725 6.679758528570 3.856560384591
2773 1 2.400000000000 69.275104099525 8.906344704760 0.000000000000
2774 1 2.400000000000 72.423972467685 7.793051616665 21.211082115253
2775 1 2.400000000000 72.423972467685 11.132930880950 0.000000000000
2776 1 2.400000000000 72.423972467685 7.793051616665 1.928280192296
2777 2 -1.200000000000 71.636755375645 8.906344704760 0.000000000000
2778 2 -1.200000000000 73.211189559725 10.019637792855 21.211082115253
2779 2 -1.200000000000 73.211189559725 6.679758528570 0.000000000000
2780 2 -1.200000000000 74.785623743805 7.793051616665 21.211082115253
2781 2 -1.200000000000 73.211189559725 10.019637792855 1.928280192296
2782 2 -1.200000000000 74.785623743805 11.132930880950 0.000000000000
2783 2 -1.200000000000 74.785623743805 7.793051616665 1.928280192296
2784 2 -1.200000000000 76.360057927885 8.906344704760 0.000000000000
2785 1 2.400000000000 66.126235731365 0.000000000000 7.713120769183
2786 1 2.400000000000 69.275104099525 25.605741026184 5.784840576887
2787 1 2.400000000000 69.275104099525 2.226586176190 7.713120769183
2788 1 2.400000000000 69.275104099525 25.605741026184 9.641400961479
2789 2 -1.200000000000 68.487887007485 0.000000000000 7.713120769183
2790 2 -1.200000000000 70.062321191565 1.113293088095 5.784840576887
2791 2 -1.200000000000 70.062321191565 24.492447938089 7.713120769183
2792 2 -1.200000000000 71.636755375645 25.605741026184 5.784840576887
2793 2 -1.200000000000 70.062321191565 1.113293088095 9.641400961479
2794 2 -1.200000000000 71.636755375645 2.226586176190 7.713120769183
2795 2 -1.200000000000 71.636755375645 25.605741026184 9.641400961479
2796 2 -1.200000000000 73.211189559725 0.000000000000 7.713120769183
2797 1 2.400000000000 69.275104099525 2.226586176190 3.856560384591
2798 1 2.400000000000 72.423972467685 1.113293088095 1.928280192296
2799 1 2.400000000000 72.423972467685 4.453172352380 3.856560384591
2800 1 2.400000000000 72.423972467685 1.113293088095 5.784840576887
2801 2 -1.200000000000 71.636755375645 2.226586176190 3.856560384591
2802 2 -1.200000000000 73.211189559725 3.339879264285 1.928280192296
2803 2 -1.200000000000 73.211189559725 0.000000000000 3.856560384591
2804 2 -1.200000000000 74.785623743805 1.113293088095 1.928280192296
2805 2 -1.200000000000 73.211189559725 3.339879264285 5.784840576887
2806 2 -1.200000000000 74.785623743805 4.453172352380 3.856560384591
2807 2 -1.200000000000 74.785623743805 1.113293088095 5.784840576887
2808 2 -1.200000000000 76.360057927885 2.226586176190 3.856560384591
2809 1 2.400000000000 72.423972467685 4.453172352380 0.000000000000
2810 1 2.400000000000 75.572840835845 3.339879264285 21.211082115253
2811 1 2.400000000000 75.572840835845 6.679758528570 0.000000000000
2812 1 2.400000000000 75.572840835845 3.339879264285 1.928280192296
2813 2 -1.200000000000 74.785623743805 4.453172352380 0.000000000000
2814 2 -1.200000000000 76.360057927885 5.566465440475 21.211082115253
2815 2 -1.200000000000 76.360057927885 2.226586176190 0.000000000000
2816 2 -1.200000000000 77.934492111965 3.339879264285 21.211082115253
2817 2 -1.200000000000 76.360057927885 5.566465440475 1.928280192296
2818 2 -1.200000000000 77.934492111965 6.679758528570 0.000000000000
2819 2 -1.200000000000 77.934492111965 3.339879264285 1.928280192296
2820 2 -1.200000000000 79.508926296046 4.453172352380 0.000000000000
2821 1 2.400000000000 75.572840835845 0.000000000000 0.000000000000
2822 1 2.400000000000 78.721709204005 25.605741026184 21.211082115253
2823 1 2.400000000000 78.721709204005 2.226586176190 0.000000000000
2824 1 2.400000000000 78.721709204005 25.605741026184 1.928280192296
2825 2 -1.200000000000 77.934492111965 0.000000000000 0.000000000000
2826 2 -1.200000000000 79.508926296046 1.113293088095 21.211082115253
2827 2 -1.200000000000 79.508926296046 24.492447938089 0.000000000000
2828 2 -1.200000000000 81.083360480126 25.605741026184 21.211082115253
2829 2 -1.200000000000 79.508926296046 1.113293088095 1.928280192296
2830 2 -1.200000000000 81.083360480126 2.226586176190 0.000000000000
2831 2 -1.200000000000 81.083360480126 25.605741026184 1.928280192296
2832 2 -1.200000000000 82.657794664206 0.000000000000 0.000000000000
2833 1 2.400000000000 66.126235731365 20.039275585709 3.856560384591
2834 1 2.400000000000 69.275104099525 18.925982497614 1.928280192296
2835 1 2.400000000000 69.275104099525 22.265861761899 3.856560384591
2836 1 2.400000000000 69.275104099525 18.925982497614 5.784840576887
2837 2 -1.200000000000 68.487887007485 20.039275585709 3.856560384591
2838 2 -1.200000000000 70.062321191565 21.152568673804 1.928280192296
2839 2 -1.200000000000 70.062321191565 17.812689409519 3.856560384591
2840 2 -1.200000000000 71.636755375645 18.925982497614 1.928280192296
2841 2 -1.200000000000 70.062321191565 21.152568673804 5.784840576887
2842 2 -1.200000000000 71.636755375645 22.265861761899 3.856560384591
2843 2 -1.200000000000 71.636755375645 18.925982497614 5.784840576887
2844 2 -1.200000000000 73.211189559725 20.039275585709 3.856560384591
2845 1 2.400000000000 69.275104099525 22.265861761899 0.000000000000
2846 1 2.400000000000 72.423972467685 21.152568673804 21.211082115253
2847 1 2.400000000000 72.423972467685 24.492447938089 0.000000000000
2848 1 2.400000000000 72.423972467685 21.152568673804 1.928280192296
2849 2 -1.200000000000 71.636755375645 22.265861761899 0.000000000000
2850 2 -1.200000000000 73.211189559725 23.379154849994 21.211082115253
2851 2 -1.200000000000 73.211189559725 20.039275585709 0.000000000000
2852 2 -1.200000000000 74.785623743805 21.152568673804 21.211082115253
2853 2 -1.200000000000 73.211189559725 23.379154849994 1.928280192296
2854 2 -1.200000000000 74.785623743805 24.492447938089 0.000000000000
2855 2 -1.200000000000 74.785623743805 21.152568673804 1.928280192296
2856 2 -1.200000000000 76.360057927885 22.265861761899 0.000000000000
2857 1 2.400000000000 66.126235731365 13.359517057139 7.713120769183
2858 1 2.400000000000 69.275104099525 12.246223969044 5.784840576887
2859 1 2.400000000000 69.275104099525 15.586103233329 7.713120769183
2860 1 2.400000000000 69.275104099525 12.246223969045 9.641400961479
2861 2 -1.200000000000 68.487887007485 13.359517057139 7.713120769183
2862 2 -1.200000000000 70.062321191565 14.472810145234 5.784840576887
2863 2 -1.200000000000 70.062321191565 11.132930880950 7.713120769183
2864 2 -1.200000000000 71.636755375645 12.246223969045 5.784840576887
2865 2 -1.200000000000 70.062321191565 14.472810145234 9.641400961479
2866 2 -1.200000000000 71.636755375645 15.586103233329 7.713120769183
2867 2 -1.200000000000 71.636755375645 12.246223969045 9.641400961479
2868 2 -1.200000000000 73.211189559725 13.359517057139 7.713120769183
2869 1 2.400000000000 69.275104099525 15.586103233329 3.856560384591
2870 1 2.400000000000 72.423972467685 14.472810145234 1.928280192296
2871 1 2.400000000000 72.423972467685 17.812689409519 3.856560384591
2872 1 2.400000000000 72.423972467685 14.472810145234 5.784840576887
2873 2 -1.200000000000 71.636755375645 15.586103233329 3.856560384591
2874 2 -1.200000000000 73.211189559725 16.699396321424 1.928280192296
2875 2 -1.200000000000 73.211189559725 13.359517057139 3.856560384591
2876 2 -1.200000000000 74.785623743805 14.472810145234 1.928280192296
2877 2 -1.200000000000 73.211189559725 16.699396321424 5.784840576887
2878 2 -1.200000000000 74.785623743805 17.812689409519 3.856560384591
2879 2 -1.200000000000 74.785623743805 14.472810145234 5.784840576887
2880 2 -1.200000000000 76.360057927885 15.586103233329 3.856560384591
2881 1 2.400000000000 72.423972467685 17.812689409519 0.000000000000
2882 1 2.400000000000 75.572840835845 16.699396321424 21.211082115253
2883 1 2.400000000000 75.572840835845 20.039275585709 0.000000000000
2884 1 2.400000000000 75.572840835845 16.699396321424 1.928280192296
2885 2 -1.200000000000 74.785623743805 17.812689409519 0.000000000000
2886 2 -1.200000000000 76.360057927885 18.925982497614 21.211082115253
2887 2 -1.200000000000 76.360057927885 15.586103233329 0.000000000000
2888 2 -1.200000000000 77.934492111965 16.699396321424 21.211082115253
2889 2 -1.200000000000 76.360057927885 18.925982497614 1.928280192296
2890 2 -1.200000000000 77.934492111965 20.039275585709 0.000000000000
2891 2 -1.200000000000 77.934492111965 16.699396321424 1.928280192296
2892 2 -1.200000000000 79.508926296046 17.812689409519 0.000000000000
2893 1 2.400000000000 66.126235731365 6.679758528570 11.569681153774
2894 1 2.400000000000 69.275104099525 5.566465440475 9.641400961479
2895 1 2.400000000000 69.275104099525 8.906344704760 11.569681153774
2896 1 2.400000000000 69.275104099525 5.566465440475 13.497961346070
2897 2 -1.200000000000 68.487887007485 6.679758528570 11.569681153774
2898 2 -1.200000000000 70.062321191565 7.793051616665 9.641400961479
2899 2 -1.200000000000 70.062321191565 4.453172352380 11.569681153774
2900 2 -1.200000000000 71.636755375645 5.566465440475 9.641400961479
2901 2 -1.200000000000 70.062321191565 7.793051616665 13.497961346070
2902 2 -1.200000000000 71.636755375645 8.906344704760 11.569681153774
2903 2 -1.200000000000 71.636755375645 5.566465440475 13.497961346070
2904 2 -1.200000000000 73.211189559725 6.679758528570 11.569681153774
2905 1 2.400000000000 69.275104099525 8.906344704760 7.713120769183
2906 1 2.400000000000 72.423972467685 7.793051616665 5.784840576887
2907 1 2.400000000000 72.423972467685 11.132930880950 7.713120769183
2908 1 2.400000000000 72.423972467685 7.793051616665 9.641400961479
2909 2 -1.200000000000 71.636755375645 8.906344704760 7.713120769183
2910 2 -1.200000000000 73.211189559725 10.019637792855 5.784840576887
2911 2 -1.200000000000 73.211189559725 6.679758528570 7.713120769183
2912 2 -1.200000000000 74.785623743805 7.793051616665 5.784840576887
2913 2 -1.200000000000 73.211189559725 10.019637792855 9.641400961479
2914 2 -1.200000000000 74.785623743805 11.132930880950 7.713120769183
2915 2 -1.200000000000 74.785623743805 7.793051616665 9.641400961479
2916 2 -1.200000000000 76.360057927885 8.906344704760 7.713120769183
2917 1 2.400000000000 72.423972467685 11.132930880950 3.856560384591
2918 1 2.400000000000 75.572840835845 10.019637792855 1.928280192296
2919 1 2.400000000000 75.572840835845 13.359517057139 3.856560384591
2920 1 2.400000000000 75.572840835845 10.019637792855 5.784840576887
2921 2 -1.200000000000 74.785623743805 11.132930880950 3.856560384591
2922 2 -1.200000000000 76.360057927885 12.246223969044 1.928280192296
2923 2 -1.200000000000 76.360057927885 8.906344704760 3.856560384591
2924 2 -1.200000000000 77.934492111965 10.019637792855 1.928280192296
2925 2 -1.200000000000 76.360057927885 12.246223969045 5.784840576887
2926 2 -1.200000000000 77.934492111965 13.359517057139 3.856560384591
2927 2 -1.200000000000 77.934492111965 10.019637792855 5.784840576887
2928 2 -1.200000000000 79.508926296046 11.132930880950 3.856560384591
2929 1 2.400000000000 75.572840835845 13.359517057139 0.000000000000
2930 1 2.400000000000 78.721709204005 12.246223969045 21.211082115253
2931 1 2.400000000000 78.721709204005 15.586103233329 0.000000000000
2932 1 2.400000000000 78.721709204005 12.246223969045 1.928280192296
2933 2 -1.200000000000 77.934492111965 13.359517057139 0.000000000000
2934 2 -1.200000000000 79.508926296046 14.472810145234 21.211082115253
2935 2 -1.200000000000 79.508926296046 11.132930880950 0.000000000000
2936 2 -1.200000000000 81.083360480126 12.246223969045 21.211082115253
2937 2 -1.200000000000 79.508926296046 14.472810145234 1.928280192296
2938 2 -1.200000000000 81.083360480126 15.586103233329 0.000000000000
2939 2 -1.200000000000 81.083360480126 12.246223969045 1.928280192296
2940 2 -1.200000000000 82.657794664206 13.359517057139 0.000000000000
2941 1 2.400000000000 66.126235731365 0.000000000000 15.426241538366
2942 1 2.400000000000 69.275104099525 25.605741026184 13.497961346070
2943 1 2.400000000000 69.275104099525 2.226586176190 15.426241538366
2944 1 2.400000000000 69.275104099525 25.605741026184 17.354521730661
2945 2 -1.200000000000 68.487887007485 0.000000000000 15.426241538366
2946 2 -1.200000000000 70.062321191565 1.113293088095 13.497961346070
2947 2 -1.200000000000 70.062321191565 24.492447938089 15.426241538366
2948 2 -1.200000000000 71.636755375645 25.605741026184 13.497961346070
2949 2 -1.200000000000 70.062321191565 1.113293088095 17.354521730661
2950 2 -1.200000000000 71.636755375645 2.226586176190 15.426241538366
2951 2 -1.200000000000 71.636755375645 25.605741026184 17.354521730661
2952 2 -1.200000000000 73.211189559725 0.000000000000 15.426241538366
2953 1 2.400000000000 69.275104099525 2.226586176190 11.569681153774
2954 1 2.400000000000 72.423972467685 1.113293088095 9.641400961479
2955 1 2.400000000000 72.423972467685 4.453172352380 11.569681153774
2956 1 2.400000000000 72.423972467685 1.113293088095 13.497961346070
2957 2 -1.200000000000 71.636755375645 2.226586176190 11.569681153774
2958 2 -1.200000000000 73.211189559725 3.339879264285 9.641400961479
2959 2 -1.200000000000 73.211189559725 0.000000000000 11.569681153774
2960 2 -1.200000000000 74.785623743805 1.113293088095 9.641400961479
2961 2 -1.200000000000 73.211189559725 3.339879264285 13.497961346070
2962 2 -1.200000000000 74.785623743805 4.453172352380 11.569681153774
2963 2 -1.200000000000 74.785623743805 1.113293088095 13.497961346070
2964 2 -1.200000000000 76.360057927885 2.226586176190 11.569681153774
2965 1 2.400000000000 72.423972467685 4.453172352380 7.713120769183
2966 1 2.400000000000 75.572840835845 3.339879264285 5.784840576887
2967 1 2.400000000000 75.572840835845 6.679758528570 7.713120769183
2968 1 2.400000000000 75.572840835845 3.339879264285 9.641400961479
2969 2 -1.200000000000 74.785623743805 4.453172352380 7.713120769183
2970 2 -1.200000000000 76.360057927885 5.566465440475 5.784840576887
2971 2 -1.200000000000 76.360057927885 2.226586176190 7.713120769183
2972 2 -1.200000000000 77.934492111965 3.339879264285 5.784840576887
2973 2 -1.200000000000 76.360057927885 5.566465440475 9.641400961479
2974 2 -1.200000000000 77.934492111965 6.679758528570 7.713120769183
2975 2 -1.200000000000 77.934492111965 3.339879264285 9.641400961479
2976 2 -1.200000000000 79.508926296046 4.453172352380 7.713120769183
2977 1 2.400000000000 75.572840835845 6.679758528570 3.856560384591
2978 1 2.400000000000 78.721709204005 5.566465440475 1.928280192296
2979 1 2.400000000000 78.721709204005 8.906344704760 3.856560384591
2980 1 2.400000000000 78.721709204005 5.566465440475 5.784840576887
2981 2 -1.200000000000 77.934492111965 6.679758528570 3.856560384591
2982 2 -1.200000000000 79.508926296046 7.793051616665 1.928280192296
2983 2 -1.200000000000 79.508926296046 4.453172352380 3.856560384591
2984 2 -1.200000000000 81.083360480126 5.566465440475 1.928280192296
2985 2 -1.200000000000 79.508926296046 7.793051616665 5.784840576887
2986 2 -1.200000000000 81.083360480126 8.906344704760 3.856560384591
2987 2 -1.200000000000 81.083360480126 5.566465440475 5.784840576887
2988 2 -1.200000000000 82.657794664206 6.679758528570 3.856560384591
2989 1 2.400000000000 78.721709204005 8.906344704760 0.000000000000
2990 1 2.400000000000 81.870577572166 7.793051616665 21.211082115253
2991 1 2.400000000000 81.870577572166 11.132930880950 0.000000000000
2992 1 2.400000000000 81.870577572166 7.793051616665 1.928280192296
2993 2 -1.200000000000 81.083360480126 8.906344704760 0.000000000000
2994 2 -1.200000000000 82.657794664206 10.019637792855 21.211082115253
2995 2 -1.200000000000 82.657794664206 6.679758528570 0.000000000000
2996 2 -1.200000000000 84.232228848286 7.793051616665 21.211082115253
2997 2 -1.200000000000 82.657794664206 10.019637792855 1.928280192296
2998 2 -1.200000000000 84.232228848286 11.132930880950 0.000000000000
2999 2 -1.200000000000 84.232228848286 7.793051616665 1.928280192296
3000 2 -1.200000000000 85.806663032366 8.906344704760 0.000000000000
3001 1 2.400000000000 75.572840835845 0.000000000000 7.713120769183
3002 1 2.400000000000 78.721709204005 25.605741026184 5.784840576887
3003 1 2.400000000000 78.721709204005 2.226586176190 7.713120769183
3004 1 2.400000000000 78.721709204005 25.605741026184 9.641400961479
3005 2 -1.200000000000 77.934492111965 0.000000000000 7.713120769183
3006 2 -1.200000000000 79.508926296046 1.113293088095 5.784840576887
3007 2 -1.200000000000 79.508926296046 24.492447938089 7.713120769183
3008 2 -1.200000000000 81.083360480126 25.605741026184 5.784840576887
3009 2 -1.200000000000 79.508926296046 1.113293088095 9.641400961479
3010 2 -1.200000000000 81.083360480126 2.226586176190 7.713120769183
3011 2 -1.200000000000 81.083360480126 25.605741026184 9.641400961479
3012 2 -1.200000000000 82.657794664206 0.000000000000 7.713120769183
3013 1 2.400000000000 78.721709204005 2.226586176190 3.856560384591
3014 1 2.400000000000 81.870577572166 1.113293088095 1.928280192296
3015 1 2.400000000000 81.870577572166 4.453172352380 3.856560384591
3016 1 2.400000000000 81.870577572166 1.113293088095 5.784840576887
3017 2 -1.200000000000 81.083360480126 2.226586176190 3.856560384591
3018 2 -1.200000000000 82.657794664206 3.339879264285 1.928280192296
3019 2 -1.200000000000 82.657794664206 0.000000000000 3.856560384591
3020 2 -1.200000000000 84.232228848286 1.113293088095 1.928280192296
3021 2 -1.200000000000 82.657794664206 3.339879264285 5.784840576887
3022 2 -1.200000000000 84.232228848286 4.453172352380 3.856560384591
3023 2 -1.200000000000 84.232228848286 1.113293088095 5.784840576887
3024 2 -1.200000000000 85.806663032366 2.226586176190 3.856560384591
3025 1 2.400000000000 81.870577572166 4.453172352380 0.000000000000
3026 1 2.400000000000 85.019445940326 3.339879264285 21.211082115253
3027 1 2.400000000000 85.019445940326 6.679758528570 0.000000000000
3028 1 2.400000000000 85.019445940326 3.339879264285 1.928280192296
3029 2 -1.200000000000 84.232228848286 4.453172352380 0.000000000000
3030 2 -1.200000000000 85.806663032366 5.566465440475 21.211082115253
3031 2 -1.200000000000 85.806663032366 2.226586176190 0.000000000000
3032 2 -1.200000000000 87.381097216446 3.339879264285 21.211082115253
3033 2 -1.200000000000 85.806663032366 5.566465440475 1.928280192296
3034 2 -1.200000000000 87.381097216446 6.679758528570 0.000000000000
3035 2 -1.200000000000 87.381097216446 3.339879264285 1.928280192296
3036 2 -1.200000000000 88.955531400526 4.453172352380 0.000000000000
3037 1 2.400000000000 85.019445940326 0.000000000000 0.000000000000
3038 1 2.400000000000 88.168314308486 25.605741026184 21.211082115253
3039 1 2.400000000000 88.168314308486 2.226586176190 0.000000000000
3040 1 2.400000000000 88.168314308486 25.605741026184 1.928280192296
3041 2 -1.200000000000 87.381097216446 0.000000000000 0.000000000000
3042 2 -1.200000000000 88.955531400526 1.113293088095 21.211082115253
3043 2 -1.200000000000 88.955531400526 24.492447938089 0.000000000000
3044 2 -1.200000000000 90.529965584606 25.605741026184 21.211082115253
3045 2 -1.200000000000 88.955531400526 1.113293088095 1.928280192296
3046 2 -1.200000000000 90.529965584606 2.226586176190 0.000000000000
3047 2 -1.200000000000 90.529965584606 25.605741026184 1.928280192296
3048 2 -1.200000000000 92.104399768686 0.000000000000 0.000000000000
3049 1 2.400000000000 66.126235731365 20.039275585709 11.569681153774
3050 1 2.400000000000 69.275104099525 18.925982497614 9.641400961479
3051 1 2.400000000000 69.275104099525 22.265861761899 11.569681153774
3052 1 2.400000000000 69.275104099525 18.925982497614 13.497961346070
3053 2 -1.200000000000 68.487887007485 20.039275585709 11.569681153774
3054 2 -1.200000000000 70.062321191565 21.152568673804 9.641400961479
3055 2 -1.200000000000 70.062321191565 17.812689409519 11.569681153774
3056 2 -1.200000000000 71.636755375645 18.925982497614 9.641400961479
3057 2 -1.200000000000 70.062321191565 21.152568673804 13.497961346070
3058 2 -1.200000000000 71.636755375645 22.265861761899 11.569681153774
3059 2 -1.200000000000 71.636755375645 18.925982497614 13.497961346070
3060 2 -1.200000000000 73.211189559725 20.039275585709 11.569681153774
3061 1 2.400000000000 69.275104099525 22.265861761899 7.713120769183
3062 1 2.400000000000 72.423972467685 21.152568673804 5.784840576887
3063 1 2.400000000000 72.423972467685 24.492447938089 7.713120769183
3064 1 2.400000000000 72.423972467685 21.152568673804 9.641400961479
3065 2 -1.200000000000 71.636755375645 22.265861761899 7.713120769183
3066 2 -1.200000000000 73.211189559725 23.379154849994 5.784840576887
3067 2 -1.200000000000 73.211189559725 20.039275585709 7.713120769183
3068 2 -1.200000000000 74.785623743805 21.152568673804 5.784840576887
3069 2 -1.200000000000 73.211189559725 23.379154849994 9.641400961479
3070 2 -1.200000000000 74.785623743805 24.492447938089 7.713120769183
3071 2 -1.200000000000 74.785623743805 21.152568673804 9.641400961479
3072 2 -1.200000000000 76.360057927885 22.265861761899 7.713120769183
3073 1 2.400000000000 72.423972467685 24.492447938089 3.856560384591
3074 1 2.400000000000 75.572840835845 23.379154849994 1.928280192296
3075 1 2.400000000000 75.572840835845 0.000000000000 3.856560384591
3076 1 2.400000000000 75.572840835845 23.379154849994 5.784840576887
3077 2 -1.200000000000 74.785623743805 24.492447938089 3.856560384591
3078 2 -1.200000000000 76.360057927885 25.605741026184 1.928280192296
3079 2 -1.200000000000 76.360057927885 22.265861761899 3.856560384591
3080 2 -1.200000000000 77.934492111965 23.379154849994 1.928280192296
3081 2 -1.200000000000 76.360057927885 25.605741026184 5.784840576887
3082 2 -1.200000000000 77.934492111965 0.000000000000 3.856560384591
3083 2 -1.200000000000 77.934492111965 23.379154849994 5.784840576887
3084 2 -1.200000000000 79.508926296046 24.492447938089 3.856560384591
3085 1 2.400000000000 66.126235731365 13.359517057139 15.426241538366
3086 1 2.400000000000 69.275104099525 12.246223969045 13.497961346070
3087 1 2.400000000000 69.275104099525 15.586103233329 15.426241538366
3088 1 2.400000000000 69.275104099525 12.246223969044 17.354521730661
3089 2 -1.200000000000 68.487887007485 13.359517057139 15.426241538366
3090 2 -1.200000000000 70.062321191565 14.472810145234 13.497961346070
3091 2 -1.200000000000 70.062321191565 11.132930880950 15.426241538366
3092 2 -1.200000000000 71.636755375645 12.246223969044 13.497961346070
3093 2 -1.200000000000 70.062321191565 14.472810145234 17.354521730661
3094 2 -1.200000000000 71.636755375645 15.586103233329 15.426241538366
3095 2 -1.200000000000 71.636755375645 12.246223969044 17.354521730661
3096 2 -1.200000000000 73.211189559725 13.359517057139 15.426241538366
3097 1 2.400000000000 69.275104099525 15.586103233329 11.569681153774
3098 1 2.400000000000 72.423972467685 14.472810145234 9.641400961479
3099 1 2.400000000000 72.423972467685 17.812689409519 11.569681153774
3100 1 2.400000000000 72.423972467685 14.472810145234 13.497961346070
3101 2 -1.200000000000 71.636755375645 15.586103233329 11.569681153774
3102 2 -1.200000000000 73.211189559725 16.699396321424 9.641400961479
3103 2 -1.200000000000 73.211189559725 13.359517057139 11.569681153774
3104 2 -1.200000000000 74.785623743805 14.472810145234 9.641400961479
3105 2 -1.200000000000 73.211189559725 16.699396321424 13.497961346070
3106 2 -1.200000000000 74.785623743805 17.812689409519 11.569681153774
3107 2 -1.200000000000 74.785623743805 14.472810145234 13.497961346070
3108 2 -1.200000000000 76.360057927885 15.586103233329 11.569681153774
3109 1 2.400000000000 72.423972467685 17.812689409519 7.713120769183
3110 1 2.400000000000 75.572840835845 16.699396321424 5.784840576887
3111 1 2.400000000000 75.572840835845 20.039275585709 7.713120769183
3112 1 2.400000000000 75.572840835845 16.699396321424 9.641400961479
3113 2 -1.200000000000 74.785623743805 17.812689409519 7.713120769183
3114 2 -1.200000000000 76.360057927885 18.925982497614 5.784840576887
3115 2 -1.200000000000 76.360057927885 15.586103233329 7.713120769183
3116 2 -1.200000000000 77.934492111965 16.699396321424 5.784840576887
3117 2 -1.200000000000 76.360057927885 18.925982497614 9.641400961479
3118 2 -1.200000000000 77.934492111965 20.039275585709 7.713120769183
3119 2 -1.200000000000 77.934492111965 16.699396321424 9.641400961479
3120 2 -1.200000000000 79.508926296046 17.812689409519 7.713120769183
3121 1 2.400000000000 75.572840835845 20.039275585709 3.856560384591
3122 1 2.400000000000 78.721709204005 18.925982497614 1.928280192296
3123 1 2.400000000000 78.721709204005 22.265861761899 3.856560384591
3124 1 2.400000000000 78.721709204005 18.925982497614 5.784840576887
3125 2 -1.200000000000 77.934492111965 20.039275585709 3.856560384591
3126 2 -1.200000000000 79.508926296046 21.152568673804 1.928280192296
3127 2 -1.200000000000 79.508926296046 17.812689409519 3.856560384591
3128 2 -1.200000000000 81.083360480126 18.925982497614 1.928280192296
3129 2 -1.200000000000 79.508926296046 21.152568673804 5.784840576887
3130 2 -1.200000000000 81.083360480126 22.265861761899 3.856560384591
3131 2 -1.200000000000 81.083360480126 18.925982497614 5.784840576887
3132 2 -1.200000000000 82.657794664206 20.039275585709 3.856560384591
3133 1 2.400000000000 78.721709204005 22.265861761899 0.000000000000
3134 1 2.400000000000 81.870577572166 21.152568673804 21.211082115253
3135 1 2.400000000000 81.870577572166 24.492447938089 0.000000000000
3136 1 2.400000000000 81.870577572166 21.152568673804 1.928280192296
3137 2 -1.200000000000 81.083360480126 22.265861761899 0.000000000000
3138 2 -1.200000000000 82.657794664206 23.379154849994 21.211082115253
3139 2 -1.200000000000 82.657794664206 20.039275585709 0.000000000000
3140 2 -1.200000000000 84.232228848286 21.152568673804 21.211082115253
3141 2 -1.200000000000 82.657794664206 23.379154849994 1.928280192296
3142 2 -1.200000000000 84.232228848286 24.492447938089 0.000000000000
3143 2 -1.200000000000 84.232228848286 21.152568673804 1.928280192296
3144 2 -1.200000000000 85.806663032366 22.265861761899 0.000000000000
3145 1 2.400000000000 66.126235731365 6.679758528570 19.282801922957
3146 1 2.400000000000 69.275104099525 5.566465440475 17.354521730661
3147 1 2.400000000000 69.275104099525 8.906344704760 19.282801922957
3148 1 2.400000000000 69.275104099525 5.566465440475 21.211082115253
3149 2 -1.200000000000 68.487887007485 6.679758528570 19.282801922957
3150 2 -1.200000000000 70.062321191565 7.793051616665 17.354521730661
3151 2 -1.200000000000 70.062321191565 4.453172352380 19.282801922957
3152 2 -1.200000000000 71.636755375645 5.566465440475 17.354521730661
3153 2 -1.200000000000 70.062321191565 7.793051616665 21.211082115253
3154 2 -1.200000000000 71.636755375645 8.906344704760 19.282801922957
3155 2 -1.200000000000 71.636755375645 5.566465440475 21.211082115253
3156 2 -1.200000000000 73.211189559725 6.679758528570 19.282801922957
3157 1 2.400000000000 69.275104099525 8.906344704760 15.426241538366
3158 1 2.400000000000 72.423972467685 7.793051616665 13.497961346070
3159 1 2.400000000000 72.423972467685 11.132930880950 15.426241538366
3160 1 2.400000000000 72.423972467685 7.793051616665 17.354521730661
3161 2 -1.200000000000 71.636755375645 8.906344704760 15.426241538366
3162 2 -1.200000000000 73.211189559725 10.019637792855 13.497961346070
3163 2 -1.200000000000 73.211189559725 6.679758528570 15.426241538366
3164 2 -1.200000000000 74.785623743805 7.793051616665 13.497961346070
3165 2 -1.200000000000 73.211189559725 10.019637792855 17.354521730661
3166 2 -1.200000000000 74.785623743805 11.132930880950 15.426241538366
3167 2 -1.200000000000 74.785623743805 7.793051616665 17.354521730661
3168 2 -1.200000000000 76.360057927885 8.906344704760 15.426241538366
3169 1 2.400000000000 72.423972467685 11.132930880950 11.569681153774
3170 1 2.400000000000 75.572840835845 10.019637792855 9.641400961479
3171 1 2.400000000000 75.572840835845 13.359517057139 11.569681153774
3172 1 2.400000000000 75.572840835845 10.019637792855 13.497961346070
3173 2 -1.200000000000 74.785623743805 11.132930880950 11.569681153774
3174 2 -1.200000000000 76.360057927885 12.246223969044 9.641400961479
3175 2 -1.200000000000 76.360057927885 8.906344704760 11.569681153774
3176 2 -1.200000000000 77.934492111965 10.019637792855 9.641400961479
3177 2 -1.200000000000 76.360057927885 12.246223969045 13.497961346070
3178 2 -1.200000000000 77.934492111965 13.359517057139 11.569681153774
3179 2 -1.200000000000 77.934492111965 10.019637792855 13.497961346070
3180 2 -1.200000000000 79.508926296046 11.132930880950 11.569681153774
3181 1 2.400000000000 75.572840835845 13.359517057139 7.713120769183
3182 1 2.400000000000 78.721709204005 12.246223969045 5.784840576887
3183 1 2.400000000000 78.721709204005 15.586103233329 7.713120769183
3184 1 2.400000000000 78.721709204005 12.246223969045 9.641400961479
3185 2 -1.200000000000 77.934492111965 13.359517057139 7.713120769183
3186 2 -1.200000000000 79.508926296046 14.472810145234 5.784840576887
3187 2 -1.200000000000 79.508926296046 11.132930880950 7.713120769183
3188 2 -1.200000000000 81.083360480126 12.246223969044 5.784840576887
3189 2 -1.200000000000 79.508926296046 14.472810145234 9.641400961479
3190 2 -1.200000000000 81.083360480126 15.586103233329 7.713120769183
3191 2 -1.200000000000 81.083360480126 12.246223969044 9.641400961479
3192 2 -1.200000000000 82.657794664206 13.359517057139 7.713120769183
3193 1 2.400000000000 78.721709204005 15.586103233329 3.856560384591
3194 1 2.400000000000 81.870577572166 14.472810145234 1.928280192296
3195 1 2.400000000000 81.870577572166 17.812689409519 3.856560384591
3196 1 2.400000000000 81.870577572166 14.472810145234 5.784840576887
3197 2 -1.200000000000 81.083360480126 15.586103233329 3.856560384591
3198 2 -1.200000000000 82.657794664206 16.699396321424 1.928280192296
3199 2 -1.200000000000 82.657794664206 13.359517057139 3.856560384591
3200 2 -1.200000000000 84.232228848286 14.472810145234 1.928280192296
3201 2 -1.200000000000 82.657794664206 16.699396321424 5.784840576887
3202 2 -1.200000000000 84.232228848286 17.812689409519 3.856560384591
3203 2 -1.200000000000 84.232228848286 14.472810145234 5.784840576887
3204 2 -1.200000000000 85.806663032366 15.586103233329 3.856560384591
3205 1 2.400000000000 81.870577572166 17.812689409519 0.000000000000
3206 1 2.400000000000 85.019445940326 16.699396321424 21.211082115253
3207 1 2.400000000000 85.019445940326 20.039275585709 0.000000000000
3208 1 2.400000000000 85.019445940326 16.699396321424 1.928280192296
3209 2 -1.200000000000 84.232228848286 17.812689409519 0.000000000000
3210 2 -1.200000000000 85.806663032366 18.925982497614 21.211082115253
3211 2 -1.200000000000 85.806663032366 15.586103233329 0.000000000000
3212 2 -1.200000000000 87.381097216446 16.699396321424 21.211082115253
3213 2 -1.200000000000 85.806663032366 18.925982497614 1.928280192296
3214 2 -1.200000000000 87.381097216446 20.039275585709 0.000000000000
3215 2 -1.200000000000 87.381097216446 16.699396321424 1.928280192296
3216 2 -1.200000000000 88.955531400526 17.812689409519 0.000000000000
3217 1 2.400000000000 69.275104099525 2.226586176190 19.282801922957
3218 1 2.400000000000 72.423972467685 1.113293088095 17.354521730661
3219 1 2.400000000000 72.423972467685 4.453172352380 19.282801922957
3220 1 2.400000000000 72.423972467685 1.113293088095 21.211082115253
3221 2 -1.200000000000 71.636755375645 2.226586176190 19.282801922957
3222 2 -1.200000000000 73.211189559725 3.339879264285 17.354521730661
3223 2 -1.200000000000 73.211189559725 0.000000000000 19.282801922957
3224 2 -1.200000000000 74.785623743805 1.113293088095 17.354521730661
3225 2 -1.200000000000 73.211189559725 3.339879264285 21.211082115253
3226 2 -1.200000000000 74.785623743805 4.453172352380 19.282801922957
3227 2 -1.200000000000 74.785623743805 1.113293088095 21.211082115253
3228 2 -1.200000000000 76.360057927885 2.226586176190 19.282801922957
3229 1 2.400000000000 72.423972467685 4.453172352380 15.426241538366
3230 1 2.400000000000 75.572840835845 3.339879264285 13.497961346070
3231 1 2.400000000000 75.572840835845 6.679758528570 15.426241538366
3232 1 2.400000000000 75.572840835845 3.339879264285 17.354521730661
3233 2 -1.200000000000 74.785623743805 4.453172352380 15.426241538366
3234 2 -1.200000000000 76.360057927885 5.566465440475 13.497961346070
3235 2 -1.200000000000 76.360057927885 2.226586176190 15.426241538366
3236 2 -1.200000000000 77.934492111965 3.339879264285 13.497961346070
3237 2 -1.200000000000 76.360057927885 5.566465440475 17.354521730661
3238 2 -1.200000000000 77.934492111965 6.679758528570 15.426241538366
3239 2 -1.200000000000 77.934492111965 3.339879264285 17.354521730661
3240 2 -1.200000000000 79.508926296046 4.453172352380 15.426241538366
3241 1 2.400000000000 75.572840835845 6.679758528570 11.569681153774
3242 1 2.400000000000 78.721709204005 5.566465440475 9.641400961479
3243 1 2.400000000000 78.721709204005 8.906344704760 11.569681153774
3244 1 2.400000000000 78.721709204005 5.566465440475 13.497961346070
3245 2 -1.200000000000 77.934492111965 6.679758528570 11.569681153774
3246 2 -1.200000000000 79.508926296046 7.793051616665 9.641400961479
3247 2 -1.200000000000 79.508926296046 4.453172352380 11.569681153774
3248 2 -1.200000000000 81.083360480126 5.566465440475 9.641400961479
3249 2 -1.200000000000 79.508926296046 7.793051616665 13.497961346070
3250 2 -1.200000000000 81.083360480126 8.906344704760 11.569681153774
3251 2 -1.200000000000 81.083360480126 5.566465440475 13.497961346070
3252 2 -1.200000000000 82.657794664206 6.679758528570 11.569681153774
3253 1 2.400000000000 78.721709204005 8.906344704760 7.713120769183
3254 1 2.400000000000 81.870577572166 7.793051616665 5.784840576887
3255 1 2.400000000000 81.870577572166 11.132930880950 7.713120769183
3256 1 2.400000000000 81.870577572166 7.793051616665 9.641400961479
3257 2 -1.200000000000 81.083360480126 8.906344704760 7.713120769183
3258 2 -1.200000000000 82.657794664206 10.019637792855 5.784840576887
3259 2 -1.200000000000 82.657794664206 6.679758528570 7.713120769183
3260 2 -1.200000000000 84.232228848286 7.793051616665 5.784840576887
3261 2 -1.200000000000 82.657794664206 10.019637792855 9.641400961479
3262 2 -1.200000000000 84.232228848286 11.132930880950 7.713120769183
3263 2 -1.200000000000 84.232228848286 7.793051616665 9.641400961479
3264 2 -1.200000000000 85.806663032366 8.906344704760 7.713120769183
3265 1 2.400000000000 81.870577572166 11.132930880950 3.856560384591
3266 1 2.400000000000 85.019445940326 10.019637792855 1.928280192296
3267 1 2.400000000000 85.019445940326 13.359517057139 3.856560384591
3268 1 2.400000000000 85.019445940326 10.019637792855 5.784840576887
3269 2 -1.200000000000 84.232228848286 11.132930880950 3.856560384591
3270 2 -1.200000000000 85.806663032366 12.246223969044 1.928280192296
3271 2 -1.200000000000 85.806663032366 8.906344704760 3.856560384591
3272 2 -1.200000000000 87.381097216446 10.019637792855 1.928280192296
3273 2 -1.200000000000 85.806663032366 12.246223969044 5.784840576887
3274 2 -1.200000000000 87.381097216446 13.359517057139 3.856560384591
3275 2 -1.200000000000 87.381097216446 10.019637792855 5.784840576887
3276 2 -1.200000000000 88.955531400526 11.132930880950 3.856560384591
3277 1 2.400000000000 85.019445940326 13.359517057139 0.000000000000
3278 1 2.400000000000 88.168314308486 12.246223969045 21.211082115253
3279 1 2.400000000000 88.168314308486 15.586103233329 0.000000000000
3280 1 2.400000000000 88.168314308486 12.246223969044 1.928280192296
3281 2 -1.200000000000 87.381097216446 13.359517057139 0.000000000000
3282 2 -1.200000000000 88.955531400526 14.472810145234 21.211082115253
3283 2 -1.200000000000 88.955531400526 11.132930880950 0.000000000000
3284 2 -1.200000000000 90.529965584606 12.246223969044 21.211082115253
3285 2 -1.200000000000 88.955531400526 14.472810145234 1.928280192296
3286 2 -1.200000000000 90.529965584606 15.586103233329 0.000000000000
3287 2 -1.200000000000 90.529965584606 12.246223969044 1.928280192296
3288 2 -1.200000000000 92.104399768686 13.359517057139 0.000000000000
3289 1 2.400000000000 75.572840835845 0.000000000000 15.426241538366
3290 1 2.400000000000 78.721709204005 25.605741026184 13.497961346070
3291 1 2.400000000000 78.721709204005 2.226586176190 15.426241538366
3292 1 2.400000000000 78.721709204005 25.605741026184 17.354521730661
3293 2 -1.200000000000 77.934492111965 0.000000000000 15.426241538366
3294 2 -1.200000000000 79.508926296046 1.113293088095 13.497961346070
3295 2 -1.200000000000 79.508926296046 24.492447938089 15.426241538366
3296 2 -1.200000000000 81.083360480126 25.605741026184 13.497961346070
3297 2 -1.200000000000 79.508926296046 1.113293088095 17.354521730661
3298 2 -1.200000000000 81.083360480126 2.226586176190 15.426241538366
3299 2 -1.200000000000 81.083360480126 25.605741026184 17.354521730661
3300 2 -1.200000000000 82.657794664206 0.000000000000 15.426241538366
3301 1 2.400000000000 78.721709204005 2.226586176190 11.569681153774
3302 1 2.400000000000 81.870577572166 1.113293088095 9.641400961479
3303 1 2.400000000000 81.870577572166 4.453172352380 11.569681153774
3304 1 2.400000000000 81.870577572166 1.113293088095 13.497961346070
3305 2 -1.200000000000 81.083360480126 2.226586176190 11.569681153774
3306 2 -1.200000000000 82.657794664206 3.339879264285 9.641400961479
3307 2 -1.200000000000 82.657794664206 0.000000000000 11.569681153774
3308 2 -1.200000000000 84.232228848286 1.113293088095 9.641400961479
3309 2 -1.200000000000 82.657794664206 3.339879264285 13.497961346070
3310 2 -1.200000000000 84.232228848286 4.453172352380 11.569681153774
3311 2 -1.200000000000 84.232228848286 1.113293088095 13.497961346070
3312 2 -1.200000000000 85.806663032366 2.226586176190 11.569681153774
3313 1 2.400000000000 81.870577572166 4.453172352380 7.713120769183
3314 1 2.400000000000 85.019445940326 3.339879264285 5.784840576887
3315 1 2.400000000000 85.019445940326 6.679758528570 7.713120769183
3316 1 2.400000000000 85.019445940326 3.339879264285 9.641400961479
3317 2 -1.200000000000 84.232228848286 4.453172352380 7.713120769183
3318 2 -1.200000000000 85.806663032366 5.566465440475 5.784840576887
3319 2 -1.200000000000 85.806663032366 2.226586176190 7.713120769183
3320 2 -1.200000000000 87.381097216446 3.339879264285 5.784840576887
3321 2 -1.200000000000 85.806663032366 5.566465440475 9.641400961479
3322 2 -1.200000000000 87.381097216446 6.679758528570 7.713120769183
3323 2 -1.200000000000 87.381097216446 3.339879264285 9.641400961479
3324 2 -1.200000000000 88.955531400526 4.453172352380 7.713120769183
3325 1 2.400000000000 85.019445940326 6.679758528570 3.856560384591
3326 1 2.400000000000 88.168314308486 5.566465440475 1.928280192296
3327 1 2.400000000000 88.168314308486 8.906344704760 3.856560384591
3328 1 2.400000000000 88.168314308486 5.566465440475 5.784840576887
3329 2 -1.200000000000 87.381097216446 6.679758528570 3.856560384591
3330 2 -1.200000000000 88.955531400526 7.793051616665 1.928280192296
3331 2 -1.200000000000 88.955531400526 4.453172352380 3.856560384591
3332 2 -1.200000000000 90.529965584606 5.566465440475 1.928280192296
3333 2 -1.200000000000 88.955531400526 7.793051616665 5.784840576887
3334 2 -1.200000000000 90.529965584606 8.906344704760 3.856560384591
3335 2 -1.200000000000 90.529965584606 5.566465440475 5.784840576887
3336 2 -1.200000000000 92.104399768686 6.679758528570 3.856560384591
3337 1 2.400000000000 88.168314308486 8.906344704760 0.000000000000
3338 1 2.400000000000 91.317182676646 7.793051616665 21.211082115253
3339 1 2.400000000000 91.317182676646 11.132930880950 0.000000000000
3340 1 2.400000000000 91.317182676646 7.793051616665 1.928280192296
3341 2 -1.200000000000 90.529965584606 8.906344704760 0.000000000000
3342 2 -1.200000000000 92.104399768686 10.019637792855 21.211082115253
3343 2 -1.200000000000 92.104399768686 6.679758528570 0.000000000000
3344 2 -1.200000000000 93.678833952766 7.793051616665 21.211082115253
3345 2 -1.200000000000 92.104399768686 10.019637792855 1.928280192296
3346 2 -1.200000000000 93.678833952766 11.132930880950 0.000000000000
3347 2 -1.200000000000 93.678833952766 7.793051616665 1.928280192296
3348 2 -1.200000000000 95.253268136847 8.906344704760 0.000000000000
3349 1 2.400000000000 85.019445940326 0.000000000000 7.713120769183
3350 1 2.400000000000 88.168314308486 25.605741026184 5.784840576887
3351 1 2.400000000000 88.168314308486 2.226586176190 7.713120769183
3352 1 2.400000000000 88.168314308486 25.605741026184 9.641400961479
3353 2 -1.200000000000 87.381097216446 0.000000000000 7.713120769183
3354 2 -1.200000000000 88.955531400526 1.113293088095 5.784840576887
3355 2 -1.200000000000 88.955531400526 24.492447938089 7.713120769183
3356 2 -1.200000000000 90.529965584606 25.605741026184 5.784840576887
3357 2 -1.200000000000 88.955531400526 1.113293088095 9.641400961479
3358 2 -1.200000000000 90.529965584606 2.226586176190 7.713120769183
3359 2 -1.200000000000 90.529965584606 25.605741026184 9.641400961479
3360 2 -1.200000000000 92.104399768686 0.000000000000 7.713120769183
3361 1 2.400000000000 88.168314308486 2.226586176190 3.856560384591
3362 1 2.400000000000 91.317182676646 1.113293088095 1.928280192296
3363 1 2.400000000000 91.317182676646 4.453172352380 3.856560384591
3364 1 2.400000000000 91.317182676646 1.113293088095 5.784840576887
3365 2 -1.200000000000 90.529965584606 2.226586176190 3.856560384591
3366 2 -1.200000000000 92.104399768686 3.339879264285 1.928280192296
3367 2 -1.200000000000 92.104399768686 0.000000000000 3.856560384591
3368 2 -1.200000000000 93.678833952767 1.113293088095 1.928280192296
3369 2 -1.200000000000 92.104399768686 3.339879264285 5.784840576887
3370 2 -1.200000000000 93.678833952767 4.453172352380 3.856560384591
3371 2 -1.200000000000 93.678833952767 1.113293088095 5.784840576887
3372 2 -1.200000000000 95.253268136847 2.226586176190 3.856560384591
3373 1 2.400000000000 91.317182676646 4.453172352380 0.000000000000
3374 1 2.400000000000 94.466051044807 3.339879264285 21.211082115253
3375 1 2.400000000000 94.466051044807 6.679758528570 0.000000000000
3376 1 2.400000000000 94.466051044807 3.339879264285 1.928280192296
3377 2 -1.200000000000 93.678833952766 4.453172352380 0.000000000000
3378 2 -1.200000000000 95.253268136847 5.566465440475 21.211082115253
3379 2 -1.200000000000 95.253268136847 2.226586176190 0.000000000000
3380 2 -1.200000000000 96.827702320927 3.339879264285 21.211082115253
3381 2 -1.200000000000 95.253268136847 5.566465440475 1.928280192296
3382 2 -1.200000000000 96.827702320927 6.679758528570 0.000000000000
3383 2 -1.200000000000 96.827702320927 3.339879264285 1.928280192296
3384 2 -1.200000000000 98.402136505007 4.453172352380 0.000000000000
3385 1 2.400000000000 94.466051044807 0.000000000000 0.000000000000
3386 1 2.400000000000 97.614919412967 25.605741026184 21.211082115253
3387 1 2.400000000000 97.614919412967 2.226586176190 0.000000000000
3388 1 2.400000000000 97.614919412967 25.605741026184 1.928280192296
3389 2 -1.200000000000 96.827702320927 0.000000000000 0.000000000000
3390 2 -1.200000000000 98.402136505007 1.113293088095 21.211082115253
3391 2 -1.200000000000 98.402136505007 24.492447938089 0.000000000000
3392 2 -1.200000000000 99.976570689087 25.605741026184 21.211082115253
3393 2 -1.200000000000 98.402136505007 1.113293088095 1.928280192296
3394 2 -1.200000000000 99.976570689087 2.226586176190 0.000000000000
3395 2 -1.200000000000 99.976570689087 25.605741026184 1.928280192296
3396 2 -1.200000000000 101.551004873167 0.000000000000 0.000000000000
3397 1 2.400000000000 66.126235731365 20.039275585709 19.282801922957
3398 1 2.400000000000 69.275104099525 18.925982497614 17.354521730661
3399 1 2.400000000000 69.275104099525 22.265861761899 19.282801922957
3400 1 2.400000000000 69.275104099525 18.925982497614 21.211082115253
3401 2 -1.200000000000 68.487887007485 20.039275585709 19.282801922957
3402 2 -1.200000000000 70.062321191565 21.152568673804 17.354521730661
3403 2 -1.200000000000 70.062321191565 17.812689409519 19.282801922957
3404 2 -1.200000000000 71.636755375645 18.925982497614 17.354521730661
3405 2 -1.200000000000 70.062321191565 21.152568673804 21.211082115253
3406 2 -1.200000000000 71.636755375645 22.265861761899 19.282801922957
3407 2 -1.200000000000 71.636755375645 18.925982497614 21.211082115253
3408 2 -1.200000000000 73.211189559725 20.039275585709 19.282801922957
3409 1 2.400000000000 69.275104099525 22.265861761899 15.426241538366
3410 1 2.400000000000 72.423972467685 21.152568673804 13.497961346070
3411 1 2.400000000000 72.423972467685 24.492447938089 15.426241538366
3412 1 2.400000000000 72.423972467685 21.152568673804 17.354521730661
3413 2 -1.200000000000 71.636755375645 22.265861761899 15.426241538366
3414 2 -1.200000000000 73.211189559725 23.379154849994 13.497961346070
3415 2 -1.200000000000 73.211189559725 20.039275585709 15.426241538366
3416 2 -1.200000000000 74.785623743805 21.152568673804 13.497961346070
3417 2 -1.200000000000 73.211189559725 23.379154849994 17.354521730661
3418 2 -1.200000000000 74.785623743805 24.492447938089 15.426241538366
3419 2 -1.200000000000 74.785623743805 21.152568673804 17.354521730661
3420 2 -1.200000000000 76.360057927885 22.265861761899 15.426241538366
3421 1 2.400000000000 72.423972467685 24.492447938089 11.569681153774
3422 1 2.400000000000 75.572840835845 23.379154849994 9.641400961479
3423 1 2.400000000000 75.572840835845 0.000000000000 11.569681153774
3424 1 2.400000000000 75.572840835845 23.379154849994 13.497961346070
3425 2 -1.200000000000 74.785623743805 24.492447938089 11.569681153774
3426 2 -1.200000000000 76.360057927885 25.605741026184 9.641400961479
3427 2 -1.200000000000 76.360057927885 22.265861761899 11.569681153774
3428 2 -1.200000000000 77.934492111965 23.379154849994 9.641400961479
3429 2 -1.200000000000 76.360057927885 25.605741026184 13.497961346070
3430 2 -1.200000000000 77.934492111965 0.000000000000 11.569681153774
3431 2 -1.200000000000 77.934492111965 23.379154849994 13.497961346070
3432 2 -1.200000000000 79.508926296046 24.492447938089 11.569681153774
3433 1 2.400000000000 69.275104099525 15.586103233329 19.282801922957
3434 1 2.400000000000 72.423972467685 14.472810145234 17.354521730661
3435 1 2.400000000000 72.423972467685 17.812689409519 19.282801922957
3436 1 2.400000000000 72.423972467685 14.472810145234 21.211082115253
3437 2 -1.200000000000 71.636755375645 15.586103233329 19.282801922957
3438 2 -1.200000000000 73.211189559725 16.699396321424 17.354521730661
3439 2 -1.200000000000 73.211189559725 13.359517057139 19.282801922957
3440 2 -1.200000000000 74.785623743805 14.472810145234 17.354521730661
3441 2 -1.200000000000 73.211189559725 16.699396321424 21.211082115253
3442 2 -1.200000000000 74.785623743805 17.812689409519 19.282801922957
3443 2 -1.200000000000 74.785623743805 14.472810145234 21.211082115253
3444 2 -1.200000000000 76.360057927885 15.586103233329 19.282801922957
3445 1 2.400000000000 72.423972467685 17.812689409519 15.426241538366
3446 1 2.400000000000 75.572840835845 16.699396321424 13.497961346070
3447 1 2.400000000000 75.572840835845 20.039275585709 15.426241538366
3448 1 2.400000000000 75.572840835845 16.699396321424 17.354521730661
3449 2 -1.200000000000 74.785623743805 17.812689409519 15.426241538366
3450 2 -1.200000000000 76.360057927885 18.925982497614 13.497961346070
3451 2 -1.200000000000 76.360057927885 15.586103233329 15.426241538366
3452 2 -1.200000000000 77.934492111965 16.699396321424 13.497961346070
3453 2 -1.200000000000 76.360057927885 18.925982497614 17.354521730661
3454 2 -1.200000000000 77.934492111965 20.039275585709 15.426241538366
3455 2 -1.200000000000 77.934492111965 16.699396321424 17.354521730661
3456 2 -1.200000000000 79.508926296046 17.812689409519 15.426241538366
3457 1 2.400000000000 75.572840835845 20.039275585709 11.569681153774
3458 1 2.400000000000 78.721709204005 18.925982497614 9.641400961479
3459 1 2.400000000000 78.721709204005 22.265861761899 11.569681153774
3460 1 2.400000000000 78.721709204005 18.925982497614 13.497961346070
3461 2 -1.200000000000 77.934492111965 20.039275585709 11.569681153774
3462 2 -1.200000000000 79.508926296046 21.152568673804 9.641400961479
3463 2 -1.200000000000 79.508926296046 17.812689409519 11.569681153774
3464 2 -1.200000000000 81.083360480126 18.925982497614 9.641400961479
3465 2 -1.200000000000 79.508926296046 21.152568673804 13.497961346070
3466 2 -1.200000000000 81.083360480126 22.265861761899 11.569681153774
3467 2 -1.200000000000 81.083360480126 18.925982497614 13.497961346070
3468 2 -1.200000000000 82.657794664206 20.039275585709 11.569681153774
3469 1 2.400000000000 78.721709204005 22.265861761899 7.713120769183
3470 1 2.400000000000 81.870577572166 21.152568673804 5.784840576887
3471 1 2.400000000000 81.870577572166 24.492447938089 7.713120769183
3472 1 2.400000000000 81.870577572166 21.152568673804 9.641400961479
3473 2 -1.200000000000 81.083360480126 22.265861761899 7.713120769183
3474 2 -1.200000000000 82.657794664206 23.379154849994 5.784840576887
3475 2 -1.200000000000 82.657794664206 20.039275585709 7.713120769183
3476 2 -1.200000000000 84.232228848286 21.152568673804 5.784840576887
3477 2 -1.200000000000 82.657794664206 23.379154849994 9.641400961479
3478 2 -1.200000000000 84.232228848286 24.492447938089 7.713120769183
3479 2 -1.200000000000 84.232228848286 21.152568673804 9.641400961479
3480 2 -1.200000000000 85.806663032366 22.265861761899 7.713120769183
3481 1 2.400000000000 81.870577572166 24.492447938089 3.856560384591
3482 1 2.400000000000 85.019445940326 23.379154849994 1.928280192296
3483 1 2.400000000000 85.019445940326 0.000000000000 3.856560384591
3484 1 2.400000000000 85.019445940326 23.379154849994 5.784840576887
3485 2 -1.200000000000 84.232228848286 24.492447938089 3.856560384591
3486 2 -1.200000000000 85.806663032366 25.605741026184 1.928280192296
3487 2 -1.200000000000 85.806663032366 22.265861761899 3.856560384591
3488 2 -1.200000000000 87.381097216446 23.379154849994 1.928280192296
3489 2 -1.200000000000 85.806663032366 25.605741026184 5.784840576887
3490 2 -1.200000000000 87.381097216446 0.000000000000 3.856560384591
3491 2 -1.200000000000 87.381097216446 23.379154849994 5.784840576887
3492 2 -1.200000000000 88.955531400526 24.492447938089 3.856560384591
3493 1 2.400000000000 72.423972467685 11.132930880950 19.282801922957
3494 1 2.400000000000 75.572840835845 10.019637792855 17.354521730661
3495 1 2.400000000000 75.572840835845 13.359517057139 19.282801922957
3496 1 2.400000000000 75.572840835845 10.019637792855 21.211082115253
3497 2 -1.200000000000 74.785623743805 11.132930880950 19.282801922957
3498 2 -1.200000000000 76.360057927885 12.246223969044 17.354521730661
3499 2 -1.200000000000 76.360057927885 8.906344704760 19.282801922957
3500 2 -1.200000000000 77.934492111965 10.019637792855 17.354521730661
3501 2 -1.200000000000 76.360057927885 12.246223969045 21.211082115253
3502 2 -1.200000000000 77.934492111965 13.359517057139 19.282801922957
3503 2 -1.200000000000 77.934492111965 10.019637792855 21.211082115253
3504 2 -1.200000000000 79.508926296046 11.132930880950 19.282801922957
3505 1 2.400000000000 75.572840835845 13.359517057139 15.426241538366
3506 1 2.400000000000 78.721709204005 12.246223969045 13.497961346070
3507 1 2.400000000000 78.721709204005 15.586103233329 15.426241538366
3508 1 2.400000000000 78.721709204005 12.246223969045 17.354521730661
3509 2 -1.200000000000 77.934492111965 13.359517057139 15.426241538366
3510 2 -1.200000000000 79.508926296046 14.472810145234 13.497961346070
3511 2 -1.200000000000 79.508926296046 11.132930880950 15.426241538366
3512 2 -1.200000000000 81.083360480126 12.246223969044 13.497961346070
3513 2 -1.200000000000 79.508926296046 14.472810145234 17.354521730661
3514 2 -1.200000000000 81.083360480126 15.586103233329 15.426241538366
3515 2 -1.200000000000 81.083360480126 12.246223969045 17.354521730661
3516 2 -1.200000000000 82.657794664206 13.359517057139 15.426241538366
3517 1 2.400000000000 78.721709204005 15.586103233329 11.569681153774
3518 1 2.400000000000 81.870577572166 14.472810145234 9.641400961479
3519 1 2.400000000000 81.870577572166 17.812689409519 11.569681153774
3520 1 2.400000000000 81.870577572166 14.472810145234 13.497961346070
3521 2 -1.200000000000 81.083360480126 15.586103233329 11.569681153774
3522 2 -1.200000000000 82.657794664206 16.699396321424 9.641400961479
3523 2 -1.200000000000 82.657794664206 13.359517057139 11.569681153774
3524 2 -1.200000000000 84.232228848286 14.472810145234 9.641400961479
3525 2 -1.200000000000 82.657794664206 16.699396321424 13.497961346070
3526 2 -1.200000000000 84.232228848286 17.812689409519 11.569681153774
3527 2 -1.200000000000 84.232228848286 14.472810145234 13.497961346070
3528 2 -1.200000000000 85.806663032366 15.586103233329 11.569681153774
3529 1 2.400000000000 81.870577572166 17.812689409519 7.713120769183
3530 1 2.400000000000 85.019445940326 16.699396321424 5.784840576887
3531 1 2.400000000000 85.019445940326 20.039275585709 7.713120769183
3532 1 2.400000000000 85.019445940326 16.699396321424 9.641400961479
3533 2 -1.200000000000 84.232228848286 17.812689409519 7.713120769183
3534 2 -1.200000000000 85.806663032366 18.925982497614 5.784840576887
3535 2 -1.200000000000 85.806663032366 15.586103233329 7.713120769183
3536 2 -1.200000000000 87.381097216446 16.699396321424 5.784840576887
3537 2 -1.200000000000 85.806663032366 18.925982497614 9.641400961479
3538 2 -1.200000000000 87.381097216446 20.039275585709 7.713120769183
3539 2 -1.200000000000 87.381097216446 16.699396321424 9.641400961479
3540 2 -1.200000000000 88.955531400526 17.812689409519 7.713120769183
3541 1 2.400000000000 85.019445940326 20.039275585709 3.856560384591
3542 1 2.400000000000 88.168314308486 18.925982497614 1.928280192296
3543 1 2.400000000000 88.168314308486 22.265861761899 3.856560384591
3544 1 2.400000000000 88.168314308486 18.925982497614 5.784840576887
3545 2 -1.200000000000 87.381097216446 20.039275585709 3.856560384591
3546 2 -1.200000000000 88.955531400526 21.152568673804 1.928280192296
3547 2 -1.200000000000 88.955531400526 17.812689409519 3.856560384591
3548 2 -1.200000000000 90.529965584606 18.925982497614 1.928280192296
3549 2 -1.200000000000 88.955531400526 21.152568673804 5.784840576887
3550 2 -1.200000000000 90.529965584606 22.265861761899 3.856560384591
3551 2 -1.200000000000 90.529965584606 18.925982497614 5.784840576887
3552 2 -1.200000000000 92.104399768686 20.039275585709 3.856560384591
3553 1 2.400000000000 88.168314308486 22.265861761899 0.000000000000
3554 1 2.400000000000 91.317182676646 21.152568673804 21.211082115253
3555 1 2.400000000000 91.317182676646 24.492447938089 0.000000000000
3556 1 2.400000000000 91.317182676646 21.152568673804 1.928280192296
3557 2 -1.200000000000 90.529965584606 22.265861761899 0.000000000000
3558 2 -1.200000000000 92.104399768686 23.379154849994 21.211082115253
3559 2 -1.200000000000 92.104399768686 20.039275585709 0.000000000000
3560 2 -1.200000000000 93.678833952766 21.152568673804 21.211082115253
3561 2 -1.200000000000 92.104399768686 23.379154849994 1.928280192296
3562 2 -1.200000000000 93.678833952766 24.492447938089 0.000000000000
3563 2 -1.200000000000 93.678833952766 21.152568673804 1.928280192296
3564 2 -1.200000000000 95.253268136847 22.265861761899 0.000000000000
3565 1 2.400000000000 75.572840835845 6.679758528570 19.282801922957
3566 1 2.400000000000 78.721709204005 5.566465440475 17.354521730661
3567 1 2.400000000000 78.721709204005 8.906344704760 19.282801922957
3568 1 2.400000000000 78.721709204005 5.566465440475 21.211082115253
3569 2 -1.200000000000 77.934492111965 6.679758528570 19.282801922957
3570 2 -1.200000000000 79.508926296046 7.793051616665 17.354521730661
3571 2 -1.200000000000 79.508926296046 4.453172352380 19.282801922957
3572 2 -1.200000000000 81.083360480126 5.566465440475 17.354521730661
3573 2 -1.200000000000 79.508926296046 7.793051616665 21.211082115253
3574 2 -1.200000000000 81.083360480126 8.906344704760 19.282801922957
3575 2 -1.200000000000 81.083360480126 5.566465440475 21.211082115253
3576 2 -1.200000000000 82.657794664206 6.679758528570 19.282801922957
3577 1 2.400000000000 78.721709204005 8.906344704760 15.426241538366
3578 1 2.400000000000 81.870577572166 7.793051616665 13.497961346070
3579 1 2.400000000000 81.870577572166 11.132930880950 15.426241538366
3580 1 2.400000000000 81.870577572166 7.793051616665 17.354521730661
3581 2 -1.200000000000 81.083360480126 8.906344704760 15.426241538366
3582 2 -1.200000000000 82.657794664206 10.019637792855 13.497961346070
3583 2 -1.200000000000 82.657794664206 6.679758528570 15.426241538366
3584 2 -1.200000000000 84.232228848286 7.793051616665 13.497961346070
3585 2 -1.200000000000 82.657794664206 10.019637792855 17.354521730661
3586 2 -1.200000000000 84.232228848286 11.132930880950 15.426241538366
3587 2 -1.200000000000 84.232228848286 7.793051616665 17.354521730661
3588 2 -1.200000000000 85.806663032366 8.906344704760 15.426241538366
3589 1 2.400000000000 81.870577572166 11.132930880950 11.569681153774
3590 1 2.400000000000 85.019445940326 10.019637792855 9.641400961479
3591 1 2.400000000000 85.019445940326 13.359517057139 11.569681153774
3592 1 2.400000000000 85.019445940326 10.019637792855 13.497961346070
3593 2 -1.200000000000 84.232228848286 11.132930880950 11.569681153774
3594 2 -1.200000000000 85.806663032366 12.246223969044 9.641400961479
3595 2 -1.200000000000 85.806663032366 8.906344704760 11.569681153774
3596 2 -1.200000000000 87.381097216446 10.019637792855 9.641400961479
3597 2 -1.200000000000 85.806663032366 12.246223969045 13.497961346070
3598 2 -1.200000000000 87.381097216446 13.359517057139 11.569681153774
3599 2 -1.200000000000 87.381097216446 10.019637792855 13.497961346070
3600 2 -1.200000000000 88.955531400526 11.132930880950 11.569681153774
3601 1 2.400000000000 85.019445940326 13.359517057139 7.713120769183
3602 1 2.400000000000 88.168314308486 12.246223969045 5.784840576887
3603 1 2.400000000000 88.168314308486 15.586103233329 7.713120769183
3604 1 2.400000000000 88.168314308486 12.246223969045 9.641400961479
3605 2 -1.200000000000 87.381097216446 13.359517057139 7.713120769183
3606 2 -1.200000000000 88.955531400526 14.472810145234 5.784840576887
3607 2 -1.200000000000 88.955531400526 11.132930880950 7.713120769183
3608 2 -1.200000000000 90.529965584606 12.246223969045 5.784840576887
3609 2 -1.200000000000 88.955531400526 14.472810145234 9.641400961479
3610 2 -1.200000000000 90.529965584606 15.586103233329 7.713120769183
3611 2 -1.200000000000 90.529965584606 12.246223969045 9.641400961479
3612 2 -1.200000000000 92.104399768686 13.359517057139 7.713120769183
3613 1 2.400000000000 88.168314308486 15.586103233329 3.856560384591
3614 1 2.400000000000 91.317182676646 14.472810145234 1.928280192296
3615 1 2.400000000000 91.317182676646 17.812689409519 3.856560384591
3616 1 2.400000000000 91.317182676646 14.472810145234 5.784840576887
3617 2 -1.200000000000 90.529965584606 15.586103233329 3.856560384591
3618 2 -1.200000000000 92.104399768686 16.699396321424 1.928280192296
3619 2 -1.200000000000 92.104399768686 13.359517057139 3.856560384591
3620 2 -1.200000000000 93.678833952767 14.472810145234 1.928280192296
3621 2 -1.200000000000 92.104399768686 16.699396321424 5.784840576887
3622 2 -1.200000000000 93.678833952767 17.812689409519 3.856560384591
3623 2 -1.200000000000 93.678833952767 14.472810145234 5.784840576887
3624 2 -1.200000000000 95.253268136847 15.586103233329 3.856560384591
3625 1 2.400000000000 91.317182676646 17.812689409519 0.000000000000
3626 1 2.400000000000 94.466051044807 16.699396321424 21.211082115253
3627 1 2.400000000000 94.466051044807 20.039275585709 0.000000000000
3628 1 2.400000000000 94.466051044807 16.699396321424 1.928280192296
3629 2 -1.200000000000 93.678833952767 17.812689409519 0.000000000000
3630 2 -1.200000000000 95.253268136847 18.925982497614 21.211082115253
3631 2 -1.200000000000 95.253268136847 15.586103233329 0.000000000000
3632 2 -1.200000000000 96.827702320927 16.699396321424 21.211082115253
3633 2 -1.200000000000 95.253268136847 18.925982497614 1.928280192296
3634 2 -1.200000000000 96.827702320927 20.039275585709 0.000000000000
3635 2 -1.200000000000 96.827702320927 16.699396321424 1.928280192296
3636 2 -1.200000000000 98.402136505007 17.812689409519 0.000000000000
3637 1 2.400000000000 78.721709204005 2.226586176190 19.282801922957
3638 1 2.400000000000 81.870577572166 1.113293088095 17.354521730661
3639 1 2.400000000000 81.870577572166 4.453172352380 19.282801922957
3640 1 2.400000000000 81.870577572166 1.113293088095 21.211082115253
3641 2 -1.200000000000 81.083360480126 2.226586176190 19.282801922957
3642 2 -1.200000000000 82.657794664206 3.339879264285 17.354521730661
3643 2 -1.200000000000 82.657794664206 0.000000000000 19.282801922957
3644 2 -1.200000000000 84.232228848286 1.113293088095 17.354521730661
3645 2 -1.200000000000 82.657794664206 3.339879264285 21.211082115253
3646 2 -1.200000000000 84.232228848286 4.453172352380 19.282801922957
3647 2 -1.200000000000 84.232228848286 1.113293088095 21.211082115253
3648 2 -1.200000000000 85.806663032366 2.226586176190 19.282801922957
3649 1 2.400000000000 81.870577572166 4.453172352380 15.426241538366
3650 1 2.400000000000 85.019445940326 3.339879264285 13.497961346070
3651 1 2.400000000000 85.019445940326 6.679758528570 15.426241538366
3652 1 2.400000000000 85.019445940326 3.339879264285 17.354521730661
3653 2 -1.200000000000 84.232228848286 4.453172352380 15.426241538366
3654 2 -1.200000000000 85.806663032366 5.566465440475 13.497961346070
3655 2 -1.200000000000 85.806663032366 2.226586176190 15.426241538366
3656 2 -1.200000000000 87.381097216446 3.339879264285 13.497961346070
3657 2 -1.200000000000 85.806663032366 5.566465440475 17.354521730661
3658 2 -1.200000000000 87.381097216446 6.679758528570 15.426241538366
3659 2 -1.200000000000 87.381097216446 3.339879264285 17.354521730661
3660 2 -1.200000000000 88.955531400526 4.453172352380 15.426241538366
3661 1 2.400000000000 85.019445940326 6.679758528570 11.569681153774
3662 1 2.400000000000 88.168314308486 5.566465440475 9.641400961479
3663 1 2.400000000000 88.168314308486 8.906344704760 11.569681153774
3664 1 2.400000000000 88.168314308486 5.566465440475 13.497961346070
3665 2 -1.200000000000 87.381097216446 6.679758528570 11.569681153774
3666 2 -1.200000000000 88.955531400526 7.793051616665 9.641400961479
3667 2 -1.200000000000 88.955531400526 4.453172352380 11.569681153774
3668 2 -1.200000000000 90.529965584606 5.566465440475 9.641400961479
3669 2 -1.200000000000 88.955531400526 7.793051616665 13.497961346070
3670 2 -1.200000000000 90.529965584606 8.906344704760 11.569681153774
3671 2 -1.200000000000 90.529965584606 5.566465440475 13.497961346070
3672 2 -1.200000000000 92.104399768686 6.679758528570 11.569681153774
3673 1 2.400000000000 88.168314308486 8.906344704760 7.713120769183
3674 1 2.400000000000 91.317182676646 7.793051616665 5.784840576887
3675 1 2.400000000000 91.317182676646 11.132930880950 7.713120769183
3676 1 2.400000000000 91.317182676646 7.793051616665 9.641400961479
3677 2 -1.200000000000 90.529965584606 8.906344704760 7.713120769183
3678 2 -1.200000000000 92.104399768686 10.019637792855 5.784840576887
3679 2 -1.200000000000 92.104399768686 6.679758528570 7.713120769183
3680 2 -1.200000000000 93.678833952767 7.793051616665 5.784840576887
3681 2 -1.200000000000 92.104399768686 10.019637792855 9.641400961479
3682 2 -1.200000000000 93.678833952767 11.132930880950 7.713120769183
3683 2 -1.200000000000 93.678833952767 7.793051616665 9.641400961479
3684 2 -1.200000000000 95.253268136847 8.906344704760 7.713120769183
3685 1 2.400000000000 91.317182676646 11.132930880950 3.856560384591
3686 1 2.400000000000 94.466051044807 10.019637792855 1.928280192296
3687 1 2.400000000000 94.466051044807 13.359517057139 3.856560384591
3688 1 2.400000000000 94.466051044807 10.019637792855 5.784840576887
3689 2 -1.200000000000 93.678833952767 11.132930880950 3.856560384591
3690 2 -1.200000000000 95.253268136847 12.246223969044 1.928280192296
3691 2 -1.200000000000 95.253268136847 8.906344704760 3.856560384591
3692 2 -1.200000000000 96.827702320927 10.019637792855 1.928280192296
3693 2 -1.200000000000 95.253268136847 12.246223969044 5.784840576887
3694 2 -1.200000000000 96.827702320927 13.359517057139 3.856560384591
3695 2 -1.200000000000 96.827702320927 10.019637792855 5.784840576887
3696 2 -1.200000000000 98.402136505007 11.132930880950 3.856560384591
3697 1 2.400000000000 94.466051044807 13.359517057139 0.000000000000
3698 1 2.400000000000 97.614919412967 12.246223969045 21.211082115253
3699 1 2.400000000000 97.614919412967 15.586103233329 0.000000000000
3700 1 2.400000000000 97.614919412967 12.246223969045 1.928280192296
3701 2 -1.200000000000 96.827702320927 13.359517057139 0.000000000000
3702 2 -1.200000000000 98.402136505007 14.472810145234 21.211082115253
3703 2 -1.200000000000 98.402136505007 11.132930880950 0.000000000000
3704 2 -1.200000000000 99.976570689087 12.246223969044 21.211082115253
3705 2 -1.200000000000 98.402136505007 14.472810145234 1.928280192296
3706 2 -1.200000000000 99.976570689087 15.586103233329 0.000000000000
3707 2 -1.200000000000 99.976570689087 12.246223969045 1.928280192296
3708 2 -1.200000000000 101.551004873167 13.359517057139 0.000000000000
3709 1 2.400000000000 85.019445940326 0.000000000000 15.426241538366
3710 1 2.400000000000 88.168314308486 25.605741026184 13.497961346070
3711 1 2.400000000000 88.168314308486 2.226586176190 15.426241538366
3712 1 2.400000000000 88.168314308486 25.605741026184 17.354521730661
3713 2 -1.200000000000 87.381097216446 0.000000000000 15.426241538366
3714 2 -1.200000000000 88.955531400526 1.113293088095 13.497961346070
3715 2 -1.200000000000 88.955531400526 24.492447938089 15.426241538366
3716 2 -1.200000000000 90.529965584606 25.605741026184 13.497961346070
3717 2 -1.200000000000 88.955531400526 1.113293088095 17.354521730661
3718 2 -1.200000000000 90.529965584606 2.226586176190 15.426241538366
3719 2 -1.200000000000 90.529965584606 25.605741026184 17.354521730661
3720 2 -1.200000000000 92.104399768686 0.000000000000 15.426241538366
3721 1 2.400000000000 88.168314308486 2.226586176190 11.569681153774
3722 1 2.400000000000 91.317182676646 1.113293088095 9.641400961479
3723 1 2.400000000000 91.317182676646 4.453172352380 11.569681153774
3724 1 2.400000000000 91.317182676646 1.113293088095 13.497961346070
3725 2 -1.200000000000 90.529965584606 2.226586176190 11.569681153774
3726 2 -1.200000000000 92.104399768686 3.339879264285 9.641400961479
3727 2 -1.200000000000 92.104399768686 0.000000000000 11.569681153774
3728 2 -1.200000000000 93.678833952767 1.113293088095 9.641400961479
3729 2 -1.200000000000 92.104399768686 3.339879264285 13.497961346070
3730 2 -1.200000000000 93.678833952766 4.453172352380 11.569681153774
3731 2 -1.200000000000 93.678833952767 1.113293088095 13.497961346070
3732 2 -1.200000000000 95.253268136847 2.226586176190 11.569681153774
3733 1 2.400000000000 91.317182676646 4.453172352380 7.713120769183
3734 1 2.400000000000 94.466051044807 3.339879264285 5.784840576887
3735 1 2.400000000000 94.466051044807 6.679758528570 7.713120769183
3736 1 2.400000000000 94.466051044807 3.339879264285 9.641400961479
3737 2 -1.200000000000 93.678833952767 4.453172352380 7.713120769183
3738 2 -1.200000000000 95.253268136847 5.566465440475 5.784840576887
3739 2 -1.200000000000 95.253268136847 2.226586176190 7.713120769183
3740 2 -1.200000000000 96.827702320927 3.339879264285 5.784840576887
3741 2 -1.200000000000 95.253268136847 5.566465440475 9.641400961479
3742 2 -1.200000000000 96.827702320927 6.679758528570 7.713120769183
3743 2 -1.200000000000 96.827702320927 3.339879264285 9.641400961479
3744 2 -1.200000000000 98.402136505007 4.453172352380 7.713120769183
3745 1 2.400000000000 94.466051044807 6.679758528570 3.856560384591
3746 1 2.400000000000 97.614919412967 5.566465440475 1.928280192296
3747 1 2.400000000000 97.614919412967 8.906344704760 3.856560384591
3748 1 2.400000000000 97.614919412967 5.566465440475 5.784840576887
3749 2 -1.200000000000 96.827702320927 6.679758528570 3.856560384591
3750 2 -1.200000000000 98.402136505007 7.793051616665 1.928280192296
3751 2 -1.200000000000 98.402136505007 4.453172352380 3.856560384591
3752 2 -1.200000000000 99.976570689087 5.566465440475 1.928280192296
3753 2 -1.200000000000 98.402136505007 7.793051616665 5.784840576887
3754 2 -1.200000000000 99.976570689087 8.906344704760 3.856560384591
3755 2 -1.200000000000 99.976570689087 5.566465440475 5.784840576887
3756 2 -1.200000000000 101.551004873167 6.679758528570 3.856560384591
3757 1 2.400000000000 97.614919412967 8.906344704760 0.000000000000
3758 1 2.400000000000 100.763787781127 7.793051616665 21.211082115253
3759 1 2.400000000000 100.763787781127 11.132930880950 0.000000000000
3760 1 2.400000000000 100.763787781127 7.793051616665 1.928280192296
3761 2 -1.200000000000 99.976570689087 8.906344704760 0.000000000000
3762 2 -1.200000000000 101.551004873167 10.019637792855 21.211082115253
3763 2 -1.200000000000 101.551004873167 6.679758528570 0.000000000000
3764 2 -1.200000000000 103.125439057247 7.793051616665 21.211082115253
3765 2 -1.200000000000 101.551004873167 10.019637792855 1.928280192296
3766 2 -1.200000000000 103.125439057247 11.132930880950 0.000000000000
3767 2 -1.200000000000 103.125439057247 7.793051616665 1.928280192296
3768 2 -1.200000000000 104.699873241327 8.906344704760 0.000000000000
3769 1 2.400000000000 94.466051044807 0.000000000000 7.713120769183
3770 1 2.400000000000 97.614919412967 25.605741026184 5.784840576887
3771 1 2.400000000000 97.614919412967 2.226586176190 7.713120769183
3772 1 2.400000000000 97.614919412967 25.605741026184 9.641400961479
3773 2 -1.200000000000 96.827702320927 0.000000000000 7.713120769183
3774 2 -1.200000000000 98.402136505007 1.113293088095 5.784840576887
3775 2 -1.200000000000 98.402136505007 24.492447938089 7.713120769183
3776 2 -1.200000000000 99.976570689087 25.605741026184 5.784840576887
3777 2 -1.200000000000 98.402136505007 1.113293088095 9.641400961479
3778 2 -1.200000000000 99.976570689087 2.226586176190 7.713120769183
3779 2 -1.200000000000 99.976570689087 25.605741026184 9.641400961479
3780 2 -1.200000000000 101.551004873167 0.000000000000 7.713120769183
3781 1 2.400000000000 97.614919412967 2.226586176190 3.856560384591
3782 1 2.400000000000 100.763787781127 1.113293088095 1.928280192296
3783 1 2.400000000000 100.763787781127 4.453172352380 3.856560384591
3784 1 2.400000000000 100.763787781127 1.113293088095 5.784840576887
3785 2 -1.200000000000 99.976570689087 2.226586176190 3.856560384591
3786 2 -1.200000000000 101.551004873167 3.339879264285 1.928280192296
3787 2 -1.200000000000 101.551004873167 0.000000000000 3.856560384591
3788 2 -1.200000000000 103.125439057247 1.113293088095 1.928280192296
3789 2 -1.200000000000 101.551004873167 3.339879264285 5.784840576887
3790 2 -1.200000000000 103.125439057247 4.453172352380 3.856560384591
3791 2 -1.200000000000 103.125439057247 1.113293088095 5.784840576887
3792 2 -1.200000000000 104.699873241327 2.226586176190 3.856560384591
3793 1 2.400000000000 100.763787781127 4.453172352380 0.000000000000
3794 1 2.400000000000 103.912656149287 3.339879264285 21.211082115253
3795 1 2.400000000000 103.912656149287 6.679758528570 0.000000000000
3796 1 2.400000000000 103.912656149287 3.339879264285 1.928280192296
3797 2 -1.200000000000 103.125439057247 4.453172352380 0.000000000000
3798 2 -1.200000000000 104.699873241327 5.566465440475 21.211082115253
3799 2 -1.200000000000 104.699873241327 2.226586176190 0.000000000000
3800 2 -1.200000000000 106.274307425407 3.339879264285 21.211082115253
3801 2 -1.200000000000 104.699873241327 5.566465440475 1.928280192296
3802 2 -1.200000000000 106.274307425407 6.679758528570 0.000000000000
3803 2 -1.200000000000 106.274307425407 3.339879264285 1.928280192296
3804 2 -1.200000000000 107.848741609487 4.453172352380 0.000000000000
3805 1 2.400000000000 103.912656149287 0.000000000000 0.000000000000
3806 1 2.400000000000 107.061524517447 25.605741026184 21.211082115253
3807 1 2.400000000000 107.061524517447 2.226586176190 0.000000000000
3808 1 2.400000000000 107.061524517447 25.605741026184 1.928280192296
3809 2 -1.200000000000 106.274307425407 0.000000000000 0.000000000000
3810 2 -1.200000000000 107.848741609487 1.113293088095 21.211082115253
3811 2 -1.200000000000 107.848741609487 24.492447938089 0.000000000000
3812 2 -1.200000000000 109.423175793568 25.605741026184 21.211082115253
3813 2 -1.200000000000 107.848741609487 1.113293088095 1.928280192296
3814 2 -1.200000000000 109.423175793568 2.226586176190 0.000000000000
3815 2 -1.200000000000 109.423175793568 25.605741026184 1.928280192296
3816 2 -1.200000000000 110.997609977648 0.000000000000 0.000000000000
3817 1 2.400000000000 72.423972467685 24.492447938089 19.282801922957
3818 1 2.400000000000 75.572840835845 23.379154849994 17.354521730661
3819 1 2.400000000000 75.572840835845 0.000000000000 19.282801922957
3820 1 2.400000000000 75.572840835845 23.379154849994 21.211082115253
3821 2 -1.200000000000 74.785623743805 24.492447938089 19.282801922957
3822 2 -1.200000000000 76.360057927885 25.605741026184 17.354521730661
3823 2 -1.200000000000 76.360057927885 22.265861761899 19.282801922957
3824 2 -1.200000000000 77.934492111965 23.379154849994 17.354521730661
3825 2 -1.200000000000 76.360057927885 25.605741026184 21.211082115253
3826 2 -1.200000000000 77.934492111965 0.000000000000 19.282801922957
3827 2 -1.200000000000 77.934492111965 23.379154849994 21.211082115253
3828 2 -1.200000000000 79.508926296046 24.492447938089 19.282801922957
3829 1 2.400000000000 75.572840835845 20.039275585709 19.282801922957
3830 1 2.400000000000 78.721709204005 18.925982497614 17.354521730661
3831 1 2.400000000000 78.721709204005 22.265861761899 19.282801922957
3832 1 2.400000000000 78.721709204005 18.925982497614 21.211082115253
3833 2 -1.200000000000 77.934492111965 20.039275585709 19.282801922957
3834 2 -1.200000000000 79.508926296046 21.152568673804 17.354521730661
3835 2 -1.200000000000 79.508926296046 17.812689409519 19.282801922957
3836 2 -1.200000000000 81.083360480126 18.925982497614 17.354521730661
3837 2 -1.200000000000 79.508926296046 21.152568673804 21.211082115253
3838 2 -1.200000000000 81.083360480126 22.265861761899 19.282801922957
3839 2 -1.200000000000 81.083360480126 18.925982497614 21.211082115253
3840 2 -1.200000000000 82.657794664206 20.039275585709 19.282801922957
3841 1 2.400000000000 78.721709204005 22.265861761899 15.426241538366
3842 1 2.400000000000 81.870577572166 21.152568673804 13.497961346070
3843 1 2.400000000000 81.870577572166 24.492447938089 15.426241538366
3844 1 2.400000000000 81.870577572166 21.152568673804 17.354521730661
3845 2 -1.200000000000 81.083360480126 22.265861761899 15.426241538366
3846 2 -1.200000000000 82.657794664206 23.379154849994 13.497961346070
3847 2 -1.200000000000 82.657794664206 20.039275585709 15.426241538366
3848 2 -1.200000000000 84.232228848286 21.152568673804 13.497961346070
3849 2 -1.200000000000 82.657794664206 23.379154849994 17.354521730661
3850 2 -1.200000000000 84.232228848286 24.492447938089 15.426241538366
3851 2 -1.200000000000 84.232228848286 21.152568673804 17.354521730661
3852 2 -1.200000000000 85.806663032366 22.265861761899 15.426241538366
3853 1 2.400000000000 81.870577572166 24.492447938089 11.569681153774
3854 1 2.400000000000 85.019445940326 23.379154849994 9.641400961479
3855 1 2.400000000000 85.019445940326 0.000000000000 11.569681153774
3856 1 2.400000000000 85.019445940326 23.379154849994 13.497961346070
3857 2 -1.200000000000 84.232228848286 24.492447938089 11.569681153774
3858 2 -1.200000000000 85.806663032366 25.605741026184 9.641400961479
3859 2 -1.200000000000 85.806663032366 22.265861761899 11.569681153774
3860 2 -1.200000000000 87.381097216446 23.379154849994 9.641400961479
3861 2 -1.200000000000 85.806663032366 25.605741026184 13.497961346070
3862 2 -1.200000000000 87.381097216446 0.000000000000 11.569681153774
3863 2 -1.200000000000 87.381097216446 23.379154849994 13.497961346070
3864 2 -1.200000000000 88.955531400526 24.492447938089 11.569681153774
3865 1 2.400000000000 78.721709204005 15.586103233329 19.282801922957
3866 1 2.400000000000 81.870577572166 14.472810145234 17.354521730661
3867 1 2.400000000000 81.870577572166 17.812689409519 19.282801922957
3868 1 2.400000000000 81.870577572166 14.472810145234 21.211082115253
3869 2 -1.200000000000 81.083360480126 15.586103233329 19.282801922957
3870 2 -1.200000000000 82.657794664206 16.699396321424 17.354521730661
3871 2 -1.200000000000 82.657794664206 13.359517057139 19.282801922957
3872 2 -1.200000000000 84.232228848286 14.472810145234 17.354521730661
3873 2 -1.200000000000 82.657794664206 16.699396321424 21.211082115253
3874 2 -1.200000000000 84.232228848286 17.812689409519 19.282801922957
3875 2 -1.200000000000 84.232228848286 14.472810145234 21.211082115253
3876 2 -1.200000000000 85.806663032366 15.586103233329 19.282801922957
3877 1 2.400000000000 81.870577572166 17.812689409519 15.426241538366
3878 1 2.400000000000 85.019445940326 16.699396321424 13.497961346070
3879 1 2.400000000000 85.019445940326 20.039275585709 15.426241538366
3880 1 2.400000000000 85.019445940326 16.699396321424 17.354521730661
3881 2 -1.200000000000 84.232228848286 17.812689409519 15.426241538366
3882 2 -1.200000000000 85.806663032366 18.925982497614 13.497961346070
3883 2 -1.200000000000 85.806663032366 15.586103233329 15.426241538366
3884 2 -1.200000000000 87.381097216446 16.699396321424 13.497961346070
3885 2 -1.200000000000 85.806663032366 18.925982497614 17.354521730661
3886 2 -1.200000000000 87.381097216446 20.039275585709 15.426241538366
3887 2 -1.200000000000 87.381097216446 16.699396321424 17.354521730661
3888 2 -1.200000000000 88.955531400526 17.812689409519 15.426241538366
3889 1 2.400000000000 85.019445940326 20.039275585709 11.569681153774
3890 1 2.400000000000 88.168314308486 18.925982497614 9.641400961479
3891 1 2.400000000000 88.168314308486 22.265861761899 11.569681153774
3892 1 2.400000000000 88.168314308486 18.925982497614 13.497961346070
3893 2 -1.200000000000 87.381097216446 20.039275585709 11.569681153774
3894 2 -1.200000000000 88.955531400526 21.152568673804 9.641400961479
3895 2 -1.200000000000 88.955531400526 17.812689409519 11.569681153774
3896 2 -1.200000000000 90.529965584606 18.925982497614 9.641400961479
3897 2 -1.200000000000 88.955531400526 21.152568673804 13.497961346070
3898 2 -1.200000000000 90.529965584606 22.265861761899 11.569681153774
3899 2 -1.200000000000 90.529965584606 18.925982497614 13.497961346070
3900 2 -1.200000000000 92.104399768686 20.039275585709 11.569681153774
3901 1 2.400000000000 88.168314308486 22.265861761899 7.713120769183
3902 1 2.400000000000 91.317182676646 21.152568673804 5.784840576887
3903 1 2.400000000000 91.317182676646 24.492447938089 7.713120769183
3904 1 2.400000000000 91.317182676646 21.152568673804 9.641400961479
3905 2 -1.200000000000 90.529965584606 22.265861761899 7.713120769183
3906 2 -1.200000000000 92.104399768686 23.379154849994 5.784840576887
3907 2 -1.200000000000 92.104399768686 20.039275585709 7.713120769183
3908 2 -1.200000000000 93.678833952766 21.152568673804 5.784840576887
3909 2 -1.200000000000 92.104399768686 23.379154849994 9.641400961479
3910 2 -1.200000000000 93.678833952767 24.492447938089 7.713120769183
3911 2 -1.200000000000 93.678833952767 21.152568673804 9.641400961479
3912 2 -1.200000000000 95.253268136847 22.265861761899 7.713120769183
3913 1 2.400000000000 91.317182676646 24.492447938089 3.856560384591
3914 1 2.400000000000 94.466051044807 23.379154849994 1.928280192296
3915 1 2.400000000000 94.466051044807 0.000000000000 3.856560384591
3916 1 2.400000000000 94.466051044807 23.379154849994 5.784840576887
3917 2 -1.200000000000 93.678833952766 24.492447938089 3.856560384591
3918 2 -1.200000000000 95.253268136847 25.605741026184 1.928280192296
3919 2 -1.200000000000 95.253268136847 22.265861761899 3.856560384591
3920 2 -1.200000000000 96.827702320927 23.379154849994 1.928280192296
3921 2 -1.200000000000 95.253268136847 25.605741026184 5.784840576887
3922 2 -1.200000000000 96.827702320927 0.000000000000 3.856560384591
3923 2 -1.200000000000 96.827702320927 23.379154849994 5.784840576887
3924 2 -1.200000000000 98.402136505007 24.492447938089 3.856560384591
3925 1 2.400000000000 81.870577572166 11.132930880950 19.282801922957
3926 1 2.400000000000 85.019445940326 10.019637792855 17.354521730661
3927 1 2.400000000000 85.019445940326 13.359517057139 19.282801922957
3928 1 2.400000000000 85.019445940326 10.019637792855 21.211082115253
3929 2 -1.200000000000 84.232228848286 11.132930880950 19.282801922957
3930 2 -1.200000000000 85.806663032366 12.246223969045 17.354521730661
3931 2 -1.200000000000 85.806663032366 8.906344704760 19.282801922957
3932 2 -1.200000000000 87.381097216446 10.019637792855 17.354521730661
3933 2 -1.200000000000 85.806663032366 12.246223969045 21.211082115253
3934 2 -1.200000000000 87.381097216446 13.359517057139 19.282801922957
3935 2 -1.200000000000 87.381097216446 10.019637792855 21.211082115253
3936 2 -1.200000000000 88.955531400526 11.132930880950 19.282801922957
3937 1 2.400000000000 85.019445940326 13.359517057139 15.426241538366
3938 1 2.400000000000 88.168314308486 12.246223969045 13.497961346070
3939 1 2.400000000000 88.168314308486 15.586103233329 15.426241538366
3940 1 2.400000000000 88.168314308486 12.246223969045 17.354521730661
3941 2 -1.200000000000 87.381097216446 13.359517057139 15.426241538366
3942 2 -1.200000000000 88.955531400526 14.472810145234 13.497961346070
3943 2 -1.200000000000 88.955531400526 11.132930880950 15.426241538366
3944 2 -1.200000000000 90.529965584606 12.246223969044 13.497961346070
3945 2 -1.200000000000 88.955531400526 14.472810145234 17.354521730661
3946 2 -1.200000000000 90.529965584606 15.586103233329 15.426241538366
3947 2 -1.200000000000 90.529965584606 12.246223969044 17.354521730661
3948 2 -1.200000000000 92.104399768686 13.359517057139 15.426241538366
3949 1 2.400000000000 88.168314308486 15.586103233329 11.569681153774
3950 1 2.400000000000 91.317182676646 14.472810145234 9.641400961479
3951 1 2.400000000000 91.317182676646 17.812689409519 11.569681153774
3952 1 2.400000000000 91.317182676646 14.472810145234 13.497961346070
3953 2 -1.200000000000 90.529965584606 15.586103233329 11.569681153774
3954 2 -1.200000000000 92.104399768686 16.699396321424 9.641400961479
3955 2 -1.200000000000 92.104399768686 13.359517057139 11.569681153774
3956 2 -1.200000000000 93.678833952767 14.472810145234 9.641400961479
3957 2 -1.200000000000 92.104399768686 16.699396321424 13.497961346070
3958 2 -1.200000000000 93.678833952767 17.812689409519 11.569681153774
3959 2 -1.200000000000 93.678833952767 14.472810145234 13.497961346070
3960 2 -1.200000000000 95.253268136847 15.586103233329 11.569681153774
3961 1 2.400000000000 91.317182676646 17.812689409519 7.713120769183
3962 1 2.400000000000 94.466051044807 16.699396321424 5.784840576887
3963 1 2.400000000000 94.466051044807 20.039275585709 7.713120769183
3964 1 2.400000000000 94.466051044807 16.699396321424 9.641400961479
3965 2 -1.200000000000 93.678833952767 17.812689409519 7.713120769183
3966 2 -1.200000000000 95.253268136847 18.925982497614 5.784840576887
3967 2 -1.200000000000 95.253268136847 15.586103233329 7.713120769183
3968 2 -1.200000000000 96.827702320927 16.699396321424 5.784840576887
3969 2 -1.200000000000 95.253268136847 18.925982497614 9.641400961479
3970 2 -1.200000000000 96.827702320927 20.039275585709 7.713120769183
3971 2 -1.200000000000 96.827702320927 16.699396321424 9.641400961479
3972 2 -1.200000000000 98.402136505007 17.812689409519 7.713120769183
3973 1 2.400000000000 94.466051044807 20.039275585709 3.856560384591
3974 1 2.400000000000 97.614919412967 18.925982497614 1.928280192296
3975 1 2.400000000000 97.614919412967 22.265861761899 3.856560384591
3976 1 2.400000000000 97.614919412967 18.925982497614 5.784840576887
3977 2 -1.200000000000 96.827702320927 20.039275585709 3.856560384591
3978 2 -1.200000000000 98.402136505007 21.152568673804 1.928280192296
3979 2 -1.200000000000 98.402136505007 17.812689409519 3.856560384591
3980 2 -1.200000000000 99.976570689087 18.925982497614 1.928280192296
3981 2 -1.200000000000 98.402136505007 21.152568673804 5.784840576887
3982 2 -1.200000000000 99.976570689087 22.265861761899 3.856560384591
3983 2 -1.200000000000 99.976570689087 18.925982497614 5.784840576887
3984 2 -1.200000000000 101.551004873167 20.039275585709 3.856560384591
3985 1 2.400000000000 97.614919412967 22.265861761899 0.000000000000
3986 1 2.400000000000 100.763787781127 21.152568673804 21.211082115253
3987 1 2.400000000000 100.763787781127 24.492447938089 0.000000000000
3988 1 2.400000000000 100.763787781127 21.152568673804 1.928280192296
3989 2 -1.200000000000 99.976570689087 22.265861761899 0.000000000000
3990 2 -1.200000000000 101.551004873167 23.379154849994 21.211082115253
3991 2 -1.200000000000 101.551004873167 20.039275585709 0.000000000000
3992 2 -1.200000000000 103.125439057247 21.152568673804 21.211082115253
3993 2 -1.200000000000 101.551004873167 23.379154849994 1.928280192296
3994 2 -1.200000000000 103.125439057247 24.492447938089 0.000000000000
3995 2 -1.200000000000 103.125439057247 21.152568673804 1.928280192296
3996 2 -1.200000000000 104.699873241327 22.265861761899 0.000000000000
3997 1 2.400000000000 85.019445940326 6.679758528570 19.282801922957
3998 1 2.400000000000 88.168314308486 5.566465440475 17.354521730661
3999 1 2.400000000000 88.168314308486 8.906344704760 19.282801922957
4000 1 2.400000000000 88.168314308486 5.566465440475 21.211082115253
4001 2 -1.200000000000 87.381097216446 6.679758528570 19.282801922957
4002 2 -1.200000000000 88.955531400526 7.793051616665 17.354521730661
4003 2 -1.200000000000 88.955531400526 4.453172352380 19.282801922957
4004 2 -1.200000000000 90.529965584606 5.566465440475 17.354521730661
4005 2 -1.200000000000 88.955531400526 7.793051616665 21.211082115253
4006 2 -1.200000000000 90.529965584606 8.906344704760 19.282801922957
4007 2 -1.200000000000 90.529965584606 5.566465440475 21.211082115253
4008 2 -1.200000000000 92.104399768686 6.679758528570 19.282801922957
4009 1 2.400000000000 88.168314308486 8.906344704760 15.426241538366
4010 1 2.400000000000 91.317182676646 7.793051616665 13.497961346070
4011 1 2.400000000000 91.317182676646 11.132930880950 15.426241538366
4012 1 2.400000000000 91.317182676646 7.793051616665 17.354521730661
4013 2 -1.200000000000 90.529965584606 8.906344704760 15.426241538366
4014 2 -1.200000000000 92.104399768686 10.019637792855 13.497961346070
4015 2 -1.200000000000 92.104399768686 6.679758528570 15.426241538366
4016 2 -1.200000000000 93.678833952766 7.793051616665 13.497961346070
4017 2 -1.200000000000 92.104399768686 10.019637792855 17.354521730661
4018 2 -1.200000000000 93.678833952767 11.132930880950 15.426241538366
4019 2 -1.200000000000 93.678833952767 7.793051616665 17.354521730661
4020 2 -1.200000000000 95.253268136847 8.906344704760 15.426241538366
4021 1 2.400000000000 91.317182676646 11.132930880950 11.569681153774
4022 1 2.400000000000 94.466051044807 10.019637792855 9.641400961479
4023 1 2.400000000000 94.466051044807 13.359517057139 11.569681153774
4024 1 2.400000000000 94.466051044807 10.019637792855 13.497961346070
4025 2 -1.200000000000 93.678833952767 11.132930880950 11.569681153774
4026 2 -1.200000000000 95.253268136847 12.246223969045 9.641400961479
4027 2 -1.200000000000 95.253268136847 8.906344704760 11.569681153774
4028 2 -1.200000000000 96.827702320927 10.019637792855 9.641400961479
4029 2 -1.200000000000 95.253268136847 12.246223969044 13.497961346070
4030 2 -1.200000000000 96.827702320927 13.359517057139 11.569681153774
4031 2 -1.200000000000 96.827702320927 10.019637792855 13.497961346070
4032 2 -1.200000000000 98.402136505007 11.132930880950 11.569681153774
4033 1 2.400000000000 94.466051044807 13.359517057139 7.713120769183
4034 1 2.400000000000 97.614919412967 12.246223969045 5.784840576887
4035 1 2.400000000000 97.614919412967 15.586103233329 7.713120769183
4036 1 2.400000000000 97.614919412967 12.246223969045 9.641400961479
4037 2 -1.200000000000 96.827702320927 13.359517057139 7.713120769183
4038 2 -1.200000000000 98.402136505007 14.472810145234 5.784840576887
4039 2 -1.200000000000 98.402136505007 11.132930880950 7.713120769183
4040 2 -1.200000000000 99.976570689087 12.246223969044 5.784840576887
4041 2 -1.200000000000 98.402136505007 14.472810145234 9.641400961479
4042 2 -1.200000000000 99.976570689087 15.586103233329 7.713120769183
4043 2 -1.200000000000 99.976570689087 12.246223969044 9.641400961479
4044 2 -1.200000000000 101.551004873167 13.359517057139 7.713120769183
4045 1 2.400000000000 97.614919412967 15.586103233329 3.856560384591
4046 1 2.400000000000 100.763787781127 14.472810145234 1.928280192296
4047 1 2.400000000000 100.763787781127 17.812689409519 3.856560384591
4048 1 2.400000000000 100.763787781127 14.472810145234 5.784840576887
4049 2 -1.200000000000 99.976570689087 15.586103233329 3.856560384591
4050 2 -1.200000000000 101.551004873167 16.699396321424 1.928280192296
4051 2 -1.200000000000 101.551004873167 13.359517057139 3.856560384591
4052 2 -1.200000000000 103.125439057247 14.472810145234 1.928280192296
4053 2 -1.200000000000 101.551004873167 16.699396321424 5.784840576887
4054 2 -1.200000000000 103.125439057247 17.812689409519 3.856560384591
4055 2 -1.200000000000 103.125439057247 14.472810145234 5.784840576887
4056 2 -1.200000000000 104.699873241327 15.586103233329 3.856560384591
4057 1 2.400000000000 100.763787781127 17.812689409519 0.000000000000
4058 1 2.400000000000 103.912656149287 16.699396321424 21.211082115253
4059 1 2.400000000000 103.912656149287 20.039275585709 0.000000000000
4060 1 2.400000000000 103.912656149287 16.699396321424 1.928280192296
4061 2 -1.200000000000 103.125439057247 17.812689409519 0.000000000000
4062 2 -1.200000000000 104.699873241327 18.925982497614 21.211082115253
4063 2 -1.200000000000 104.699873241327 15.586103233329 0.000000000000
4064 2 -1.200000000000 106.274307425407 16.699396321424 21.211082115253
4065 2 -1.200000000000 104.699873241327 18.925982497614 1.928280192296
4066 2 -1.200000000000 106.274307425407 20.039275585709 0.000000000000
4067 2 -1.200000000000 106.274307425407 16.699396321424 1.928280192296
4068 2 -1.200000000000 107.848741609487 17.812689409519 0.000000000000
4069 1 2.400000000000 88.168314308486 2.226586176190 19.282801922957
4070 1 2.400000000000 91.317182676646 1.113293088095 17.354521730661
4071 1 2.400000000000 91.317182676646 4.453172352380 19.282801922957
4072 1 2.400000000000 91.317182676646 1.113293088095 21.211082115253
4073 2 -1.200000000000 90.529965584606 2.226586176190 19.282801922957
4074 2 -1.200000000000 92.104399768686 3.339879264285 17.354521730661
4075 2 -1.200000000000 92.104399768686 0.000000000000 19.282801922957
4076 2 -1.200000000000 93.678833952767 1.113293088095 17.354521730661
4077 2 -1.200000000000 92.104399768686 3.339879264285 21.211082115253
4078 2 -1.200000000000 93.678833952767 4.453172352380 19.282801922957
4079 2 -1.200000000000 93.678833952767 1.113293088095 21.211082115253
4080 2 -1.200000000000 95.253268136847 2.226586176190 19.282801922957
4081 1 2.400000000000 91.317182676646 4.453172352380 15.426241538366
4082 1 2.400000000000 94.466051044807 3.339879264285 13.497961346070
4083 1 2.400000000000 94.466051044807 6.679758528570 15.426241538366
4084 1 2.400000000000 94.466051044807 3.339879264285 17.354521730661
4085 2 -1.200000000000 93.678833952767 4.453172352380 15.426241538366
4086 2 -1.200000000000 95.253268136847 5.566465440475 13.497961346070
4087 2 -1.200000000000 95.253268136847 2.226586176190 15.426241538366
4088 2 -1.200000000000 96.827702320927 3.339879264285 13.497961346070
4089 2 -1.200000000000 95.253268136847 5.566465440475 17.354521730661
4090 2 -1.200000000000 96.827702320927 6.679758528570 15.426241538366
4091 2 -1.200000000000 96.827702320927 3.339879264285 17.354521730661
4092 2 -1.200000000000 98.402136505007 4.453172352380 15.426241538366
4093 1 2.400000000000 94.466051044807 6.679758528570 11.569681153774
4094 1 2.400000000000 97.614919412967 5.566465440475 9.641400961479
4095 1 2.400000000000 97.614919412967 8.906344704760 11.569681153774
4096 1 2.400000000000 97.614919412967 5.566465440475 13.497961346070
4097 2 -1.200000000000 96.827702320927 6.679758528570 11.569681153774
4098 2 -1.200000000000 98.402136505007 7.793051616665 9.641400961479
4099 2 -1.200000000000 98.402136505007 4.453172352380 11.569681153774
4100 2 -1.200000000000 99.976570689087 5.566465440475 9.641400961479
4101 2 -1.200000000000 98.402136505007 7.793051616665 13.497961346070
4102 2 -1.200000000000 99.976570689087 8.906344704760 11.569681153774
4103 2 -1.200000000000 99.976570689087 5.566465440475 13.497961346070
4104 2 -1.200000000000 101.551004873167 6.679758528570 11.569681153774
4105 1 2.400000000000 97.614919412967 8.906344704760 7.713120769183
4106 1 2.400000000000 100.763787781127 7.793051616665 5.784840576887
4107 1 2.400000000000 100.763787781127 11.132930880950 7.713120769183
4108 1 2.400000000000 100.763787781127 7.793051616665 9.641400961479
4109 2 -1.200000000000 99.976570689087 8.906344704760 7.713120769183
4110 2 -1.200000000000 101.551004873167 10.019637792855 5.784840576887
4111 2 -1.200000000000 101.551004873167 6.679758528570 7.713120769183
4112 2 -1.200000000000 103.125439057247 7.793051616665 5.784840576887
4113 2 -1.200000000000 101.551004873167 10.019637792855 9.641400961479
4114 2 -1.200000000000 103.125439057247 11.132930880950 7.713120769183
4115 2 -1.200000000000 103.125439057247 7.793051616665 9.641400961479
4116 2 -1.200000000000 104.699873241327 8.906344704760 7.713120769183
4117 1 2.400000000000 100.763787781127 11.132930880950 3.856560384591
4118 1 2.400000000000 103.912656149287 10.019637792855 1.928280192296
4119 1 2.400000000000 103.912656149287 13.359517057139 3.856560384591
4120 1 2.400000000000 103.912656149287 10.019637792855 5.784840576887
4121 2 -1.200000000000 103.125439057247 11.132930880950 3.856560384591
4122 2 -1.200000000000 104.699873241327 12.246223969044 1.928280192296
4123 2 -1.200000000000 104.699873241327 8.906344704760 3.856560384591
4124 2 -1.200000000000 106.274307425407 10.019637792855 1.928280192296
4125 2 -1.200000000000 104.699873241327 12.246223969044 5.784840576887
4126 2 -1.200000000000 106.274307425407 13.359517057139 3.856560384591
4127 2 -1.200000000000 106.274307425407 10.019637792855 5.784840576887
4128 2 -1.200000000000 107.848741609487 11.132930880950 3.856560384591
4129 1 2.400000000000 103.912656149287 13.359517057139 0.000000000000
4130 1 2.400000000000 107.061524517447 12.246223969045 21.211082115253
4131 1 2.400000000000 107.061524517447 15.586103233329 0.000000000000
4132 1 2.400000000000 107.061524517447 12.246223969045 1.928280192296
4133 2 -1.200000000000 106.274307425407 13.359517057139 0.000000000000
4134 2 -1.200000000000 107.848741609487 14.472810145234 21.211082115253
4135 2 -1.200000000000 107.848741609487 11.132930880950 0.000000000000
4136 2 -1.200000000000 109.423175793568 12.246223969044 21.211082115253
4137 2 -1.200000000000 107.848741609487 14.472810145234 1.928280192296
4138 2 -1.200000000000 109.423175793568 15.586103233329 0.000000000000
4139 2 -1.200000000000 109.423175793568 12.246223969044 1.928280192296
4140 2 -1.200000000000 110.997609977648 13.359517057139 0.000000000000
4141 1 2.400000000000 94.466051044807 0.000000000000 15.426241538366
4142 1 2.400000000000 97.614919412967 25.605741026184 13.497961346070
4143 1 2.400000000000 97.614919412967 2.226586176190 15.426241538366
4144 1 2.400000000000 97.614919412967 25.605741026184 17.354521730661
4145 2 -1.200000000000 96.827702320927 0.000000000000 15.426241538366
4146 2 -1.200000000000 98.402136505007 1.113293088095 13.497961346070
4147 2 -1.200000000000 98.402136505007 24.492447938089 15.426241538366
4148 2 -1.200000000000 99.976570689087 25.605741026184 13.497961346070
4149 2 -1.200000000000 98.402136505007 1.113293088095 17.354521730661
4150 2 -1.200000000000 99.976570689087 2.226586176190 15.426241538366
4151 2 -1.200000000000 99.976570689087 25.605741026184 17.354521730661
4152 2 -1.200000000000 101.551004873167 0.000000000000 15.426241538366
4153 1 2.400000000000 97.614919412967 2.226586176190 11.569681153774
4154 1 2.400000000000 100.763787781127 1.113293088095 9.641400961479
4155 1 2.400000000000 100.763787781127 4.453172352380 11.569681153774
4156 1 2.400000000000 100.763787781127 1.113293088095 13.497961346070
4157 2 -1.200000000000 99.976570689087 2.226586176190 11.569681153774
4158 2 -1.200000000000 101.551004873167 3.339879264285 9.641400961479
4159 2 -1.200000000000 101.551004873167 0.000000000000 11.569681153774
4160 2 -1.200000000000 103.125439057247 1.113293088095 9.641400961479
4161 2 -1.200000000000 101.551004873167 3.339879264285 13.497961346070
4162 2 -1.200000000000 103.125439057247 4.453172352380 11.569681153774
4163 2 -1.200000000000 103.125439057247 1.113293088095 13.497961346070
4164 2 -1.200000000000 104.699873241327 2.226586176190 11.569681153774
4165 1 2.400000000000 100.763787781127 4.453172352380 7.713120769183
4166 1 2.400000000000 103.912656149287 3.339879264285 5.784840576887
4167 1 2.400000000000 103.912656149287 6.679758528570 7.713120769183
4168 1 2.400000000000 103.912656149287 3.339879264285 9.641400961479
4169 2 -1.200000000000 103.125439057247 4.453172352380 7.713120769183
4170 2 -1.200000000000 104.699873241327 5.566465440475 5.784840576887
4171 2 -1.200000000000 104.699873241327 2.226586176190 7.713120769183
4172 2 -1.200000000000 106.274307425407 3.339879264285 5.784840576887
4173 2 -1.200000000000 104.699873241327 5.566465440475 9.641400961479
4174 2 -1.200000000000 106.274307425407 6.679758528570 7.713120769183
4175 2 -1.200000000000 106.274307425407 3.339879264285 9.641400961479
4176 2 -1.200000000000 107.848741609487 4.453172352380 7.713120769183
4177 1 2.400000000000 103.912656149287 6.679758528570 3.856560384591
4178 1 2.400000000000 107.061524517447 5.566465440475 1.928280192296
4179 1 2.400000000000 107.061524517447 8.906344704760 3.856560384591
4180 1 2.400000000000 107.061524517447 5.566465440475 5.784840576887
4181 2 -1.200000000000 106.274307425407 6.679758528570 3.856560384591
4182 2 -1.200000000000 107.848741609487 7.793051616665 1.928280192296
4183 2 -1.200000000000 107.848741609487 4.453172352380 3.856560384591
4184 2 -1.200000000000 109.423175793568 5.566465440475 1.928280192296
4185 2 -1.200000000000 107.848741609487 7.793051616665 5.784840576887
4186 2 -1.200000000000 109.423175793568 8.906344704760 3.856560384591
4187 2 -1.200000000000 109.423175793568 5.566465440475 5.784840576887
4188 2 -1.200000000000 110.997609977648 6.679758528570 3.856560384591
4189 1 2.400000000000 107.061524517447 8.906344704760 0.000000000000
4190 1 2.400000000000 110.210392885608 7.793051616665 21.211082115253
4191 1 2.400000000000 110.210392885608 11.132930880950 0.000000000000
4192 1 2.400000000000 110.210392885608 7.793051616665 1.928280192296
4193 2 -1.200000000000 109.423175793568 8.906344704760 0.000000000000
4194 2 -1.200000000000 110.997609977648 10.019637792855 21.211082115253
4195 2 -1.200000000000 110.997609977648 6.679758528570 0.000000000000
4196 2 -1.200000000000 112.572044161728 7.793051616665 21.211082115253
4197 2 -1.200000000000 110.997609977648 10.019637792855 1.928280192296
4198 2 -1.200000000000 112.572044161728 11.132930880950 0.000000000000
4199 2 -1.200000000000 112.572044161728 7.793051616665 1.928280192296
4200 2 -1.200000000000 114.146478345808 8.906344704760 0.000000000000
4201 1 2.400000000000 103.912656149287 0.000000000000 7.713120769183
4202 1 2.400000000000 107.061524517447 25.605741026184 5.784840576887
4203 1 2.400000000000 107.061524517447 2.226586176190 7.713120769183
4204 1 2.400000000000 107.061524517447 25.605741026184 9.641400961479
4205 2 -1.200000000000 106.274307425407 0.000000000000 7.713120769183
4206 2 -1.200000000000 107.848741609487 1.113293088095 5.784840576887
4207 2 -1.200000000000 107.848741609487 24.492447938089 7.713120769183
4208 2 -1.200000000000 109.423175793568 25.605741026184 5.784840576887
4209 2 -1.200000000000 107.848741609487 1.113293088095 9.641400961479
4210 2 -1.200000000000 109.423175793568 2.226586176190 7.713120769183
4211 2 -1.200000000000 109.423175793568 25.605741026184 9.641400961479
4212 2 -1.200000000000 110.997609977648 0.000000000000 7.713120769183
4213 1 2.400000000000 107.061524517447 2.226586176190 3.856560384591
4214 1 2.400000000000 110.210392885608 1.113293088095 1.928280192296
4215 1 2.400000000000 110.210392885608 4.453172352380 3.856560384591
4216 1 2.400000000000 110.210392885608 1.113293088095 5.784840576887
4217 2 -1.200000000000 109.423175793568 2.226586176190 3.856560384591
4218 2 -1.200000000000 110.997609977648 3.339879264285 1.928280192296
4219 2 -1.200000000000 110.997609977648 0.000000000000 3.856560384591
4220 2 -1.200000000000 112.572044161728 1.113293088095 1.928280192296
4221 2 -1.200000000000 110.997609977648 3.339879264285 5.784840576887
4222 2 -1.200000000000 112.572044161728 4.453172352380 3.856560384591
4223 2 -1.200000000000 112.572044161728 1.113293088095 5.784840576887
4224 2 -1.200000000000 114.146478345808 2.226586176190 3.856560384591
4225 1 2.400000000000 110.210392885608 4.453172352380 0.000000000000
4226 1 2.400000000000 113.359261253768 3.339879264285 21.211082115253
4227 1 2.400000000000 113.359261253768 6.679758528570 0.000000000000
4228 1 2.400000000000 113.359261253768 3.339879264285 1.928280192296
4229 2 -1.200000000000 112.572044161728 4.453172352380 0.000000000000
4230 2 -1.200000000000 114.146478345808 5.566465440475 21.211082115253
4231 2 -1.200000000000 114.146478345808 2.226586176190 0.000000000000
4232 2 -1.200000000000 115.720912529888 3.339879264285 21.211082115253
4233 2 -1.200000000000 114.146478345808 5.566465440475 1.928280192296
4234 2 -1.200000000000 115.720912529888 6.679758528570 0.000000000000
4235 2 -1.200000000000 115.720912529888 3.339879264285 1.928280192296
4236 2 -1.200000000000 117.295346713968 4.453172352380 0.000000000000
4237 1 2.400000000000 113.359261253768 0.000000000000 0.000000000000
4238 1 2.400000000000 116.508129621928 25.605741026184 21.211082115253
4239 1 2.400000000000 116.508129621928 2.226586176190 0.000000000000
4240 1 2.400000000000 116.508129621928 25.605741026184 1.928280192296
4241 2 -1.200000000000 115.720912529888 0.000000000000 0.000000000000
4242 2 -1.200000000000 117.295346713968 1.113293088095 21.211082115253
4243 2 -1.200000000000 117.295346713968 24.492447938089 0.000000000000
4244 2 -1.200000000000 118.869780898048 25.605741026184 21.211082115253
4245 2 -1.200000000000 117.295346713968 1.113293088095 1.928280192296
4246 2 -1.200000000000 118.869780898048 2.226586176190 0.000000000000
4247 2 -1.200000000000 118.869780898048 25.605741026184 1.928280192296
4248 2 -1.200000000000 120.444215082128 0.000000000000 0.000000000000
4249 1 2.400000000000 81.870577572166 24.492447938089 19.282801922957
4250 1 2.400000000000 85.019445940326 23.379154849994 17.354521730661
4251 1 2.400000000000 85.019445940326 0.000000000000 19.282801922957
4252 1 2.400000000000 85.019445940326 23.379154849994 21.211082115253
4253 2 -1.200000000000 84.232228848286 24.492447938089 19.282801922957
4254 2 -1.200000000000 85.806663032366 25.605741026184 17.354521730661
4255 2 -1.200000000000 85.806663032366 22.265861761899 19.282801922957
4256 2 -1.200000000000 87.381097216446 23.379154849994 17.354521730661
4257 2 -1.200000000000 85.806663032366 25.605741026184 21.211082115253
4258 2 -1.200000000000 87.381097216446 0.000000000000 19.282801922957
4259 2 -1.200000000000 87.381097216446 23.379154849994 21.211082115253
4260 2 -1.200000000000 88.955531400526 24.492447938089 19.282801922957
4261 1 2.400000000000 85.019445940326 20.039275585709 19.282801922957
4262 1 2.400000000000 88.168314308486 18.925982497614 17.354521730661
4263 1 2.400000000000 88.168314308486 22.265861761899 19.282801922957
4264 1 2.400000000000 88.168314308486 18.925982497614 21.211082115253
4265 2 -1.200000000000 87.381097216446 20.039275585709 19.282801922957
4266 2 -1.200000000000 88.955531400526 21.152568673804 17.354521730661
4267 2 -1.200000000000 88.955531400526 17.812689409519 19.282801922957
4268 2 -1.200000000000 90.529965584606 18.925982497614 17.354521730661
4269 2 -1.200000000000 88.955531400526 21.152568673804 21.211082115253
4270 2 -1.200000000000 90.529965584606 22.265861761899 19.282801922957
4271 2 -1.200000000000 90.529965584606 18.925982497614 21.211082115253
4272 2 -1.200000000000 92.104399768686 20.039275585709 19.282801922957
4273 1 2.400000000000 88.168314308486 22.265861761899 15.426241538366
4274 1 2.400000000000 91.317182676646 21.152568673804 13.497961346070
4275 1 2.400000000000 91.317182676646 24.492447938089 15.426241538366
4276 1 2.400000000000 91.317182676646 21.152568673804 17.354521730661
4277 2 -1.200000000000 90.529965584606 22.265861761899 15.426241538366
4278 2 -1.200000000000 92.104399768686 23.379154849994 13.497961346070
4279 2 -1.200000000000 92.104399768686 20.039275585709 15.426241538366
4280 2 -1.200000000000 93.678833952767 21.152568673804 13.497961346070
4281 2 -1.200000000000 92.104399768686 23.379154849994 17.354521730661
4282 2 -1.200000000000 93.678833952767 24.492447938089 15.426241538366
4283 2 -1.200000000000 93.678833952766 21.152568673804 17.354521730661
4284 2 -1.200000000000 95.253268136847 22.265861761899 15.426241538366
4285 1 2.400000000000 91.317182676646 24.492447938089 11.569681153774
4286 1 2.400000000000 94.466051044807 23.379154849994 9.641400961479
4287 1 2.400000000000 94.466051044807 0.000000000000 11.569681153774
4288 1 2.400000000000 94.466051044807 23.379154849994 13.497961346070
4289 2 -1.200000000000 93.678833952767 24.492447938089 11.569681153774
4290 2 -1.200000000000 95.253268136847 25.605741026184 9.641400961479
4291 2 -1.200000000000 95.253268136847 22.265861761899 11.569681153774
4292 2 -1.200000000000 96.827702320927 23.379154849994 9.641400961479
4293 2 -1.200000000000 95.253268136847 25.605741026184 13.497961346070
4294 2 -1.200000000000 96.827702320927 0.000000000000 11.569681153774
4295 2 -1.200000000000 96.827702320927 23.379154849994 13.497961346070
4296 2 -1.200000000000 98.402136505007 24.492447938089 11.569681153774
4297 1 2.400000000000 88.168314308486 15.586103233329 19.282801922957
4298 1 2.400000000000 91.317182676646 14.472810145234 17.354521730661
4299 1 2.400000000000 91.317182676646 17.812689409519 19.282801922957
4300 1 2.400000000000 91.317182676646 14.472810145234 21.211082115253
4301 2 -1.200000000000 90.529965584606 15.586103233329 19.282801922957
4302 2 -1.200000000000 92.104399768686 16.699396321424 17.354521730661
4303 2 -1.200000000000 92.104399768686 13.359517057139 19.282801922957
4304 2 -1.200000000000 93.678833952766 14.472810145234 17.354521730661
4305 2 -1.200000000000 92.104399768686 16.699396321424 21.211082115253
4306 2 -1.200000000000 93.678833952766 17.812689409519 19.282801922957
4307 2 -1.200000000000 93.678833952766 14.472810145234 21.211082115253
4308 2 -1.200000000000 95.253268136847 15.586103233329 19.282801922957
4309 1 2.400000000000 91.317182676646 17.812689409519 15.426241538366
4310 1 2.400000000000 94.466051044807 16.699396321424 13.497961346070
4311 1 2.400000000000 94.466051044807 20.039275585709 15.426241538366
4312 1 2.400000000000 94.466051044807 16.699396321424 17.354521730661
4313 2 -1.200000000000 93.678833952767 17.812689409519 15.426241538366
4314 2 -1.200000000000 95.253268136847 18.925982497614 13.497961346070
4315 2 -1.200000000000 95.253268136847 15.586103233329 15.426241538366
4316 2 -1.200000000000 96.827702320927 16.699396321424 13.497961346070
4317 2 -1.200000000000 95.253268136847 18.925982497614 17.354521730661
4318 2 -1.200000000000 96.827702320927 20.039275585709 15.426241538366
4319 2 -1.200000000000 96.827702320927 16.699396321424 17.354521730661
4320 2 -1.200000000000 98.402136505007 17.812689409519 15.426241538366
4321 1 2.400000000000 94.466051044807 20.039275585709 11.569681153774
4322 1 2.400000000000 97.614919412967 18.925982497614 9.641400961479
4323 1 2.400000000000 97.614919412967 22.265861761899 11.569681153774
4324 1 2.400000000000 97.614919412967 18.925982497614 13.497961346070
4325 2 -1.200000000000 96.827702320927 20.039275585709 11.569681153774
4326 2 -1.200000000000 98.402136505007 21.152568673804 9.641400961479
4327 2 -1.200000000000 98.402136505007 17.812689409519 11.569681153774
4328 2 -1.200000000000 99.976570689087 18.925982497614 9.641400961479
4329 2 -1.200000000000 98.402136505007 21.152568673804 13.497961346070
4330 2 -1.200000000000 99.976570689087 22.265861761899 11.569681153774
4331 2 -1.200000000000 99.976570689087 18.925982497614 13.497961346070
4332 2 -1.200000000000 101.551004873167 20.039275585709 11.569681153774
4333 1 2.400000000000 97.614919412967 22.265861761899 7.713120769183
4334 1 2.400000000000 100.763787781127 21.152568673804 5.784840576887
4335 1 2.400000000000 100.763787781127 24.492447938089 7.713120769183
4336 1 2.400000000000 100.763787781127 21.152568673804 9.641400961479
4337 2 -1.200000000000 99.976570689087 22.265861761899 7.713120769183
4338 2 -1.200000000000 101.551004873167 23.379154849994 5.784840576887
4339 2 -1.200000000000 101.551004873167 20.039275585709 7.713120769183
4340 2 -1.200000000000 103.125439057247 21.152568673804 5.784840576887
4341 2 -1.200000000000 101.551004873167 23.379154849994 9.641400961479
4342 2 -1.200000000000 103.125439057247 24.492447938089 7.713120769183
4343 2 -1.200000000000 103.125439057247 21.152568673804 9.641400961479
4344 2 -1.200000000000 104.699873241327 22.265861761899 7.713120769183
4345 1 2.400000000000 100.763787781127 24.492447938089 3.856560384591
4346 1 2.400000000000 103.912656149287 23.379154849994 1.928280192296
4347 1 2.400000000000 103.912656149287 0.000000000000 3.856560384591
4348 1 2.400000000000 103.912656149287 23.379154849994 5.784840576887
4349 2 -1.200000000000 103.125439057247 24.492447938089 3.856560384591
4350 2 -1.200000000000 104.699873241327 25.605741026184 1.928280192296
4351 2 -1.200000000000 104.699873241327 22.265861761899 3.856560384591
4352 2 -1.200000000000 106.274307425407 23.379154849994 1.928280192296
4353 2 -1.200000000000 104.699873241327 25.605741026184 5.784840576887
4354 2 -1.200000000000 106.274307425407 0.000000000000 3.856560384591
4355 2 -1.200000000000 106.274307425407 23.379154849994 5.784840576887
4356 2 -1.200000000000 107.848741609487 24.492447938089 3.856560384591
4357 1 2.400000000000 91.317182676646 11.132930880950 19.282801922957
4358 1 2.400000000000 94.466051044807 10.019637792855 17.354521730661
4359 1 2.400000000000 94.466051044807 13.359517057139 19.282801922957
4360 1 2.400000000000 94.466051044807 10.019637792855 21.211082115253
4361 2 -1.200000000000 93.678833952767 11.132930880950 19.282801922957
4362 2 -1.200000000000 95.253268136847 12.246223969045 17.354521730661
4363 2 -1.200000000000 95.253268136847 8.906344704760 19.282801922957
4364 2 -1.200000000000 96.827702320927 10.019637792855 17.354521730661
4365 2 -1.200000000000 95.253268136847 12.246223969044 21.211082115253
4366 2 -1.200000000000 96.827702320927 13.359517057139 19.282801922957
4367 2 -1.200000000000 96.827702320927 10.019637792855 21.211082115253
4368 2 -1.200000000000 98.402136505007 11.132930880950 19.282801922957
4369 1 2.400000000000 94.466051044807 13.359517057139 15.426241538366
4370 1 2.400000000000 97.614919412967 12.246223969045 13.497961346070
4371 1 2.400000000000 97.614919412967 15.586103233329 15.426241538366
4372 1 2.400000000000 97.614919412967 12.246223969044 17.354521730661
4373 2 -1.200000000000 96.827702320927 13.359517057139 15.426241538366
4374 2 -1.200000000000 98.402136505007 14.472810145234 13.497961346070
4375 2 -1.200000000000 98.402136505007 11.132930880950 15.426241538366
4376 2 -1.200000000000 99.976570689087 12.246223969045 13.497961346070
4377 2 -1.200000000000 98.402136505007 14.472810145234 17.354521730661
4378 2 -1.200000000000 99.976570689087 15.586103233329 15.426241538366
4379 2 -1.200000000000 99.976570689087 12.246223969044 17.354521730661
4380 2 -1.200000000000 101.551004873167 13.359517057139 15.426241538366
4381 1 2.400000000000 97.614919412967 15.586103233329 11.569681153774
4382 1 2.400000000000 100.763787781127 14.472810145234 9.641400961479
4383 1 2.400000000000 100.763787781127 17.812689409519 11.569681153774
4384 1 2.400000000000 100.763787781127 14.472810145234 13.497961346070
4385 2 -1.200000000000 99.976570689087 15.586103233329 11.569681153774
4386 2 -1.200000000000 101.551004873167 16.699396321424 9.641400961479
4387 2 -1.200000000000 101.551004873167 13.359517057139 11.569681153774
4388 2 -1.200000000000 103.125439057247 14.472810145234 9.641400961479
4389 2 -1.200000000000 101.551004873167 16.699396321424 13.497961346070
4390 2 -1.200000000000 103.125439057247 17.812689409519 11.569681153774
4391 2 -1.200000000000 103.125439057247 14.472810145234 13.497961346070
4392 2 -1.200000000000 104.699873241327 15.586103233329 11.569681153774
4393 1 2.400000000000 100.763787781127 17.812689409519 7.713120769183
4394 1 2.400000000000 103.912656149287 16.699396321424 5.784840576887
4395 1 2.400000000000 103.912656149287 20.039275585709 7.713120769183
4396 1 2.400000000000 103.912656149287 16.699396321424 9.641400961479
4397 2 -1.200000000000 103.125439057247 17.812689409519 7.713120769183
4398 2 -1.200000000000 104.699873241327 18.925982497614 5.784840576887
4399 2 -1.200000000000 104.699873241327 15.586103233329 7.713120769183
4400 2 -1.200000000000 106.274307425407 16.699396321424 5.784840576887
4401 2 -1.200000000000 104.699873241327 18.925982497614 9.641400961479
4402 2 -1.200000000000 106.274307425407 20.039275585709 7.713120769183
4403 2 -1.200000000000 106.274307425407 16.699396321424 9.641400961479
4404 2 -1.200000000000 107.848741609487 17.812689409519 7.713120769183
4405 1 2.400000000000 103.912656149287 20.039275585709 3.856560384591
4406 1 2.400000000000 107.061524517447 18.925982497614 1.928280192296
4407 1 2.400000000000 107.061524517447 22.265861761899 3.856560384591
4408 1 2.400000000000 107.061524517447 18.925982497614 5.784840576887
4409 2 -1.200000000000 106.274307425407 20.039275585709 3.856560384591
4410 2 -1.200000000000 107.848741609487 21.152568673804 1.928280192296
4411 2 -1.200000000000 107.848741609487 17.812689409519 3.856560384591
4412 2 -1.200000000000 109.423175793568 18.925982497614 1.928280192296
4413 2 -1.200000000000 107.848741609487 21.152568673804 5.784840576887
4414 2 -1.200000000000 109.423175793568 22.265861761899 3.856560384591
4415 2 -1.200000000000 109.423175793568 18.925982497614 5.784840576887
4416 2 -1.200000000000 110.997609977648 20.039275585709 3.856560384591
4417 1 2.400000000000 107.061524517447 22.265861761899 0.000000000000
4418 1 2.400000000000 110.210392885608 21.152568673804 21.211082115253
4419 1 2.400000000000 110.210392885608 24.492447938089 0.000000000000
4420 1 2.400000000000 110.210392885608 21.152568673804 1.928280192296
4421 2 -1.200000000000 109.423175793568 22.265861761899 0.000000000000
4422 2 -1.200000000000 110.997609977648 23.379154849994 21.211082115253
4423 2 -1.200000000000 110.997609977648 20.039275585709 0.000000000000
4424 2 -1.200000000000 112.572044161728 21.152568673804 21.211082115253
4425 2 -1.200000000000 110.997609977648 23.379154849994 1.928280192296
4426 2 -1.200000000000 112.572044161728 24.492447938089 0.000000000000
4427 2 -1.200000000000 112.572044161728 21.152568673804 1.928280192296
4428 2 -1.200000000000 114.146478345808 22.265861761899 0.000000000000
4429 1 2.400000000000 94.466051044807 6.679758528570 19.282801922957
4430 1 2.400000000000 97.614919412967 5.566465440475 17.354521730661
4431 1 2.400000000000 97.614919412967 8.906344704760 19.282801922957
4432 1 2.400000000000 97.614919412967 5.566465440475 21.211082115253
4433 2 -1.200000000000 96.827702320927 6.679758528570 19.282801922957
4434 2 -1.200000000000 98.402136505007 7.793051616665 17.354521730661
4435 2 -1.200000000000 98.402136505007 4.453172352380 19.282801922957
4436 2 -1.200000000000 99.976570689087 5.566465440475 17.354521730661
4437 2 -1.200000000000 98.402136505007 7.793051616665 21.211082115253
4438 2 -1.200000000000 99.976570689087 8.906344704760 19.282801922957
4439 2 -1.200000000000 99.976570689087 5.566465440475 21.211082115253
4440 2 -1.200000000000 101.551004873167 6.679758528570 19.282801922957
4441 1 2.400000000000 97.614919412967 8.906344704760 15.426241538366
4442 1 2.400000000000 100.763787781127 7.793051616665 13.497961346070
4443 1 2.400000000000 100.763787781127 11.132930880950 15.426241538366
4444 1 2.400000000000 100.763787781127 7.793051616665 17.354521730661
4445 2 -1.200000000000 99.976570689087 8.906344704760 15.426241538366
4446 2 -1.200000000000 101.551004873167 10.019637792855 13.497961346070
4447 2 -1.200000000000 101.551004873167 6.679758528570 15.426241538366
4448 2 -1.200000000000 103.125439057247 7.793051616665 13.497961346070
4449 2 -1.200000000000 101.551004873167 10.019637792855 17.354521730661
4450 2 -1.200000000000 103.125439057247 11.132930880950 15.426241538366
4451 2 -1.200000000000 103.125439057247 7.793051616665 17.354521730661
4452 2 -1.200000000000 104.699873241327 8.906344704760 15.426241538366
4453 1 2.400000000000 100.763787781127 11.132930880950 11.569681153774
4454 1 2.400000000000 103.912656149287 10.019637792855 9.641400961479
4455 1 2.400000000000 103.912656149287 13.359517057139 11.569681153774
4456 1 2.400000000000 103.912656149287 10.019637792855 13.497961346070
4457 2 -1.200000000000 103.125439057247 11.132930880950 11.569681153774
4458 2 -1.200000000000 104.699873241327 12.246223969044 9.641400961479
4459 2 -1.200000000000 104.699873241327 8.906344704760 11.569681153774
4460 2 -1.200000000000 106.274307425407 10.019637792855 9.641400961479
4461 2 -1.200000000000 104.699873241327 12.246223969044 13.497961346070
4462 2 -1.200000000000 106.274307425407 13.359517057139 11.569681153774
4463 2 -1.200000000000 106.274307425407 10.019637792855 13.497961346070
4464 2 -1.200000000000 107.848741609487 11.132930880950 11.569681153774
4465 1 2.400000000000 103.912656149287 13.359517057139 7.713120769183
4466 1 2.400000000000 107.061524517447 12.246223969045 5.784840576887
4467 1 2.400000000000 107.061524517447 15.586103233329 7.713120769183
4468 1 2.400000000000 107.061524517447 12.246223969044 9.641400961479
4469 2 -1.200000000000 106.274307425407 13.359517057139 7.713120769183
4470 2 -1.200000000000 107.848741609487 14.472810145234 5.784840576887
4471 2 -1.200000000000 107.848741609487 11.132930880950 7.713120769183
4472 2 -1.200000000000 109.423175793568 12.246223969045 5.784840576887
4473 2 -1.200000000000 107.848741609487 14.472810145234 9.641400961479
4474 2 -1.200000000000 109.423175793568 15.586103233329 7.713120769183
4475 2 -1.200000000000 109.423175793568 12.246223969044 9.641400961479
4476 2 -1.200000000000 110.997609977648 13.359517057139 7.713120769183
4477 1 2.400000000000 107.061524517447 15.586103233329 3.856560384591
4478 1 2.400000000000 110.210392885608 14.472810145234 1.928280192296
4479 1 2.400000000000 110.210392885608 17.812689409519 3.856560384591
4480 1 2.400000000000 110.210392885608 14.472810145234 5.784840576887
4481 2 -1.200000000000 109.423175793568 15.586103233329 3.856560384591
4482 2 -1.200000000000 110.997609977648 16.699396321424 1.928280192296
4483 2 -1.200000000000 110.997609977648 13.359517057139 3.856560384591
4484 2 -1.200000000000 112.572044161728 14.472810145234 1.928280192296
4485 2 -1.200000000000 110.997609977648 16.699396321424 5.784840576887
4486 2 -1.200000000000 112.572044161728 17.812689409519 3.856560384591
4487 2 -1.200000000000 112.572044161728 14.472810145234 5.784840576887
4488 2 -1.200000000000 114.146478345808 15.586103233329 3.856560384591
4489 1 2.400000000000 110.210392885608 17.812689409519 0.000000000000
4490 1 2.400000000000 113.359261253768 16.699396321424 21.211082115253
4491 1 2.400000000000 113.359261253768 20.039275585709 0.000000000000
4492 1 2.400000000000 113.359261253768 16.699396321424 1.928280192296
4493 2 -1.200000000000 112.572044161728 17.812689409519 0.000000000000
4494 2 -1.200000000000 114.146478345808 18.925982497614 21.211082115253
4495 2 -1.200000000000 114.146478345808 15.586103233329 0.000000000000
4496 2 -1.200000000000 115.720912529888 16.699396321424 21.211082115253
4497 2 -1.200000000000 114.146478345808 18.925982497614 1.928280192296
4498 2 -1.200000000000 115.720912529888 20.039275585709 0.000000000000
4499 2 -1.200000000000 115.720912529888 16.699396321424 1.928280192296
4500 2 -1.200000000000 117.295346713968 17.812689409519 0.000000000000
4501 1 2.400000000000 97.614919412967 2.226586176190 19.282801922957
4502 1 2.400000000000 100.763787781127 1.113293088095 17.354521730661
4503 1 2.400000000000 100.763787781127 4.453172352380 19.282801922957
4504 1 2.400000000000 100.763787781127 1.113293088095 21.211082115253
4505 2 -1.200000000000 99.976570689087 2.226586176190 19.282801922957
4506 2 -1.200000000000 101.551004873167 3.339879264285 17.354521730661
4507 2 -1.200000000000 101.551004873167 0.000000000000 19.282801922957
4508 2 -1.200000000000 103.125439057247 1.113293088095 17.354521730661
4509 2 -1.200000000000 101.551004873167 3.339879264285 21.211082115253
4510 2 -1.200000000000 103.125439057247 4.453172352380 19.282801922957
4511 2 -1.200000000000 103.125439057247 1.113293088095 21.211082115253
4512 2 -1.200000000000 104.699873241327 2.226586176190 19.282801922957
4513 1 2.400000000000 100.763787781127 4.453172352380 15.426241538366
4514 1 2.400000000000 103.912656149287 3.339879264285 13.497961346070
4515 1 2.400000000000 103.912656149287 6.679758528570 15.426241538366
4516 1 2.400000000000 103.912656149287 3.339879264285 17.354521730661
4517 2 -1.200000000000 103.125439057247 4.453172352380 15.426241538366
4518 2 -1.200000000000 104.699873241327 5.566465440475 13.497961346070
4519 2 -1.200000000000 104.699873241327 2.226586176190 15.426241538366
4520 2 -1.200000000000 106.274307425407 3.339879264285 13.497961346070
4521 2 -1.200000000000 104.699873241327 5.566465440475 17.354521730661
4522 2 -1.200000000000 106.274307425407 6.679758528570 15.426241538366
4523 2 -1.200000000000 106.274307425407 3.339879264285 17.354521730661
4524 2 -1.200000000000 107.848741609487 4.453172352380 15.426241538366
4525 1 2.400000000000 103.912656149287 6.679758528570 11.569681153774
4526 1 2.400000000000 107.061524517447 5.566465440475 9.641400961479
4527 1 2.400000000000 107.061524517447 8.906344704760 11.569681153774
4528 1 2.400000000000 107.061524517447 5.566465440475 13.497961346070
4529 2 -1.200000000000 106.274307425407 6.679758528570 11.569681153774
4530 2 -1.200000000000 107.848741609487 7.793051616665 9.641400961479
4531 2 -1.200000000000 107.848741609487 4.453172352380 11.569681153774
4532 2 -1.200000000000 109.423175793568 5.566465440475 9.641400961479
4533 2 -1.200000000000 107.848741609487 7.793051616665 13.497961346070
4534 2 -1.200000000000 109.423175793568 8.906344704760 11.569681153774
4535 2 -1.200000000000 109.423175793568 5.566465440475 13.497961346070
4536 2 -1.200000000000 110.997609977648 6.679758528570 11.569681153774
4537 1 2.400000000000 107.061524517447 8.906344704760 7.713120769183
4538 1 2.400000000000 110.210392885608 7.793051616665 5.784840576887
4539 1 2.400000000000 110.210392885608 11.132930880950 7.713120769183
4540 1 2.400000000000 110.210392885608 7.793051616665 9.641400961479
4541 2 -1.200000000000 109.423175793568 8.906344704760 7.713120769183
4542 2 -1.200000000000 110.997609977648 10.019637792855 5.784840576887
4543 2 -1.200000000000 110.997609977648 6.679758528570 7.713120769183
4544 2 -1.200000000000 112.572044161728 7.793051616665 5.784840576887
4545 2 -1.200000000000 110.997609977648 10.019637792855 9.641400961479
4546 2 -1.200000000000 112.572044161728 11.132930880950 7.713120769183
4547 2 -1.200000000000 112.572044161728 7.793051616665 9.641400961479
4548 2 -1.200000000000 114.146478345808 8.906344704760 7.713120769183
4549 1 2.400000000000 110.210392885608 11.132930880950 3.856560384591
4550 1 2.400000000000 113.359261253768 10.019637792855 1.928280192296
4551 1 2.400000000000 113.359261253768 13.359517057139 3.856560384591
4552 1 2.400000000000 113.359261253768 10.019637792855 5.784840576887
4553 2 -1.200000000000 112.572044161728 11.132930880950 3.856560384591
4554 2 -1.200000000000 114.146478345808 12.246223969045 1.928280192296
4555 2 -1.200000000000 114.146478345808 8.906344704760 3.856560384591
4556 2 -1.200000000000 115.720912529888 10.019637792855 1.928280192296
4557 2 -1.200000000000 114.146478345808 12.246223969045 5.784840576887
4558 2 -1.200000000000 115.720912529888 13.359517057139 3.856560384591
4559 2 -1.200000000000 115.720912529888 10.019637792855 5.784840576887
4560 2 -1.200000000000 117.295346713968 11.132930880950 3.856560384591
4561 1 2.400000000000 113.359261253768 13.359517057139 0.000000000000
4562 1 2.400000000000 116.508129621928 12.246223969044 21.211082115253
4563 1 2.400000000000 116.508129621928 15.586103233329 0.000000000000
4564 1 2.400000000000 116.508129621928 12.246223969044 1.928280192296
4565 2 -1.200000000000 115.720912529888 13.359517057139 0.000000000000
4566 2 -1.200000000000 117.295346713968 14.472810145234 21.211082115253
4567 2 -1.200000000000 117.295346713968 11.132930880950 0.000000000000
4568 2 -1.200000000000 118.869780898048 12.246223969045 21.211082115253
4569 2 -1.200000000000 117.295346713968 14.472810145234 1.928280192296
4570 2 -1.200000000000 118.869780898048 15.586103233329 0.000000000000
4571 2 -1.200000000000 118.869780898048 12.246223969045 1.928280192296
4572 2 -1.200000000000 120.444215082128 13.359517057139 0.000000000000
4573 1 2.400000000000 103.912656149287 0.000000000000 15.426241538366
4574 1 2.400000000000 107.061524517447 25.605741026184 13.497961346070
4575 1 2.400000000000 107.061524517447 2.226586176190 15.426241538366
4576 1 2.400000000000 107.061524517447 25.605741026184 17.354521730661
4577 2 -1.200000000000 106.274307425407 0.000000000000 15.426241538366
4578 2 -1.200000000000 107.848741609487 1.113293088095 13.497961346070
4579 2 -1.200000000000 107.848741609487 24.492447938089 15.426241538366
4580 2 -1.200000000000 109.423175793568 25.605741026184 13.497961346070
4581 2 -1.200000000000 107.848741609487 1.113293088095 17.354521730661
4582 2 -1.200000000000 109.423175793568 2.226586176190 15.426241538366
4583 2 -1.200000000000 109.423175793568 25.605741026184 17.354521730661
4584 2 -1.200000000000 110.997609977648 0.000000000000 15.426241538366
4585 1 2.400000000000 107.061524517447 2.226586176190 11.569681153774
4586 1 2.400000000000 110.210392885608 1.113293088095 9.641400961479
4587 1 2.400000000000 110.210392885608 4.453172352380 11.569681153774
4588 1 2.400000000000 110.210392885608 1.113293088095 13.497961346070
4589 2 -1.200000000000 109.423175793568 2.226586176190 11.569681153774
4590 2 -1.200000000000 110.997609977648 3.339879264285 9.641400961479
4591 2 -1.200000000000 110.997609977648 0.000000000000 11.569681153774
4592 2 -1.200000000000 112.572044161728 1.113293088095 9.641400961479
4593 2 -1.200000000000 110.997609977648 3.339879264285 13.497961346070
4594 2 -1.200000000000 112.572044161728 4.453172352380 11.569681153774
4595 2 -1.200000000000 112.572044161728 1.113293088095 13.497961346070
4596 2 -1.200000000000 114.146478345808 2.226586176190 11.569681153774
4597 1 2.400000000000 110.210392885608 4.453172352380 7.713120769183
4598 1 2.400000000000 113.359261253768 3.339879264285 5.784840576887
4599 1 2.400000000000 113.359261253768 6.679758528570 7.713120769183
4600 1 2.400000000000 113.359261253768 3.339879264285 9.641400961479
4601 2 -1.200000000000 112.572044161728 4.453172352380 7.713120769183
4602 2 -1.200000000000 114.146478345808 5.566465440475 5.784840576887
4603 2 -1.200000000000 114.146478345808 2.226586176190 7.713120769183
4604 2 -1.200000000000 115.720912529888 3.339879264285 5.784840576887
4605 2 -1.200000000000 114.146478345808 5.566465440475 9.641400961479
4606 2 -1.200000000000 115.720912529888 6.679758528570 7.713120769183
4607 2 -1.200000000000 115.720912529888 3.339879264285 9.641400961479
4608 2 -1.200000000000 117.295346713968 4.453172352380 7.713120769183
4609 1 2.400000000000 113.359261253768 6.679758528570 3.856560384591
4610 1 2.400000000000 116.508129621928 5.566465440475 1.928280192296
4611 1 2.400000000000 116.508129621928 8.906344704760 3.856560384591
4612 1 2.400000000000 116.508129621928 5.566465440475 5.784840576887
4613 2 -1.200000000000 115.720912529888 6.679758528570 3.856560384591
4614 2 -1.200000000000 117.295346713968 7.793051616665 1.928280192296
4615 2 -1.200000000000 117.295346713968 4.453172352380 3.856560384591
4616 2 -1.200000000000 118.869780898048 5.566465440475 1.928280192296
4617 2 -1.200000000000 117.295346713968 7.793051616665 5.784840576887
4618 2 -1.200000000000 118.869780898048 8.906344704760 3.856560384591
4619 2 -1.200000000000 118.869780898048 5.566465440475 5.784840576887
4620 2 -1.200000000000 120.444215082128 6.679758528570 3.856560384591
4621 1 2.400000000000 116.508129621928 8.906344704760 0.000000000000
4622 1 2.400000000000 119.656997990088 7.793051616665 21.211082115253
4623 1 2.400000000000 119.656997990088 11.132930880950 0.000000000000
4624 1 2.400000000000 119.656997990088 7.793051616665 1.928280192296
4625 2 -1.200000000000 118.869780898048 8.906344704760 0.000000000000
4626 2 -1.200000000000 120.444215082128 10.019637792855 21.211082115253
4627 2 -1.200000000000 120.444215082128 6.679758528570 0.000000000000
4628 2 -1.200000000000 122.018649266208 7.793051616665 21.211082115253
4629 2 -1.200000000000 120.444215082128 10.019637792855 1.928280192296
4630 2 -1.200000000000 122.018649266208 11.132930880950 0.000000000000
4631 2 -1.200000000000 122.018649266208 7.793051616665 1.928280192296
4632 2 -1.200000000000 123.593083450289 8.906344704760 0.000000000000
4633 1 2.400000000000 113.359261253768 0.000000000000 7.713120769183
4634 1 2.400000000000 116.508129621928 25.605741026184 5.784840576887
4635 1 2.400000000000 116.508129621928 2.226586176190 7.713120769183
4636 1 2.400000000000 116.508129621928 25.605741026184 9.641400961479
4637 2 -1.200000000000 115.720912529888 0.000000000000 7.713120769183
4638 2 -1.200000000000 117.295346713968 1.113293088095 5.784840576887
4639 2 -1.200000000000 117.295346713968 24.492447938089 7.713120769183
4640 2 -1.200000000000 118.869780898048 25.605741026184 5.784840576887
4641 2 -1.200000000000 117.295346713968 1.113293088095 9.641400961479
4642 2 -1.200000000000 118.869780898048 2.226586176190 7.713120769183
4643 2 -1.200000000000 118.869780898048 25.605741026184 9.641400961479
4644 2 -1.200000000000 120.444215082128 0.000000000000 7.713120769183
4645 1 2.400000000000 116.508129621928 2.226586176190 3.856560384591
4646 1 2.400000000000 119.656997990088 1.113293088095 1.928280192296
4647 1 2.400000000000 119.656997990088 4.453172352380 3.856560384591
4648 1 2.400000000000 119.656997990088 1.113293088095 5.784840576887
4649 2 -1.200000000000 118.869780898048 2.226586176190 3.856560384591
4650 2 -1.200000000000 120.444215082128 3.339879264285 1.928280192296
4651 2 -1.200000000000 120.444215082128 0.000000000000 3.856560384591
4652 2 -1.200000000000 122.018649266208 1.113293088095 1.928280192296
4653 2 -1.200000000000 120.444215082128 3.339879264285 5.784840576887
4654 2 -1.200000000000 122.018649266208 4.453172352380 3.856560384591
4655 2 -1.200000000000 122.018649266208 1.113293088095 5.784840576887
4656 2 -1.200000000000 123.593083450289 2.226586176190 3.856560384591
4657 1 2.400000000000 119.656997990088 4.453172352380 0.000000000000
4658 1 2.400000000000 122.805866358249 3.339879264285 21.211082115253
4659 1 2.400000000000 122.805866358249 6.679758528570 0.000000000000
4660 1 2.400000000000 122.805866358249 3.339879264285 1.928280192296
4661 2 -1.200000000000 122.018649266208 4.453172352380 0.000000000000
4662 2 -1.200000000000 123.593083450289 5.566465440475 21.211082115253
4663 2 -1.200000000000 123.593083450289 2.226586176190 0.000000000000
4664 2 -1.200000000000 125.167517634369 3.339879264285 21.211082115253
4665 2 -1.200000000000 123.593083450289 5.566465440475 1.928280192296
4666 2 -1.200000000000 125.167517634369 6.679758528570 0.000000000000
4667 2 -1.200000000000 125.167517634369 3.339879264285 1.928280192296
4668 2 -1.200000000000 126.741951818449 4.453172352380 0.000000000000
4669 1 2.400000000000 122.805866358249 0.000000000000 0.000000000000
4670 1 2.400000000000 125.954734726409 25.605741026184 21.211082115253
4671 1 2.400000000000 125.954734726409 2.226586176190 0.000000000000
4672 1 2.400000000000 125.954734726409 25.605741026184 1.928280192296
4673 2 -1.200000000000 125.167517634369 0.000000000000 0.000000000000
4674 2 -1.200000000000 126.741951818449 1.113293088095 21.211082115253
4675 2 -1.200000000000 126.741951818449 24.492447938089 0.000000000000
4676 2 -1.200000000000 128.316386002529 25.605741026184 21.211082115253
4677 2 -1.200000000000 126.741951818449 1.113293088095 1.928280192296
4678 2 -1.200000000000 128.316386002529 2.226586176190 0.000000000000
4679 2 -1.200000000000 128.316386002529 25.605741026184 1.928280192296
4680 2 -1.200000000000 129.890820186609 0.000000000000 0.000000000000
4681 1 2.400000000000 91.317182676646 24.492447938089 19.282801922957
4682 1 2.400000000000 94.466051044807 23.379154849994 17.354521730661
4683 1 2.400000000000 94.466051044807 0.000000000000 19.282801922957
4684 1 2.400000000000 94.466051044807 23.379154849994 21.211082115253
4685 2 -1.200000000000 93.678833952767 24.492447938089 19.282801922957
4686 2 -1.200000000000 95.253268136847 25.605741026184 17.354521730661
4687 2 -1.200000000000 95.253268136847 22.265861761899 19.282801922957
4688 2 -1.200000000000 96.827702320927 23.379154849994 17.354521730661
4689 2 -1.200000000000 95.253268136847 25.605741026184 21.211082115253
4690 2 -1.200000000000 96.827702320927 0.000000000000 19.282801922957
4691 2 -1.200000000000 96.827702320927 23.379154849994 21.211082115253
4692 2 -1.200000000000 98.402136505007 24.492447938089 19.282801922957
4693 1 2.400000000000 94.466051044807 20.039275585709 19.282801922957
4694 1 2.400000000000 97.614919412967 18.925982497614 17.354521730661
4695 1 2.400000000000 97.614919412967 22.265861761899 19.282801922957
4696 1 2.400000000000 97.614919412967 18.925982497614 21.211082115253
4697 2 -1.200000000000 96.827702320927 20.039275585709 19.282801922957
4698 2 -1.200000000000 98.402136505007 21.152568673804 17.354521730661
4699 2 -1.200000000000 98.402136505007 17.812689409519 19.282801922957
4700 2 -1.200000000000 99.976570689087 18.925982497614 17.354521730661
4701 2 -1.200000000000 98.402136505007 21.152568673804 21.211082115253
4702 2 -1.200000000000 99.976570689087 22.265861761899 19.282801922957
4703 2 -1.200000000000 99.976570689087 18.925982497614 21.211082115253
4704 2 -1.200000000000 101.551004873167 20.039275585709 19.282801922957
4705 1 2.400000000000 97.614919412967 22.265861761899 15.426241538366
4706 1 2.400000000000 100.763787781127 21.152568673804 13.497961346070
4707 1 2.400000000000 100.763787781127 24.492447938089 15.426241538366
4708 1 2.400000000000 100.763787781127 21.152568673804 17.354521730661
4709 2 -1.200000000000 99.976570689087 22.265861761899 15.426241538366
4710 2 -1.200000000000 101.551004873167 23.379154849994 13.497961346070
4711 2 -1.200000000000 101.551004873167 20.039275585709 15.426241538366
4712 2 -1.200000000000 103.125439057247 21.152568673804 13.497961346070
4713 2 -1.200000000000 101.551004873167 23.379154849994 17.354521730661
4714 2 -1.200000000000 103.125439057247 24.492447938089 15.426241538366
4715 2 -1.200000000000 103.125439057247 21.152568673804 17.354521730661
4716 2 -1.200000000000 104.699873241327 22.265861761899 15.426241538366
4717 1 2.400000000000 100.763787781127 24.492447938089 11.569681153774
4718 1 2.400000000000 103.912656149287 23.379154849994 9.641400961479
4719 1 2.400000000000 103.912656149287 0.000000000000 11.569681153774
4720 1 2.400000000000 103.912656149287 23.379154849994 13.497961346070
4721 2 -1.200000000000 103.125439057247 24.492447938089 11.569681153774
4722 2 -1.200000000000 104.699873241327 25.605741026184 9.641400961479
4723 2 -1.200000000000 104.699873241327 22.265861761899 11.569681153774
4724 2 -1.200000000000 106.274307425407 23.379154849994 9.641400961479
4725 2 -1.200000000000 104.699873241327 25.605741026184 13.497961346070
4726 2 -1.200000000000 106.274307425407 0.000000000000 11.569681153774
4727 2 -1.200000000000 106.274307425407 23.379154849994 13.497961346070
4728 2 -1.200000000000 107.848741609487 24.492447938089 11.569681153774
4729 1 2.400000000000 97.614919412967 15.586103233329 19.282801922957
4730 1 2.400000000000 100.763787781127 14.472810145234 17.354521730661
4731 1 2.400000000000 100.763787781127 17.812689409519 19.282801922957
4732 1 2.400000000000 100.763787781127 14.472810145234 21.211082115253
4733 2 -1.200000000000 99.976570689087 15.586103233329 19.282801922957
4734 2 -1.200000000000 101.551004873167 16.699396321424 17.354521730661
4735 2 -1.200000000000 101.551004873167 13.359517057139 19.282801922957
4736 2 -1.200000000000 103.125439057247 14.472810145234 17.354521730661
4737 2 -1.200000000000 101.551004873167 16.699396321424 21.211082115253
4738 2 -1.200000000000 103.125439057247 17.812689409519 19.282801922957
4739 2 -1.200000000000 103.125439057247 14.472810145234 21.211082115253
4740 2 -1.200000000000 104.699873241327 15.586103233329 19.282801922957
4741 1 2.400000000000 100.763787781127 17.812689409519 15.426241538366
4742 1 2.400000000000 103.912656149287 16.699396321424 13.497961346070
4743 1 2.400000000000 103.912656149287 20.039275585709 15.426241538366
4744 1 2.400000000000 103.912656149287 16.699396321424 17.354521730661
4745 2 -1.200000000000 103.125439057247 17.812689409519 15.426241538366
4746 2 -1.200000000000 104.699873241327 18.925982497614 13.497961346070
4747 2 -1.200000000000 104.699873241327 15.586103233329 15.426241538366
4748 2 -1.200000000000 106.274307425407 16.699396321424 13.497961346070
4749 2 -1.200000000000 104.699873241327 18.925982497614 17.354521730661
4750 2 -1.200000000000 106.274307425407 20.039275585709 15.426241538366
4751 2 -1.200000000000 106.274307425407 16.699396321424 17.354521730661
4752 2 -1.200000000000 107.848741609487 17.812689409519 15.426241538366
4753 1 2.400000000000 103.912656149287 20.039275585709 11.569681153774
4754 1 2.400000000000 107.061524517447 18.925982497614 9.641400961479
4755 1 2.400000000000 107.061524517447 22.265861761899 11.569681153774
4756 1 2.400000000000 107.061524517447 18.925982497614 13.497961346070
4757 2 -1.200000000000 106.274307425407 20.039275585709 11.569681153774
4758 2 -1.200000000000 107.848741609487 21.152568673804 9.641400961479
4759 2 -1.200000000000 107.848741609487 17.812689409519 11.569681153774
4760 2 -1.200000000000 109.423175793568 18.925982497614 9.641400961479
4761 2 -1.200000000000 107.848741609487 21.152568673804 13.497961346070
4762 2 -1.200000000000 109.423175793568 22.265861761899 11.569681153774
4763 2 -1.200000000000 109.423175793568 18.925982497614 13.497961346070
4764 2 -1.200000000000 110.997609977648 20.039275585709 11.569681153774
4765 1 2.400000000000 107.061524517447 22.265861761899 7.713120769183
4766 1 2.400000000000 110.210392885608 21.152568673804 5.784840576887
4767 1 2.400000000000 110.210392885608 24.492447938089 7.713120769183
4768 1 2.400000000000 110.210392885608 21.152568673804 9.641400961479
4769 2 -1.200000000000 109.423175793568 22.265861761899 7.713120769183
4770 2 -1.200000000000 110.997609977648 23.379154849994 5.784840576887
4771 2 -1.200000000000 110.997609977648 20.039275585709 7.713120769183
4772 2 -1.200000000000 112.572044161728 21.152568673804 5.784840576887
4773 2 -1.200000000000 110.997609977648 23.379154849994 9.641400961479
4774 2 -1.200000000000 112.572044161728 24.492447938089 7.713120769183
4775 2 -1.200000000000 112.572044161728 21.152568673804 9.641400961479
4776 2 -1.200000000000 114.146478345808 22.265861761899 7.713120769183
4777 1 2.400000000000 110.210392885608 24.492447938089 3.856560384591
4778 1 2.400000000000 113.359261253768 23.379154849994 1.928280192296
4779 1 2.400000000000 113.359261253768 0.000000000000 3.856560384591
4780 1 2.400000000000 113.359261253768 23.379154849994 5.784840576887
4781 2 -1.200000000000 112.572044161728 24.492447938089 3.856560384591
4782 2 -1.200000000000 114.146478345808 25.605741026184 1.928280192296
4783 2 -1.200000000000 114.146478345808 22.265861761899 3.856560384591
4784 2 -1.200000000000 115.720912529888 23.379154849994 1.928280192296
4785 2 -1.200000000000 114.146478345808 25.605741026184 5.784840576887
4786 2 -1.200000000000 115.720912529888 0.000000000000 3.856560384591
4787 2 -1.200000000000 115.720912529888 23.379154849994 5.784840576887
4788 2 -1.200000000000 117.295346713968 24.492447938089 3.856560384591
4789 1 2.400000000000 100.763787781127 11.132930880950 19.282801922957
4790 1 2.400000000000 103.912656149287 10.019637792855 17.354521730661
4791 1 2.400000000000 103.912656149287 13.359517057139 19.282801922957
4792 1 2.400000000000 103.912656149287 10.019637792855 21.211082115253
4793 2 -1.200000000000 103.125439057247 11.132930880950 19.282801922957
4794 2 -1.200000000000 104.699873241327 12.246223969045 17.354521730661
4795 2 -1.200000000000 104.699873241327 8.906344704760 19.282801922957
4796 2 -1.200000000000 106.274307425407 10.019637792855 17.354521730661
4797 2 -1.200000000000 104.699873241327 12.246223969044 21.211082115253
4798 2 -1.200000000000 106.274307425407 13.359517057139 19.282801922957
4799 2 -1.200000000000 106.274307425407 10.019637792855 21.211082115253
4800 2 -1.200000000000 107.848741609487 11.132930880950 19.282801922957
4801 1 2.400000000000 103.912656149287 13.359517057139 15.426241538366
4802 1 2.400000000000 107.061524517447 12.246223969044 13.497961346070
4803 1 2.400000000000 107.061524517447 15.586103233329 15.426241538366
4804 1 2.400000000000 107.061524517447 12.246223969044 17.354521730661
4805 2 -1.200000000000 106.274307425407 13.359517057139 15.426241538366
4806 2 -1.200000000000 107.848741609487 14.472810145234 13.497961346070
4807 2 -1.200000000000 107.848741609487 11.132930880950 15.426241538366
4808 2 -1.200000000000 109.423175793568 12.246223969045 13.497961346070
4809 2 -1.200000000000 107.848741609487 14.472810145234 17.354521730661
4810 2 -1.200000000000 109.423175793568 15.586103233329 15.426241538366
4811 2 -1.200000000000 109.423175793568 12.246223969044 17.354521730661
4812 2 -1.200000000000 110.997609977648 13.359517057139 15.426241538366
4813 1 2.400000000000 107.061524517447 15.586103233329 11.569681153774
4814 1 2.400000000000 110.210392885608 14.472810145234 9.641400961479
4815 1 2.400000000000 110.210392885608 17.812689409519 11.569681153774
4816 1 2.400000000000 110.210392885608 14.472810145234 13.497961346070
4817 2 -1.200000000000 109.423175793568 15.586103233329 11.569681153774
4818 2 -1.200000000000 110.997609977648 16.699396321424 9.641400961479
4819 2 -1.200000000000 110.997609977648 13.359517057139 11.569681153774
4820 2 -1.200000000000 112.572044161728 14.472810145234 9.641400961479
4821 2 -1.200000000000 110.997609977648 16.699396321424 13.497961346070
4822 2 -1.200000000000 112.572044161728 17.812689409519 11.569681153774
4823 2 -1.200000000000 112.572044161728 14.472810145234 13.497961346070
4824 2 -1.200000000000 114.146478345808 15.586103233329 11.569681153774
4825 1 2.400000000000 110.210392885608 17.812689409519 7.713120769183
4826 1 2.400000000000 113.359261253768 16.699396321424 5.784840576887
4827 1 2.400000000000 113.359261253768 20.039275585709 7.713120769183
4828 1 2.400000000000 113.359261253768 16.699396321424 9.641400961479
4829 2 -1.200000000000 112.572044161728 17.812689409519 7.713120769183
4830 2 -1.200000000000 114.146478345808 18.925982497614 5.784840576887
4831 2 -1.200000000000 114.146478345808 15.586103233329 7.713120769183
4832 2 -1.200000000000 115.720912529888 16.699396321424 5.784840576887
4833 2 -1.200000000000 114.146478345808 18.925982497614 9.641400961479
4834 2 -1.200000000000 115.720912529888 20.039275585709 7.713120769183
4835 2 -1.200000000000 115.720912529888 16.699396321424 9.641400961479
4836 2 -1.200000000000 117.295346713968 17.812689409519 7.713120769183
4837 1 2.400000000000 113.359261253768 20.039275585709 3.856560384591
4838 1 2.400000000000 116.508129621928 18.925982497614 1.928280192296
4839 1 2.400000000000 116.508129621928 22.265861761899 3.856560384591
4840 1 2.400000000000 116.508129621928 18.925982497614 5.784840576887
4841 2 -1.200000000000 115.720912529888 20.039275585709 3.856560384591
4842 2 -1.200000000000 117.295346713968 21.152568673804 1.928280192296
4843 2 -1.200000000000 117.295346713968 17.812689409519 3.856560384591
4844 2 -1.200000000000 118.869780898048 18.925982497614 1.928280192296
4845 2 -1.200000000000 117.295346713968 21.152568673804 5.784840576887
4846 2 -1.200000000000 118.869780898048 22.265861761899 3.856560384591
4847 2 -1.200000000000 118.869780898048 18.925982497614 5.784840576887
4848 2 -1.200000000000 120.444215082128 20.039275585709 3.856560384591
4849 1 2.400000000000 116.508129621928 22.265861761899 0.000000000000
4850 1 2.400000000000 119.656997990088 21.152568673804 21.211082115253
4851 1 2.400000000000 119.656997990088 24.492447938089 0.000000000000
4852 1 2.400000000000 119.656997990088 21.152568673804 1.928280192296
4853 2 -1.200000000000 118.869780898048 22.265861761899 0.000000000000
4854 2 -1.200000000000 120.444215082128 23.379154849994 21.211082115253
4855 2 -1.200000000000 120.444215082128 20.039275585709 0.000000000000
4856 2 -1.200000000000 122.018649266208 21.152568673804 21.211082115253
4857 2 -1.200000000000 120.444215082128 23.379154849994 1.928280192296
4858 2 -1.200000000000 122.018649266208 24.492447938089 0.000000000000
4859 2 -1.200000000000 122.018649266208 21.152568673804 1.928280192296
4860 2 -1.200000000000 123.593083450289 22.265861761899 0.000000000000
4861 1 2.400000000000 103.912656149287 6.679758528570 19.282801922957
4862 1 2.400000000000 107.061524517447 5.566465440475 17.354521730661
4863 1 2.400000000000 107.061524517447 8.906344704760 19.282801922957
4864 1 2.400000000000 107.061524517447 5.566465440475 21.211082115253
4865 2 -1.200000000000 106.274307425407 6.679758528570 19.282801922957
4866 2 -1.200000000000 107.848741609487 7.793051616665 17.354521730661
4867 2 -1.200000000000 107.848741609487 4.453172352380 19.282801922957
4868 2 -1.200000000000 109.423175793568 5.566465440475 17.354521730661
4869 2 -1.200000000000 107.848741609487 7.793051616665 21.211082115253
4870 2 -1.200000000000 109.423175793568 8.906344704760 19.282801922957
4871 2 -1.200000000000 109.423175793568 5.566465440475 21.211082115253
4872 2 -1.200000000000 110.997609977648 6.679758528570 19.282801922957
4873 1 2.400000000000 107.061524517447 8.906344704760 15.426241538366
4874 1 2.400000000000 110.210392885608 7.793051616665 13.497961346070
4875 1 2.400000000000 110.210392885608 11.132930880950 15.426241538366
4876 1 2.400000000000 110.210392885608 7.793051616665 17.354521730661
4877 2 -1.200000000000 109.423175793568 8.906344704760 15.426241538366
4878 2 -1.200000000000 110.997609977648 10.019637792855 13.497961346070
4879 2 -1.200000000000 110.997609977648 6.679758528570 15.426241538366
4880 2 -1.200000000000 112.572044161728 7.793051616665 13.497961346070
4881 2 -1.200000000000 110.997609977648 10.019637792855 17.354521730661
4882 2 -1.200000000000 112.572044161728 11.132930880950 15.426241538366
4883 2 -1.200000000000 112.572044161728 7.793051616665 17.354521730661
4884 2 -1.200000000000 114.146478345808 8.906344704760 15.426241538366
4885 1 2.400000000000 110.210392885608 11.132930880950 11.569681153774
4886 1 2.400000000000 113.359261253768 10.019637792855 9.641400961479
4887 1 2.400000000000 113.359261253768 13.359517057139 11.569681153774
4888 1 2.400000000000 113.359261253768 10.019637792855 13.497961346070
4889 2 -1.200000000000 112.572044161728 11.132930880950 11.569681153774
4890 2 -1.200000000000 114.146478345808 12.246223969045 9.641400961479
4891 2 -1.200000000000 114.146478345808 8.906344704760 11.569681153774
4892 2 -1.200000000000 115.720912529888 10.019637792855 9.641400961479
4893 2 -1.200000000000 114.146478345808 12.246223969045 13.497961346070
4894 2 -1.200000000000 115.720912529888 13.359517057139 11.569681153774
4895 2 -1.200000000000 115.720912529888 10.019637792855 13.497961346070
4896 2 -1.200000000000 117.295346713968 11.132930880950 11.569681153774
4897 1 2.400000000000 113.359261253768 13.359517057139 7.713120769183
4898 1 2.400000000000 116.508129621928 12.246223969045 5.784840576887
4899 1 2.400000000000 116.508129621928 15.586103233329 7.713120769183
4900 1 2.400000000000 116.508129621928 12.246223969044 9.641400961479
4901 2 -1.200000000000 115.720912529888 13.359517057139 7.713120769183
4902 2 -1.200000000000 117.295346713968 14.472810145234 5.784840576887
4903 2 -1.200000000000 117.295346713968 11.132930880950 7.713120769183
4904 2 -1.200000000000 118.869780898048 12.246223969045 5.784840576887
4905 2 -1.200000000000 117.295346713968 14.472810145234 9.641400961479
4906 2 -1.200000000000 118.869780898048 15.586103233329 7.713120769183
4907 2 -1.200000000000 118.869780898048 12.246223969045 9.641400961479
4908 2 -1.200000000000 120.444215082128 13.359517057139 7.713120769183
4909 1 2.400000000000 116.508129621928 15.586103233329 3.856560384591
4910 1 2.400000000000 119.656997990088 14.472810145234 1.928280192296
4911 1 2.400000000000 119.656997990088 17.812689409519 3.856560384591
4912 1 2.400000000000 119.656997990088 14.472810145234 5.784840576887
4913 2 -1.200000000000 118.869780898048 15.586103233329 3.856560384591
4914 2 -1.200000000000 120.444215082128 16.699396321424 1.928280192296
4915 2 -1.200000000000 120.444215082128 13.359517057139 3.856560384591
4916 2 -1.200000000000 122.018649266208 14.472810145234 1.928280192296
4917 2 -1.200000000000 120.444215082128 16.699396321424 5.784840576887
4918 2 -1.200000000000 122.018649266208 17.812689409519 3.856560384591
4919 2 -1.200000000000 122.018649266208 14.472810145234 5.784840576887
4920 2 -1.200000000000 123.593083450289 15.586103233329 3.856560384591
4921 1 2.400000000000 119.656997990088 17.812689409519 0.000000000000
4922 1 2.400000000000 122.805866358249 16.699396321424 21.211082115253
4923 1 2.400000000000 122.805866358249 20.039275585709 0.000000000000
4924 1 2.400000000000 122.805866358249 16.699396321424 1.928280192296
4925 2 -1.200000000000 122.018649266208 17.812689409519 0.000000000000
4926 2 -1.200000000000 123.593083450289 18.925982497614 21.211082115253
4927 2 -1.200000000000 123.593083450289 15.586103233329 0.000000000000
4928 2 -1.200000000000 125.167517634369 16.699396321424 21.211082115253
4929 2 -1.200000000000 123.593083450289 18.925982497614 1.928280192296
4930 2 -1.200000000000 125.167517634369 20.039275585709 0.000000000000
4931 2 -1.200000000000 125.167517634369 16.699396321424 1.928280192296
4932 2 -1.200000000000 126.741951818449 17.812689409519 0.000000000000
4933 1 2.400000000000 107.061524517447 2.226586176190 19.282801922957
4934 1 2.400000000000 110.210392885608 1.113293088095 17.354521730661
4935 1 2.400000000000 110.210392885608 4.453172352380 19.282801922957
4936 1 2.400000000000 110.210392885608 1.113293088095 21.211082115253
4937 2 -1.200000000000 109.423175793568 2.226586176190 19.282801922957
4938 2 -1.200000000000 110.997609977648 3.339879264285 17.354521730661
4939 2 -1.200000000000 110.997609977648 0.000000000000 19.282801922957
4940 2 -1.200000000000 112.572044161728 1.113293088095 17.354521730661
4941 2 -1.200000000000 110.997609977648 3.339879264285 21.211082115253
4942 2 -1.200000000000 112.572044161728 4.453172352380 19.282801922957
4943 2 -1.200000000000 112.572044161728 1.113293088095 21.211082115253
4944 2 -1.200000000000 114.146478345808 2.226586176190 19.282801922957
4945 1 2.400000000000 110.210392885608 4.453172352380 15.426241538366
4946 1 2.400000000000 113.359261253768 3.339879264285 13.497961346070
4947 1 2.400000000000 113.359261253768 6.679758528570 15.426241538366
4948 1 2.400000000000 113.359261253768 3.339879264285 17.354521730661
4949 2 -1.200000000000 112.572044161728 4.453172352380 15.426241538366
4950 2 -1.200000000000 114.146478345808 5.566465440475 13.497961346070
4951 2 -1.200000000000 114.146478345808 2.226586176190 15.426241538366
4952 2 -1.200000000000 115.720912529888 3.339879264285 13.497961346070
4953 2 -1.200000000000 114.146478345808 5.566465440475 17.354521730661
4954 2 -1.200000000000 115.720912529888 6.679758528570 15.426241538366
4955 2 -1.200000000000 115.720912529888 3.339879264285 17.354521730661
4956 2 -1.200000000000 117.295346713968 4.453172352380 15.426241538366
4957 1 2.400000000000 113.359261253768 6.679758528570 11.569681153774
4958 1 2.400000000000 116.508129621928 5.566465440475 9.641400961479
4959 1 2.400000000000 116.508129621928 8.906344704760 11.569681153774
4960 1 2.400000000000 116.508129621928 5.566465440475 13.497961346070
4961 2 -1.200000000000 115.720912529888 6.679758528570 11.569681153774
4962 2 -1.200000000000 117.295346713968 7.793051616665 9.641400961479
4963 2 -1.200000000000 117.295346713968 4.453172352380 11.569681153774
4964 2 -1.200000000000 118.869780898048 5.566465440475 9.641400961479
4965 2 -1.200000000000 117.295346713968 7.793051616665 13.497961346070
4966 2 -1.200000000000 118.869780898048 8.906344704760 11.569681153774
4967 2 -1.200000000000 118.869780898048 5.566465440475 13.497961346070
4968 2 -1.200000000000 120.444215082128 6.679758528570 11.569681153774
4969 1 2.400000000000 116.508129621928 8.906344704760 7.713120769183
4970 1 2.400000000000 119.656997990088 7.793051616665 5.784840576887
4971 1 2.400000000000 119.656997990088 11.132930880950 7.713120769183
4972 1 2.400000000000 119.656997990088 7.793051616665 9.641400961479
4973 2 -1.200000000000 118.869780898048 8.906344704760 7.713120769183
4974 2 -1.200000000000 120.444215082128 10.019637792855 5.784840576887
4975 2 -1.200000000000 120.444215082128 6.679758528570 7.713120769183
4976 2 -1.200000000000 122.018649266208 7.793051616665 5.784840576887
4977 2 -1.200000000000 120.444215082128 10.019637792855 9.641400961479
4978 2 -1.200000000000 122.018649266208 11.132930880950 7.713120769183
4979 2 -1.200000000000 122.018649266208 7.793051616665 9.641400961479
4980 2 -1.200000000000 123.593083450289 8.906344704760 7.713120769183
4981 1 2.400000000000 119.656997990088 11.132930880950 3.856560384591
4982 1 2.400000000000 122.805866358249 10.019637792855 1.928280192296
4983 1 2.400000000000 122.805866358249 13.359517057139 3.856560384591
4984 1 2.400000000000 122.805866358249 10.019637792855 5.784840576887
4985 2 -1.200000000000 122.018649266208 11.132930880950 3.856560384591
4986 2 -1.200000000000 123.593083450289 12.246223969045 1.928280192296
4987 2 -1.200000000000 123.593083450289 8.906344704760 3.856560384591
4988 2 -1.200000000000 125.167517634369 10.019637792855 1.928280192296
4989 2 -1.200000000000 123.593083450289 12.246223969045 5.784840576887
4990 2 -1.200000000000 125.167517634369 13.359517057139 3.856560384591
4991 2 -1.200000000000 125.167517634369 10.019637792855 5.784840576887
4992 2 -1.200000000000 126.741951818449 11.132930880950 3.856560384591
4993 1 2.400000000000 122.805866358249 13.359517057139 0.000000000000
4994 1 2.400000000000 125.954734726409 12.246223969044 21.211082115253
4995 1 2.400000000000 125.954734726409 15.586103233329 0.000000000000
4996 1 2.400000000000 125.954734726409 12.246223969044 1.928280192296
4997 2 -1.200000000000 125.167517634369 13.359517057139 0.000000000000
4998 2 -1.200000000000 126.741951818449 14.472810145234 21.211082115253
4999 2 -1.200000000000 126.741951818449 11.132930880950 0.000000000000
5000 2 -1.200000000000 128.316386002529 12.246223969045 21.211082115253
5001 2 -1.200000000000 126.741951818449 14.472810145234 1.928280192296
5002 2 -1.200000000000 128.316386002529 15.586103233329 0.000000000000
5003 2 -1.200000000000 128.316386002529 12.246223969045 1.928280192296
5004 2 -1.200000000000 129.890820186609 13.359517057139 0.000000000000
5005 1 2.400000000000 113.359261253768 0.000000000000 15.426241538366
5006 1 2.400000000000 116.508129621928 25.605741026184 13.497961346070
5007 1 2.400000000000 116.508129621928 2.226586176190 15.426241538366
5008 1 2.400000000000 116.508129621928 25.605741026184 17.354521730661
5009 2 -1.200000000000 115.720912529888 0.000000000000 15.426241538366
5010 2 -1.200000000000 117.295346713968 1.113293088095 13.497961346070
5011 2 -1.200000000000 117.295346713968 24.492447938089 15.426241538366
5012 2 -1.200000000000 118.869780898048 25.605741026184 13.497961346070
5013 2 -1.200000000000 117.295346713968 1.113293088095 17.354521730661
5014 2 -1.200000000000 118.869780898048 2.226586176190 15.426241538366
5015 2 -1.200000000000 118.869780898048 25.605741026184 17.354521730661
5016 2 -1.200000000000 120.444215082128 0.000000000000 15.426241538366
5017 1 2.400000000000 116.508129621928 2.226586176190 11.569681153774
5018 1 2.400000000000 119.656997990088 1.113293088095 9.641400961479
5019 1 2.400000000000 119.656997990088 4.453172352380 11.569681153774
5020 1 2.400000000000 119.656997990088 1.113293088095 13.497961346070
5021 2 -1.200000000000 118.869780898048 2.226586176190 11.569681153774
5022 2 -1.200000000000 120.444215082128 3.339879264285 9.641400961479
5023 2 -1.200000000000 120.444215082128 0.000000000000 11.569681153774
5024 2 -1.200000000000 122.018649266208 1.113293088095 9.641400961479
5025 2 -1.200000000000 120.444215082128 3.339879264285 13.497961346070
5026 2 -1.200000000000 122.018649266208 4.453172352380 11.569681153774
5027 2 -1.200000000000 122.018649266208 1.113293088095 13.497961346070
5028 2 -1.200000000000 123.593083450289 2.226586176190 11.569681153774
5029 1 2.400000000000 119.656997990088 4.453172352380 7.713120769183
5030 1 2.400000000000 122.805866358249 3.339879264285 5.784840576887
5031 1 2.400000000000 122.805866358249 6.679758528570 7.713120769183
5032 1 2.400000000000 122.805866358249 3.339879264285 9.641400961479
5033 2 -1.200000000000 122.018649266208 4.453172352380 7.713120769183
5034 2 -1.200000000000 123.593083450289 5.566465440475 5.784840576887
5035 2 -1.200000000000 123.593083450289 2.226586176190 7.713120769183
5036 2 -1.200000000000 125.167517634369 3.339879264285 5.784840576887
5037 2 -1.200000000000 123.593083450289 5.566465440475 9.641400961479
5038 2 -1.200000000000 125.167517634369 6.679758528570 7.713120769183
5039 2 -1.200000000000 125.167517634369 3.339879264285 9.641400961479
5040 2 -1.200000000000 126.741951818449 4.453172352380 7.713120769183
5041 1 2.400000000000 122.805866358249 6.679758528570 3.856560384591
5042 1 2.400000000000 125.954734726409 5.566465440475 1.928280192296
5043 1 2.400000000000 125.954734726409 8.906344704760 3.856560384591
5044 1 2.400000000000 125.954734726409 5.566465440475 5.784840576887
5045 2 -1.200000000000 125.167517634369 6.679758528570 3.856560384591
5046 2 -1.200000000000 126.741951818449 7.793051616665 1.928280192296
5047 2 -1.200000000000 126.741951818449 4.453172352380 3.856560384591
5048 2 -1.200000000000 128.316386002529 5.566465440475 1.928280192296
5049 2 -1.200000000000 126.741951818449 7.793051616665 5.784840576887
5050 2 -1.200000000000 128.316386002529 8.906344704760 3.856560384591
5051 2 -1.200000000000 128.316386002529 5.566465440475 5.784840576887
5052 2 -1.200000000000 129.890820186609 6.679758528570 3.856560384591
5053 1 2.400000000000 122.805866358249 0.000000000000 7.713120769183
5054 1 2.400000000000 125.954734726409 25.605741026184 5.784840576887
5055 1 2.400000000000 125.954734726409 2.226586176190 7.713120769183
5056 1 2.400000000000 125.954734726409 25.605741026184 9.641400961479
5057 2 -1.200000000000 125.167517634369 0.000000000000 7.713120769183
5058 2 -1.200000000000 126.741951818449 1.113293088095 5.784840576887
5059 2 -1.200000000000 126.741951818449 24.492447938089 7.713120769183
5060 2 -1.200000000000 128.316386002529 25.605741026184 5.784840576887
5061 2 -1.200000000000 126.741951818449 1.113293088095 9.641400961479
5062 2 -1.200000000000 128.316386002529 2.226586176190 7.713120769183
5063 2 -1.200000000000 128.316386002529 25.605741026184 9.641400961479
5064 2 -1.200000000000 129.890820186609 0.000000000000 7.713120769183
5065 1 2.400000000000 100.763787781127 24.492447938089 19.282801922957
5066 1 2.400000000000 103.912656149287 23.379154849994 17.354521730661
5067 1 2.400000000000 103.912656149287 0.000000000000 19.282801922957
5068 1 2.400000000000 103.912656149287 23.379154849994 21.211082115253
5069 2 -1.200000000000 103.125439057247 24.492447938089 19.282801922957
5070 2 -1.200000000000 104.699873241327 25.605741026184 17.354521730661
5071 2 -1.200000000000 104.699873241327 22.265861761899 19.282801922957
5072 2 -1.200000000000 106.274307425407 23.379154849994 17.354521730661
5073 2 -1.200000000000 104.699873241327 25.605741026184 21.211082115253
5074 2 -1.200000000000 106.274307425407 0.000000000000 19.282801922957
5075 2 -1.200000000000 106.274307425407 23.379154849994 21.211082115253
5076 2 -1.200000000000 107.848741609487 24.492447938089 19.282801922957
5077 1 2.400000000000 103.912656149287 20.039275585709 19.282801922957
5078 1 2.400000000000 107.061524517447 18.925982497614 17.354521730661
5079 1 2.400000000000 107.061524517447 22.265861761899 19.282801922957
5080 1 2.400000000000 107.061524517447 18.925982497614 21.211082115253
5081 2 -1.200000000000 106.274307425407 20.039275585709 19.282801922957
5082 2 -1.200000000000 107.848741609487 21.152568673804 17.354521730661
5083 2 -1.200000000000 107.848741609487 17.812689409519 19.282801922957
5084 2 -1.200000000000 109.423175793568 18.925982497614 17.354521730661
5085 2 -1.200000000000 107.848741609487 21.152568673804 21.211082115253
5086 2 -1.200000000000 109.423175793568 22.265861761899 19.282801922957
5087 2 -1.200000000000 109.423175793568 18.925982497614 21.211082115253
5088 2 -1.200000000000 110.997609977648 20.039275585709 19.282801922957
5089 1 2.400000000000 107.061524517447 22.265861761899 15.426241538366
5090 1 2.400000000000 110.210392885608 21.152568673804 13.497961346070
5091 1 2.400000000000 110.210392885608 24.492447938089 15.426241538366
5092 1 2.400000000000 110.210392885608 21.152568673804 17.354521730661
5093 2 -1.200000000000 109.423175793568 22.265861761899 15.426241538366
5094 2 -1.200000000000 110.997609977648 23.379154849994 13.497961346070
5095 2 -1.200000000000 110.997609977648 20.039275585709 15.426241538366
5096 2 -1.200000000000 112.572044161728 21.152568673804 13.497961346070
5097 2 -1.200000000000 110.997609977648 23.379154849994 17.354521730661
5098 2 -1.200000000000 112.572044161728 24.492447938089 15.426241538366
5099 2 -1.200000000000 112.572044161728 21.152568673804 17.354521730661
5100 2 -1.200000000000 114.146478345808 22.265861761899 15.426241538366
5101 1 2.400000000000 110.210392885608 24.492447938089 11.569681153774
5102 1 2.400000000000 113.359261253768 23.379154849994 9.641400961479
5103 1 2.400000000000 113.359261253768 0.000000000000 11.569681153774
5104 1 2.400000000000 113.359261253768 23.379154849994 13.497961346070
5105 2 -1.200000000000 112.572044161728 24.492447938089 11.569681153774
5106 2 -1.200000000000 114.146478345808 25.605741026184 9.641400961479
5107 2 -1.200000000000 114.146478345808 22.265861761899 11.569681153774
5108 2 -1.200000000000 115.720912529888 23.379154849994 9.641400961479
5109 2 -1.200000000000 114.146478345808 25.605741026184 13.497961346070
5110 2 -1.200000000000 115.720912529888 0.000000000000 11.569681153774
5111 2 -1.200000000000 115.720912529888 23.379154849994 13.497961346070
5112 2 -1.200000000000 117.295346713968 24.492447938089 11.569681153774
5113 1 2.400000000000 107.061524517447 15.586103233329 19.282801922957
5114 1 2.400000000000 110.210392885608 14.472810145234 17.354521730661
5115 1 2.400000000000 110.210392885608 17.812689409519 19.282801922957
5116 1 2.400000000000 110.210392885608 14.472810145234 21.211082115253
5117 2 -1.200000000000 109.423175793568 15.586103233329 19.282801922957
5118 2 -1.200000000000 110.997609977648 16.699396321424 17.354521730661
5119 2 -1.200000000000 110.997609977648 13.359517057139 19.282801922957
5120 2 -1.200000000000 112.572044161728 14.472810145234 17.354521730661
5121 2 -1.200000000000 110.997609977648 16.699396321424 21.211082115253
5122 2 -1.200000000000 112.572044161728 17.812689409519 19.282801922957
5123 2 -1.200000000000 112.572044161728 14.472810145234 21.211082115253
5124 2 -1.200000000000 114.146478345808 15.586103233329 19.282801922957
5125 1 2.400000000000 110.210392885608 17.812689409519 15.426241538366
5126 1 2.400000000000 113.359261253768 16.699396321424 13.497961346070
5127 1 2.400000000000 113.359261253768 20.039275585709 15.426241538366
5128 1 2.400000000000 113.359261253768 16.699396321424 17.354521730661
5129 2 -1.200000000000 112.572044161728 17.812689409519 15.426241538366
5130 2 -1.200000000000 114.146478345808 18.925982497614 13.497961346070
5131 2 -1.200000000000 114.146478345808 15.586103233329 15.426241538366
5132 2 -1.200000000000 115.720912529888 16.699396321424 13.497961346070
5133 2 -1.200000000000 114.146478345808 18.925982497614 17.354521730661
5134 2 -1.200000000000 115.720912529888 20.039275585709 15.426241538366
5135 2 -1.200000000000 115.720912529888 16.699396321424 17.354521730661
5136 2 -1.200000000000 117.295346713968 17.812689409519 15.426241538366
5137 1 2.400000000000 113.359261253768 20.039275585709 11.569681153774
5138 1 2.400000000000 116.508129621928 18.925982497614 9.641400961479
5139 1 2.400000000000 116.508129621928 22.265861761899 11.569681153774
5140 1 2.400000000000 116.508129621928 18.925982497614 13.497961346070
5141 2 -1.200000000000 115.720912529888 20.039275585709 11.569681153774
5142 2 -1.200000000000 117.295346713968 21.152568673804 9.641400961479
5143 2 -1.200000000000 117.295346713968 17.812689409519 11.569681153774
5144 2 -1.200000000000 118.869780898048 18.925982497614 9.641400961479
5145 2 -1.200000000000 117.295346713968 21.152568673804 13.497961346070
5146 2 -1.200000000000 118.869780898048 22.265861761899 11.569681153774
5147 2 -1.200000000000 118.869780898048 18.925982497614 13.497961346070
5148 2 -1.200000000000 120.444215082128 20.039275585709 11.569681153774
5149 1 2.400000000000 116.508129621928 22.265861761899 7.713120769183
5150 1 2.400000000000 119.656997990088 21.152568673804 5.784840576887
5151 1 2.400000000000 119.656997990088 24.492447938089 7.713120769183
5152 1 2.400000000000 119.656997990088 21.152568673804 9.641400961479
5153 2 -1.200000000000 118.869780898048 22.265861761899 7.713120769183
5154 2 -1.200000000000 120.444215082128 23.379154849994 5.784840576887
5155 2 -1.200000000000 120.444215082128 20.039275585709 7.713120769183
5156 2 -1.200000000000 122.018649266208 21.152568673804 5.784840576887
5157 2 -1.200000000000 120.444215082128 23.379154849994 9.641400961479
5158 2 -1.200000000000 122.018649266208 24.492447938089 7.713120769183
5159 2 -1.200000000000 122.018649266208 21.152568673804 9.641400961479
5160 2 -1.200000000000 123.593083450289 22.265861761899 7.713120769183
5161 1 2.400000000000 119.656997990088 24.492447938089 3.856560384591
5162 1 2.400000000000 122.805866358249 23.379154849994 1.928280192296
5163 1 2.400000000000 122.805866358249 0.000000000000 3.856560384591
5164 1 2.400000000000 122.805866358249 23.379154849994 5.784840576887
5165 2 -1.200000000000 122.018649266208 24.492447938089 3.856560384591
5166 2 -1.200000000000 123.593083450289 25.605741026184 1.928280192296
5167 2 -1.200000000000 123.593083450289 22.265861761899 3.856560384591
5168 2 -1.200000000000 125.167517634369 23.379154849994 1.928280192296
5169 2 -1.200000000000 123.593083450289 25.605741026184 5.784840576887
5170 2 -1.200000000000 125.167517634369 0.000000000000 3.856560384591
5171 2 -1.200000000000 125.167517634369 23.379154849994 5.784840576887
5172 2 -1.200000000000 126.741951818449 24.492447938089 3.856560384591
5173 1 2.400000000000 110.210392885608 11.132930880950 19.282801922957
5174 1 2.400000000000 113.359261253768 10.019637792855 17.354521730661
5175 1 2.400000000000 113.359261253768 13.359517057139 19.282801922957
5176 1 2.400000000000 113.359261253768 10.019637792855 21.211082115253
5177 2 -1.200000000000 112.572044161728 11.132930880950 19.282801922957
5178 2 -1.200000000000 114.146478345808 12.246223969045 17.354521730661
5179 2 -1.200000000000 114.146478345808 8.906344704760 19.282801922957
5180 2 -1.200000000000 115.720912529888 10.019637792855 17.354521730661
5181 2 -1.200000000000 114.146478345808 12.246223969045 21.211082115253
5182 2 -1.200000000000 115.720912529888 13.359517057139 19.282801922957
5183 2 -1.200000000000 115.720912529888 10.019637792855 21.211082115253
5184 2 -1.200000000000 117.295346713968 11.132930880950 19.282801922957
5185 1 2.400000000000 113.359261253768 13.359517057139 15.426241538366
5186 1 2.400000000000 116.508129621928 12.246223969045 13.497961346070
5187 1 2.400000000000 116.508129621928 15.586103233329 15.426241538366
5188 1 2.400000000000 116.508129621928 12.246223969044 17.354521730661
5189 2 -1.200000000000 115.720912529888 13.359517057139 15.426241538366
5190 2 -1.200000000000 117.295346713968 14.472810145234 13.497961346070
5191 2 -1.200000000000 117.295346713968 11.132930880950 15.426241538366
5192 2 -1.200000000000 118.869780898048 12.246223969045 13.497961346070
5193 2 -1.200000000000 117.295346713968 14.472810145234 17.354521730661
5194 2 -1.200000000000 118.869780898048 15.586103233329 15.426241538366
5195 2 -1.200000000000 118.869780898048 12.246223969044 17.354521730661
5196 2 -1.200000000000 120.444215082128 13.359517057139 15.426241538366
5197 1 2.400000000000 116.508129621928 15.586103233329 11.569681153774
5198 1 2.400000000000 119.656997990088 14.472810145234 9.641400961479
5199 1 2.400000000000 119.656997990088 17.812689409519 11.569681153774
5200 1 2.400000000000 119.656997990088 14.472810145234 13.497961346070
5201 2 -1.200000000000 118.869780898048 15.586103233329 11.569681153774
5202 2 -1.200000000000 120.444215082128 16.699396321424 9.641400961479
5203 2 -1.200000000000 120.444215082128 13.359517057139 11.569681153774
5204 2 -1.200000000000 122.018649266208 14.472810145234 9.641400961479
5205 2 -1.200000000000 120.444215082128 16.699396321424 13.497961346070
5206 2 -1.200000000000 122.018649266208 17.812689409519 11.569681153774
5207 2 -1.200000000000 122.018649266208 14.472810145234 13.497961346070
5208 2 -1.200000000000 123.593083450289 15.586103233329 11.569681153774
5209 1 2.400000000000 119.656997990088 17.812689409519 7.713120769183
5210 1 2.400000000000 122.805866358249 16.699396321424 5.784840576887
5211 1 2.400000000000 122.805866358249 20.039275585709 7.713120769183
5212 1 2.400000000000 122.805866358249 16.699396321424 9.641400961479
5213 2 -1.200000000000 122.018649266208 17.812689409519 7.713120769183
5214 2 -1.200000000000 123.593083450289 18.925982497614 5.784840576887
5215 2 -1.200000000000 123.593083450289 15.586103233329 7.713120769183
5216 2 -1.200000000000 125.167517634369 16.699396321424 5.784840576887
5217 2 -1.200000000000 123.593083450289 18.925982497614 9.641400961479
5218 2 -1.200000000000 125.167517634369 20.039275585709 7.713120769183
5219 2 -1.200000000000 125.167517634369 16.699396321424 9.641400961479
5220 2 -1.200000000000 126.741951818449 17.812689409519 7.713120769183
5221 1 2.400000000000 122.805866358249 20.039275585709 3.856560384591
5222 1 2.400000000000 125.954734726409 18.925982497614 1.928280192296
5223 1 2.400000000000 125.954734726409 22.265861761899 3.856560384591
5224 1 2.400000000000 125.954734726409 18.925982497614 5.784840576887
5225 2 -1.200000000000 125.167517634369 20.039275585709 3.856560384591
5226 2 -1.200000000000 126.741951818449 21.152568673804 1.928280192296
5227 2 -1.200000000000 126.741951818449 17.812689409519 3.856560384591
5228 2 -1.200000000000 128.316386002529 18.925982497614 1.928280192296
5229 2 -1.200000000000 126.741951818449 21.152568673804 5.784840576887
5230 2 -1.200000000000 128.316386002529 22.265861761899 3.856560384591
5231 2 -1.200000000000 128.316386002529 18.925982497614 5.784840576887
5232 2 -1.200000000000 129.890820186609 20.039275585709 3.856560384591
5233 1 2.400000000000 113.359261253768 6.679758528570 19.282801922957
5234 1 2.400000000000 116.508129621928 5.566465440475 17.354521730661
5235 1 2.400000000000 116.508129621928 8.906344704760 19.282801922957
5236 1 2.400000000000 116.508129621928 5.566465440475 21.211082115253
5237 2 -1.200000000000 115.720912529888 6.679758528570 19.282801922957
5238 2 -1.200000000000 117.295346713968 7.793051616665 17.354521730661
5239 2 -1.200000000000 117.295346713968 4.453172352380 19.282801922957
5240 2 -1.200000000000 118.869780898048 5.566465440475 17.354521730661
5241 2 -1.200000000000 117.295346713968 7.793051616665 21.211082115253
5242 2 -1.200000000000 118.869780898048 8.906344704760 19.282801922957
5243 2 -1.200000000000 118.869780898048 5.566465440475 21.211082115253
5244 2 -1.200000000000 120.444215082128 6.679758528570 19.282801922957
5245 1 2.400000000000 116.508129621928 8.906344704760 15.426241538366
5246 1 2.400000000000 119.656997990088 7.793051616665 13.497961346070
5247 1 2.400000000000 119.656997990088 11.132930880950 15.426241538366
5248 1 2.400000000000 119.656997990088 7.793051616665 17.354521730661
5249 2 -1.200000000000 118.869780898048 8.906344704760 15.426241538366
5250 2 -1.200000000000 120.444215082128 10.019637792855 13.497961346070
5251 2 -1.200000000000 120.444215082128 6.679758528570 15.426241538366
5252 2 -1.200000000000 122.018649266208 7.793051616665 13.497961346070
5253 2 -1.200000000000 120.444215082128 10.019637792855 17.354521730661
5254 2 -1.200000000000 122.018649266208 11.132930880950 15.426241538366
5255 2 -1.200000000000 122.018649266208 7.793051616665 17.354521730661
5256 2 -1.200000000000 123.593083450289 8.906344704760 15.426241538366
5257 1 2.400000000000 119.656997990088 11.132930880950 11.569681153774
5258 1 2.400000000000 122.805866358249 10.019637792855 9.641400961479
5259 1 2.400000000000 122.805866358249 13.359517057139 11.569681153774
5260 1 2.400000000000 122.805866358249 10.019637792855 13.497961346070
5261 2 -1.200000000000 122.018649266208 11.132930880950 11.569681153774
5262 2 -1.200000000000 123.593083450289 12.246223969045 9.641400961479
5263 2 -1.200000000000 123.593083450289 8.906344704760 11.569681153774
5264 2 -1.200000000000 125.167517634369 10.019637792855 9.641400961479
5265 2 -1.200000000000 123.593083450289 12.246223969044 13.497961346070
5266 2 -1.200000000000 125.167517634369 13.359517057139 11.569681153774
5267 2 -1.200000000000 125.167517634369 10.019637792855 13.497961346070
5268 2 -1.200000000000 126.741951818449 11.132930880950 11.569681153774
5269 1 2.400000000000 122.805866358249 13.359517057139 7.713120769183
5270 1 2.400000000000 125.954734726409 12.246223969044 5.784840576887
5271 1 2.400000000000 125.954734726409 15.586103233329 7.713120769183
5272 1 2.400000000000 125.954734726409 12.246223969044 9.641400961479
5273 2 -1.200000000000 125.167517634369 13.359517057139 7.713120769183
5274 2 -1.200000000000 126.741951818449 14.472810145234 5.784840576887
5275 2 -1.200000000000 126.741951818449 11.132930880950 7.713120769183
5276 2 -1.200000000000 128.316386002529 12.246223969045 5.784840576887
5277 2 -1.200000000000 126.741951818449 14.472810145234 9.641400961479
5278 2 -1.200000000000 128.316386002529 15.586103233329 7.713120769183
5279 2 -1.200000000000 128.316386002529 12.246223969044 9.641400961479
5280 2 -1.200000000000 129.890820186609 13.359517057139 7.713120769183
5281 1 2.400000000000 116.508129621928 2.226586176190 19.282801922957
5282 1 2.400000000000 119.656997990088 1.113293088095 17.354521730661
5283 1 2.400000000000 119.656997990088 4.453172352380 19.282801922957
5284 1 2.400000000000 119.656997990088 1.113293088095 21.211082115253
5285 2 -1.200000000000 118.869780898048 2.226586176190 19.282801922957
5286 2 -1.200000000000 120.444215082128 3.339879264285 17.354521730661
5287 2 -1.200000000000 120.444215082128 0.000000000000 19.282801922957
5288 2 -1.200000000000 122.018649266208 1.113293088095 17.354521730661
5289 2 -1.200000000000 120.444215082128 3.339879264285 21.211082115253
5290 2 -1.200000000000 122.018649266208 4.453172352380 19.282801922957
5291 2 -1.200000000000 122.018649266208 1.113293088095 21.211082115253
5292 2 -1.200000000000 123.593083450289 2.226586176190 19.282801922957
5293 1 2.400000000000 119.656997990088 4.453172352380 15.426241538366
5294 1 2.400000000000 122.805866358249 3.339879264285 13.497961346070
5295 1 2.400000000000 122.805866358249 6.679758528570 15.426241538366
5296 1 2.400000000000 122.805866358249 3.339879264285 17.354521730661
5297 2 -1.200000000000 122.018649266208 4.453172352380 15.426241538366
5298 2 -1.200000000000 123.593083450289 5.566465440475 13.497961346070
5299 2 -1.200000000000 123.593083450289 2.226586176190 15.426241538366
5300 2 -1.200000000000 125.167517634369 3.339879264285 13.497961346070
5301 2 -1.200000000000 123.593083450289 5.566465440475 17.354521730661
5302 2 -1.200000000000 125.167517634369 6.679758528570 15.426241538366
5303 2 -1.200000000000 125.167517634369 3.339879264285 17.354521730661
5304 2 -1.200000000000 126.741951818449 4.453172352380 15.426241538366
5305 1 2.400000000000 122.805866358249 6.679758528570 11.569681153774
5306 1 2.400000000000 125.954734726409 5.566465440475 9.641400961479
5307 1 2.400000000000 125.954734726409 8.906344704760 11.569681153774
5308 1 2.400000000000 125.954734726409 5.566465440475 13.497961346070
5309 2 -1.200000000000 125.167517634369 6.679758528570 11.569681153774
5310 2 -1.200000000000 126.741951818449 7.793051616665 9.641400961479
5311 2 -1.200000000000 126.741951818449 4.453172352380 11.569681153774
5312 2 -1.200000000000 128.316386002529 5.566465440475 9.641400961479
5313 2 -1.200000000000 126.741951818449 7.793051616665 13.497961346070
5314 2 -1.200000000000 128.316386002529 8.906344704760 11.569681153774
5315 2 -1.200000000000 128.316386002529 5.566465440475 13.497961346070
5316 2 -1.200000000000 129.890820186609 6.679758528570 11.569681153774
5317 1 2.400000000000 122.805866358249 0.000000000000 15.426241538366
5318 1 2.400000000000 125.954734726409 25.605741026184 13.497961346070
5319 1 2.400000000000 125.954734726409 2.226586176190 15.426241538366
5320 1 2.400000000000 125.954734726409 25.605741026184 17.354521730661
5321 2 -1.200000000000 125.167517634369 0.000000000000 15.426241538366
5322 2 -1.200000000000 126.741951818449 1.113293088095 13.497961346070
5323 2 -1.200000000000 126.741951818449 24.492447938089 15.426241538366
5324 2 -1.200000000000 128.316386002529 25.605741026184 13.497961346070
5325 2 -1.200000000000 126.741951818449 1.113293088095 17.354521730661
5326 2 -1.200000000000 128.316386002529 2.226586176190 15.426241538366
5327 2 -1.200000000000 128.316386002529 25.605741026184 17.354521730661
5328 2 -1.200000000000 129.890820186609 0.000000000000 15.426241538366
5329 1 2.400000000000 110.210392885608 24.492447938089 19.282801922957
5330 1 2.400000000000 113.359261253768 23.379154849994 17.354521730661
5331 1 2.400000000000 113.359261253768 0.000000000000 19.282801922957
5332 1 2.400000000000 113.359261253768 23.379154849994 21.211082115253
5333 2 -1.200000000000 112.572044161728 24.492447938089 19.282801922957
5334 2 -1.200000000000 114.146478345808 25.605741026184 17.354521730661
5335 2 -1.200000000000 114.146478345808 22.265861761899 19.282801922957
5336 2 -1.200000000000 115.720912529888 23.379154849994 17.354521730661
5337 2 -1.200000000000 114.146478345808 25.605741026184 21.211082115253
5338 2 -1.200000000000 115.720912529888 0.000000000000 19.282801922957
5339 2 -1.200000000000 115.720912529888 23.379154849994 21.211082115253
5340 2 -1.200000000000 117.295346713968 24.492447938089 19.282801922957
5341 1 2.400000000000 113.359261253768 20.039275585709 19.282801922957
5342 1 2.400000000000 116.508129621928 18.925982497614 17.354521730661
5343 1 2.400000000000 116.508129621928 22.265861761899 19.282801922957
5344 1 2.400000000000 116.508129621928 18.925982497614 21.211082115253
5345 2 -1.200000000000 115.720912529888 20.039275585709 19.282801922957
5346 2 -1.200000000000 117.295346713968 21.152568673804 17.354521730661
5347 2 -1.200000000000 117.295346713968 17.812689409519 19.282801922957
5348 2 -1.200000000000 118.869780898048 18.925982497614 17.354521730661
5349 2 -1.200000000000 117.295346713968 21.152568673804 21.211082115253
5350 2 -1.200000000000 118.869780898048 22.265861761899 19.282801922957
5351 2 -1.200000000000 118.869780898048 18.925982497614 21.211082115253
5352 2 -1.200000000000 120.444215082128 20.039275585709 19.282801922957
5353 1 2.400000000000 116.508129621928 22.265861761899 15.426241538366
5354 1 2.400000000000 119.656997990088 21.152568673804 13.497961346070
5355 1 2.400000000000 119.656997990088 24.492447938089 15.426241538366
5356 1 2.400000000000 119.656997990088 21.152568673804 17.354521730661
5357 2 -1.200000000000 118.869780898048 22.265861761899 15.426241538366
5358 2 -1.200000000000 120.444215082128 23.379154849994 13.497961346070
5359 2 -1.200000000000 120.444215082128 20.039275585709 15.426241538366
5360 2 -1.200000000000 122.018649266208 21.152568673804 13.497961346070
5361 2 -1.200000000000 120.444215082128 23.379154849994 17.354521730661
5362 2 -1.200000000000 122.018649266208 24.492447938089 15.426241538366
5363 2 -1.200000000000 122.018649266208 21.152568673804 17.354521730661
5364 2 -1.200000000000 123.593083450289 22.265861761899 15.426241538366
5365 1 2.400000000000 119.656997990088 24.492447938089 11.569681153774
5366 1 2.400000000000 122.805866358249 23.379154849994 9.641400961479
5367 1 2.400000000000 122.805866358249 0.000000000000 11.569681153774
5368 1 2.400000000000 122.805866358249 23.379154849994 13.497961346070
5369 2 -1.200000000000 122.018649266208 24.492447938089 11.569681153774
5370 2 -1.200000000000 123.593083450289 25.605741026184 9.641400961479
5371 2 -1.200000000000 123.593083450289 22.265861761899 11.569681153774
5372 2 -1.200000000000 125.167517634369 23.379154849994 9.641400961479
5373 2 -1.200000000000 123.593083450289 25.605741026184 13.497961346070
5374 2 -1.200000000000 125.167517634369 0.000000000000 11.569681153774
5375 2 -1.200000000000 125.167517634369 23.379154849994 13.497961346070
5376 2 -1.200000000000 126.741951818449 24.492447938089 11.569681153774
5377 1 2.400000000000 116.508129621928 15.586103233329 19.282801922957
5378 1 2.400000000000 119.656997990088 14.472810145234 17.354521730661
5379 1 2.400000000000 119.656997990088 17.812689409519 19.282801922957
5380 1 2.400000000000 119.656997990088 14.472810145234 21.211082115253
5381 2 -1.200000000000 118.869780898048 15.586103233329 19.282801922957
5382 2 -1.200000000000 120.444215082128 16.699396321424 17.354521730661
5383 2 -1.200000000000 120.444215082128 13.359517057139 19.282801922957
5384 2 -1.200000000000 122.018649266208 14.472810145234 17.354521730661
5385 2 -1.200000000000 120.444215082128 16.699396321424 21.211082115253
5386 2 -1.200000000000 122.018649266208 17.812689409519 19.282801922957
5387 2 -1.200000000000 122.018649266208 14.472810145234 21.211082115253
5388 2 -1.200000000000 123.593083450289 15.586103233329 19.282801922957
5389 1 2.400000000000 119.656997990088 17.812689409519 15.426241538366
5390 1 2.400000000000 122.805866358249 16.699396321424 13.497961346070
5391 1 2.400000000000 122.805866358249 20.039275585709 15.426241538366
5392 1 2.400000000000 122.805866358249 16.699396321424 17.354521730661
5393 2 -1.200000000000 122.018649266208 17.812689409519 15.426241538366
5394 2 -1.200000000000 123.593083450289 18.925982497614 13.497961346070
5395 2 -1.200000000000 123.593083450289 15.586103233329 15.426241538366
5396 2 -1.200000000000 125.167517634369 16.699396321424 13.497961346070
5397 2 -1.200000000000 123.593083450289 18.925982497614 17.354521730661
5398 2 -1.200000000000 125.167517634369 20.039275585709 15.426241538366
5399 2 -1.200000000000 125.167517634369 16.699396321424 17.354521730661
5400 2 -1.200000000000 126.741951818449 17.812689409519 15.426241538366
5401 1 2.400000000000 122.805866358249 20.039275585709 11.569681153774
5402 1 2.400000000000 125.954734726409 18.925982497614 9.641400961479
5403 1 2.400000000000 125.954734726409 22.265861761899 11.569681153774
5404 1 2.400000000000 125.954734726409 18.925982497614 13.497961346070
5405 2 -1.200000000000 125.167517634369 20.039275585709 11.569681153774
5406 2 -1.200000000000 126.741951818449 21.152568673804 9.641400961479
5407 2 -1.200000000000 126.741951818449 17.812689409519 11.569681153774
5408 2 -1.200000000000 128.316386002529 18.925982497614 9.641400961479
5409 2 -1.200000000000 126.741951818449 21.152568673804 13.497961346070
5410 2 -1.200000000000 128.316386002529 22.265861761899 11.569681153774
5411 2 -1.200000000000 128.316386002529 18.925982497614 13.497961346070
5412 2 -1.200000000000 129.890820186609 20.039275585709 11.569681153774
5413 1 2.400000000000 119.656997990088 11.132930880950 19.282801922957
5414 1 2.400000000000 122.805866358249 10.019637792855 17.354521730661
5415 1 2.400000000000 122.805866358249 13.359517057139 19.282801922957
5416 1 2.400000000000 122.805866358249 10.019637792855 21.211082115253
5417 2 -1.200000000000 122.018649266208 11.132930880950 19.282801922957
5418 2 -1.200000000000 123.593083450289 12.246223969045 17.354521730661
5419 2 -1.200000000000 123.593083450289 8.906344704760 19.282801922957
5420 2 -1.200000000000 125.167517634369 10.019637792855 17.354521730661
5421 2 -1.200000000000 123.593083450289 12.246223969045 21.211082115253
5422 2 -1.200000000000 125.167517634369 13.359517057139 19.282801922957
5423 2 -1.200000000000 125.167517634369 10.019637792855 21.211082115253
5424 2 -1.200000000000 126.741951818449 11.132930880950 19.282801922957
5425 1 2.400000000000 122.805866358249 13.359517057139 15.426241538366
5426 1 2.400000000000 125.954734726409 12.246223969044 13.497961346070
5427 1 2.400000000000 125.954734726409 15.586103233329 15.426241538366
5428 1 2.400000000000 125.954734726409 12.246223969045 17.354521730661
5429 2 -1.200000000000 125.167517634369 13.359517057139 15.426241538366
5430 2 -1.200000000000 126.741951818449 14.472810145234 13.497961346070
5431 2 -1.200000000000 126.741951818449 11.132930880950 15.426241538366
5432 2 -1.200000000000 128.316386002529 12.246223969045 13.497961346070
5433 2 -1.200000000000 126.741951818449 14.472810145234 17.354521730661
5434 2 -1.200000000000 128.316386002529 15.586103233329 15.426241538366
5435 2 -1.200000000000 128.316386002529 12.246223969045 17.354521730661
5436 2 -1.200000000000 129.890820186609 13.359517057139 15.426241538366
5437 1 2.400000000000 122.805866358249 6.679758528570 19.282801922957
5438 1 2.400000000000 125.954734726409 5.566465440475 17.354521730661
5439 1 2.400000000000 125.954734726409 8.906344704760 19.282801922957
5440 1 2.400000000000 125.954734726409 5.566465440475 21.211082115253
5441 2 -1.200000000000 125.167517634369 6.679758528570 19.282801922957
5442 2 -1.200000000000 126.741951818449 7.793051616665 17.354521730661
5443 2 -1.200000000000 126.741951818449 4.453172352380 19.282801922957
5444 2 -1.200000000000 128.316386002529 5.566465440475 17.354521730661
5445 2 -1.200000000000 126.741951818449 7.793051616665 21.211082115253
5446 2 -1.200000000000 128.316386002529 8.906344704760 19.282801922957
5447 2 -1.200000000000 128.316386002529 5.566465440475 21.211082115253
5448 2 -1.200000000000 129.890820186609 6.679758528570 19.282801922957
5449 1 2.400000000000 119.656997990088 24.492447938089 19.282801922957
5450 1 2.400000000000 122.805866358249 23.379154849994 17.354521730661
5451 1 2.400000000000 122.805866358249 0.000000000000 19.282801922957
5452 1 2.400000000000 122.805866358249 23.379154849994 21.211082115253
5453 2 -1.200000000000 122.018649266208 24.492447938089 19.282801922957
5454 2 -1.200000000000 123.593083450289 25.605741026184 17.354521730661
5455 2 -1.200000000000 123.593083450289 22.265861761899 19.282801922957
5456 2 -1.200000000000 125.167517634369 23.379154849994 17.354521730661
5457 2 -1.200000000000 123.593083450289 25.605741026184 21.211082115253
5458 2 -1.200000000000 125.167517634369 0.000000000000 19.282801922957
5459 2 -1.200000000000 125.167517634369 23.379154849994 21.211082115253
5460 2 -1.200000000000 126.741951818449 24.492447938089 19.282801922957
5461 1 2.400000000000 122.805866358249 20.039275585709 19.282801922957
5462 1 2.400000000000 125.954734726409 18.925982497614 17.354521730661
5463 1 2.400000000000 125.954734726409 22.265861761899 19.282801922957
5464 1 2.400000000000 125.954734726409 18.925982497614 21.211082115253
5465 2 -1.200000000000 125.167517634369 20.039275585709 19.282801922957
5466 2 -1.200000000000 126.741951818449 21.152568673804 17.354521730661
5467 2 -1.200000000000 126.741951818449 17.812689409519 19.282801922957
5468 2 -1.200000000000 128.316386002529 18.925982497614 17.354521730661
5469 2 -1.200000000000 126.741951818449 21.152568673804 21.211082115253
5470 2 -1.200000000000 128.316386002529 22.265861761899 19.282801922957
5471 2 -1.200000000000 128.316386002529 18.925982497614 21.211082115253
5472 2 -1.200000000000 129.890820186609 20.039275585709 19.282801922957
