Crystalline OU atoms

6480 atoms
2 atom types
0.000000000000 123.409932306926 xlo xhi
0.000000000000 26.719034114279 ylo yhi
0.000000000000 28.339815313442 zlo zhi

Atoms

1 1 2.400000000000 7.713120769183 0.000000000000 0.000000000000
2 1 2.400000000000 5.784840576887 25.605741026184 3.148868368160
3 1 2.400000000000 9.641400961479 25.605741026184 3.148868368160
4 1 2.400000000000 7.713120769183 2.226586176190 3.148868368160
5 2 -1.200000000000 7.713120769183 0.000000000000 2.361651276120
6 2 -1.200000000000 7.713120769183 24.492447938089 3.936085460200
7 2 -1.200000000000 5.784840576887 1.113293088095 3.936085460200
8 2 -1.200000000000 5.784840576887 25.605741026184 5.510519644280
9 2 -1.200000000000 9.641400961479 1.113293088095 3.936085460200
10 2 -1.200000000000 9.641400961479 25.605741026184 5.510519644280
11 2 -1.200000000000 7.713120769183 2.226586176190 5.510519644280
12 2 -1.200000000000 7.713120769183 0.000000000000 7.084953828360
13 1 2.400000000000 3.856560384591 6.679758528570 0.000000000000
14 1 2.400000000000 1.928280192296 5.566465440475 3.148868368160
15 1 2.400000000000 5.784840576887 5.566465440475 3.148868368160
16 1 2.400000000000 3.856560384591 8.906344704760 3.148868368160
17 2 -1.200000000000 3.856560384591 6.679758528570 2.361651276120
18 2 -1.200000000000 3.856560384591 4.453172352380 3.936085460200
19 2 -1.200000000000 1.928280192296 7.793051616665 3.936085460200
20 2 -1.200000000000 1.928280192296 5.566465440475 5.510519644280
21 2 -1.200000000000 5.784840576887 7.793051616665 3.936085460200
22 2 -1.200000000000 5.784840576887 5.566465440475 5.510519644280
23 2 -1.200000000000 3.856560384591 8.906344704760 5.510519644280
24 2 -1.200000000000 3.856560384591 6.679758528570 7.084953828360
25 1 2.400000000000 3.856560384591 2.226586176190 3.148868368160
26 1 2.400000000000 1.928280192296 1.113293088095 6.297736736320
27 1 2.400000000000 5.784840576887 1.113293088095 6.297736736320
28 1 2.400000000000 3.856560384591 4.453172352380 6.297736736320
29 2 -1.200000000000 3.856560384591 2.226586176190 5.510519644280
30 2 -1.200000000000 3.856560384591 0.000000000000 7.084953828360
31 2 -1.200000000000 1.928280192296 3.339879264285 7.084953828360
32 2 -1.200000000000 1.928280192296 1.113293088095 8.659388012441
33 2 -1.200000000000 5.784840576887 3.339879264285 7.084953828360
34 2 -1.200000000000 5.784840576887 1.113293088095 8.659388012441
35 2 -1.200000000000 3.856560384591 4.453172352380 8.659388012441
36 2 -1.200000000000 3.856560384591 2.226586176190 10.233822196521
37 1 2.400000000000 15.426241538366 0.000000000000 0.000000000000
38 1 2.400000000000 13.497961346070 25.605741026184 3.148868368160
39 1 2.400000000000 17.354521730661 25.605741026184 3.148868368160
40 1 2.400000000000 15.426241538366 2.226586176190 3.148868368160
41 2 -1.200000000000 15.426241538366 0.000000000000 2.361651276120
42 2 -1.200000000000 15.426241538366 24.492447938089 3.936085460200
43 2 -1.200000000000 13.497961346070 1.113293088095 3.936085460200
44 2 -1.200000000000 13.497961346070 25.605741026184 5.510519644280
45 2 -1.200000000000 17.354521730661 1.113293088095 3.936085460200
46 2 -1.200000000000 17.354521730661 25.605741026184 5.510519644280
47 2 -1.200000000000 15.426241538366 2.226586176190 5.510519644280
48 2 -1.200000000000 15.426241538366 0.000000000000 7.084953828360
49 1 2.400000000000 11.569681153774 6.679758528570 0.000000000000
50 1 2.400000000000 9.641400961479 5.566465440475 3.148868368160
51 1 2.400000000000 13.497961346070 5.566465440475 3.148868368160
52 1 2.400000000000 11.569681153774 8.906344704760 3.148868368160
53 2 -1.200000000000 11.569681153774 6.679758528570 2.361651276120
54 2 -1.200000000000 11.569681153774 4.453172352380 3.936085460200
55 2 -1.200000000000 9.641400961479 7.793051616665 3.936085460200
56 2 -1.200000000000 9.641400961479 5.566465440475 5.510519644280
57 2 -1.200000000000 13.497961346070 7.793051616665 3.936085460200
58 2 -1.200000000000 13.497961346070 5.566465440475 5.510519644280
59 2 -1.200000000000 11.569681153774 8.906344704760 5.510519644280
60 2 -1.200000000000 11.569681153774 6.679758528570 7.084953828360
61 1 2.400000000000 11.569681153774 2.226586176190 3.148868368160
62 1 2.400000000000 9.641400961479 1.113293088095 6.297736736320
63 1 2.400000000000 13.497961346070 1.113293088095 6.297736736320
64 1 2.400000000000 11.569681153774 4.453172352380 6.297736736320
65 2 -1.200000000000 11.569681153774 2.226586176190 5.510519644280
66 2 -1.200000000000 11.569681153774 0.000000000000 7.084953828360
67 2 -1.200000000000 9.641400961479 3.339879264285 7.084953828360
68 2 -1.200000000000 9.641400961479 1.113293088095 8.659388012441
69 2 -1.200000000000 13.497961346070 3.339879264285 7.084953828360
70 2 -1.200000000000 13.497961346070 1.113293088095 8.659388012441
71 2 -1.200000000000 11.569681153774 4.453172352380 8.659388012441
72 2 -1.200000000000 11.569681153774 2.226586176190 10.233822196521
73 1 2.400000000000 7.713120769183 13.359517057139 0.000000000000
74 1 2.400000000000 5.784840576887 12.246223969045 3.148868368160
75 1 2.400000000000 9.641400961479 12.246223969045 3.148868368160
76 1 2.400000000000 7.713120769183 15.586103233329 3.148868368160
77 2 -1.200000000000 7.713120769183 13.359517057139 2.361651276120
78 2 -1.200000000000 7.713120769183 11.132930880950 3.936085460200
79 2 -1.200000000000 5.784840576887 14.472810145234 3.936085460200
80 2 -1.200000000000 5.784840576887 12.246223969045 5.510519644280
81 2 -1.200000000000 9.641400961479 14.472810145234 3.936085460200
82 2 -1.200000000000 9.641400961479 12.246223969045 5.510519644280
83 2 -1.200000000000 7.713120769183 15.586103233329 5.510519644280
84 2 -1.200000000000 7.713120769183 13.359517057139 7.084953828360
85 1 2.400000000000 7.713120769183 8.906344704760 3.148868368160
86 1 2.400000000000 5.784840576887 7.793051616665 6.297736736320
87 1 2.400000000000 9.641400961479 7.793051616665 6.297736736320
88 1 2.400000000000 7.713120769183 11.132930880950 6.297736736320
89 2 -1.200000000000 7.713120769183 8.906344704760 5.510519644280
90 2 -1.200000000000 7.713120769183 6.679758528570 7.084953828360
91 2 -1.200000000000 5.784840576887 10.019637792855 7.084953828360
92 2 -1.200000000000 5.784840576887 7.793051616665 8.659388012441
93 2 -1.200000000000 9.641400961479 10.019637792855 7.084953828360
94 2 -1.200000000000 9.641400961479 7.793051616665 8.659388012441
95 2 -1.200000000000 7.713120769183 11.132930880950 8.659388012441
96 2 -1.200000000000 7.713120769183 8.906344704760 10.233822196521
97 1 2.400000000000 7.713120769183 4.453172352380 6.297736736320
98 1 2.400000000000 5.784840576887 3.339879264285 9.446605104481
99 1 2.400000000000 9.641400961479 3.339879264285 9.446605104481
100 1 2.400000000000 7.713120769183 6.679758528570 9.446605104481
101 2 -1.200000000000 7.713120769183 4.453172352380 8.659388012441
102 2 -1.200000000000 7.713120769183 2.226586176190 10.233822196521
103 2 -1.200000000000 5.784840576887 5.566465440475 10.233822196521
104 2 -1.200000000000 5.784840576887 3.339879264285 11.808256380601
105 2 -1.200000000000 9.641400961479 5.566465440475 10.233822196521
106 2 -1.200000000000 9.641400961479 3.339879264285 11.808256380601
107 2 -1.200000000000 7.713120769183 6.679758528570 11.808256380601
108 2 -1.200000000000 7.713120769183 4.453172352380 13.382690564681
109 1 2.400000000000 7.713120769183 0.000000000000 9.446605104481
110 1 2.400000000000 5.784840576887 25.605741026184 12.595473472641
111 1 2.400000000000 9.641400961479 25.605741026184 12.595473472641
112 1 2.400000000000 7.713120769183 2.226586176190 12.595473472641
113 2 -1.200000000000 7.713120769183 0.000000000000 11.808256380601
114 2 -1.200000000000 7.713120769183 24.492447938089 13.382690564681
115 2 -1.200000000000 5.784840576887 1.113293088095 13.382690564681
116 2 -1.200000000000 5.784840576887 25.605741026184 14.957124748761
117 2 -1.200000000000 9.641400961479 1.113293088095 13.382690564681
118 2 -1.200000000000 9.641400961479 25.605741026184 14.957124748761
119 2 -1.200000000000 7.713120769183 2.226586176190 14.957124748761
120 2 -1.200000000000 7.713120769183 0.000000000000 16.531558932841
121 1 2.400000000000 3.856560384591 20.039275585709 0.000000000000
122 1 2.400000000000 1.928280192296 18.925982497614 3.148868368160
123 1 2.400000000000 5.784840576887 18.925982497614 3.148868368160
124 1 2.400000000000 3.856560384591 22.265861761899 3.148868368160
125 2 -1.200000000000 3.856560384591 20.039275585709 2.361651276120
126 2 -1.200000000000 3.856560384591 17.812689409519 3.936085460200
127 2 -1.200000000000 1.928280192296 21.152568673804 3.936085460200
128 2 -1.200000000000 1.928280192296 18.925982497614 5.510519644280
129 2 -1.200000000000 5.784840576887 21.152568673804 3.936085460200
130 2 -1.200000000000 5.784840576887 18.925982497614 5.510519644280
131 2 -1.200000000000 3.856560384591 22.265861761899 5.510519644280
132 2 -1.200000000000 3.856560384591 20.039275585709 7.084953828360
133 1 2.400000000000 3.856560384591 15.586103233329 3.148868368160
134 1 2.400000000000 1.928280192296 14.472810145234 6.297736736320
135 1 2.400000000000 5.784840576887 14.472810145234 6.297736736320
136 1 2.400000000000 3.856560384591 17.812689409519 6.297736736320
137 2 -1.200000000000 3.856560384591 15.586103233329 5.510519644280
138 2 -1.200000000000 3.856560384591 13.359517057139 7.084953828360
139 2 -1.200000000000 1.928280192296 16.699396321424 7.084953828360
140 2 -1.200000000000 1.928280192296 14.472810145234 8.659388012441
141 2 -1.200000000000 5.784840576887 16.699396321424 7.084953828360
142 2 -1.200000000000 5.784840576887 14.472810145234 8.659388012441
143 2 -1.200000000000 3.856560384591 17.812689409519 8.659388012441
144 2 -1.200000000000 3.856560384591 15.586103233329 10.233822196521
145 1 2.400000000000 3.856560384591 11.132930880950 6.297736736320
146 1 2.400000000000 1.928280192296 10.019637792855 9.446605104481
147 1 2.400000000000 5.784840576887 10.019637792855 9.446605104481
148 1 2.400000000000 3.856560384591 13.359517057139 9.446605104481
149 2 -1.200000000000 3.856560384591 11.132930880950 8.659388012441
150 2 -1.200000000000 3.856560384591 8.906344704760 10.233822196521
151 2 -1.200000000000 1.928280192296 12.246223969045 10.233822196521
152 2 -1.200000000000 1.928280192296 10.019637792855 11.808256380601
153 2 -1.200000000000 5.784840576887 12.246223969045 10.233822196521
154 2 -1.200000000000 5.784840576887 10.019637792855 11.808256380601
155 2 -1.200000000000 3.856560384591 13.359517057139 11.808256380601
156 2 -1.200000000000 3.856560384591 11.132930880950 13.382690564681
157 1 2.400000000000 3.856560384591 6.679758528570 9.446605104481
158 1 2.400000000000 1.928280192296 5.566465440475 12.595473472641
159 1 2.400000000000 5.784840576887 5.566465440475 12.595473472641
160 1 2.400000000000 3.856560384591 8.906344704760 12.595473472641
161 2 -1.200000000000 3.856560384591 6.679758528570 11.808256380601
162 2 -1.200000000000 3.856560384591 4.453172352380 13.382690564681
163 2 -1.200000000000 1.928280192296 7.793051616665 13.382690564681
164 2 -1.200000000000 1.928280192296 5.566465440475 14.957124748761
165 2 -1.200000000000 5.784840576887 7.793051616665 13.382690564681
166 2 -1.200000000000 5.784840576887 5.566465440475 14.957124748761
167 2 -1.200000000000 3.856560384591 8.906344704760 14.957124748761
168 2 -1.200000000000 3.856560384591 6.679758528570 16.531558932841
169 1 2.400000000000 3.856560384591 2.226586176190 12.595473472641
170 1 2.400000000000 1.928280192296 1.113293088095 15.744341840801
171 1 2.400000000000 5.784840576887 1.113293088095 15.744341840801
172 1 2.400000000000 3.856560384591 4.453172352380 15.744341840801
173 2 -1.200000000000 3.856560384591 2.226586176190 14.957124748761
174 2 -1.200000000000 3.856560384591 0.000000000000 16.531558932841
175 2 -1.200000000000 1.928280192296 3.339879264285 16.531558932841
176 2 -1.200000000000 1.928280192296 1.113293088095 18.105993116921
177 2 -1.200000000000 5.784840576887 3.339879264285 16.531558932841
178 2 -1.200000000000 5.784840576887 1.113293088095 18.105993116921
179 2 -1.200000000000 3.856560384591 4.453172352380 18.105993116921
180 2 -1.200000000000 3.856560384591 2.226586176190 19.680427301001
181 1 2.400000000000 23.139362307549 0.000000000000 0.000000000000
182 1 2.400000000000 21.211082115253 25.605741026184 3.148868368160
183 1 2.400000000000 25.067642499844 25.605741026184 3.148868368160
184 1 2.400000000000 23.139362307549 2.226586176190 3.148868368160
185 2 -1.200000000000 23.139362307549 0.000000000000 2.361651276120
186 2 -1.200000000000 23.139362307549 24.492447938089 3.936085460200
187 2 -1.200000000000 21.211082115253 1.113293088095 3.936085460200
188 2 -1.200000000000 21.211082115253 25.605741026184 5.510519644280
189 2 -1.200000000000 25.067642499844 1.113293088095 3.936085460200
190 2 -1.200000000000 25.067642499844 25.605741026184 5.510519644280
191 2 -1.200000000000 23.139362307549 2.226586176190 5.510519644280
192 2 -1.200000000000 23.139362307549 0.000000000000 7.084953828360
193 1 2.400000000000 19.282801922957 6.679758528570 0.000000000000
194 1 2.400000000000 17.354521730661 5.566465440475 3.148868368160
195 1 2.400000000000 21.211082115253 5.566465440475 3.148868368160
196 1 2.400000000000 19.282801922957 8.906344704760 3.148868368160
197 2 -1.200000000000 19.282801922957 6.679758528570 2.361651276120
198 2 -1.200000000000 19.282801922957 4.453172352380 3.936085460200
199 2 -1.200000000000 17.354521730661 7.793051616665 3.936085460200
200 2 -1.200000000000 17.354521730661 5.566465440475 5.510519644280
201 2 -1.200000000000 21.211082115253 7.793051616665 3.936085460200
202 2 -1.200000000000 21.211082115253 5.566465440475 5.510519644280
203 2 -1.200000000000 19.282801922957 8.906344704760 5.510519644280
204 2 -1.200000000000 19.282801922957 6.679758528570 7.084953828360
205 1 2.400000000000 19.282801922957 2.226586176190 3.148868368160
206 1 2.400000000000 17.354521730661 1.113293088095 6.297736736320
207 1 2.400000000000 21.211082115253 1.113293088095 6.297736736320
208 1 2.400000000000 19.282801922957 4.453172352380 6.297736736320
209 2 -1.200000000000 19.282801922957 2.226586176190 5.510519644280
210 2 -1.200000000000 19.282801922957 0.000000000000 7.084953828360
211 2 -1.200000000000 17.354521730661 3.339879264285 7.084953828360
212 2 -1.200000000000 17.354521730661 1.113293088095 8.659388012441
213 2 -1.200000000000 21.211082115253 3.339879264285 7.084953828360
214 2 -1.200000000000 21.211082115253 1.113293088095 8.659388012441
215 2 -1.200000000000 19.282801922957 4.453172352380 8.659388012441
216 2 -1.200000000000 19.282801922957 2.226586176190 10.233822196521
217 1 2.400000000000 15.426241538366 13.359517057139 0.000000000000
218 1 2.400000000000 13.497961346070 12.246223969044 3.148868368160
219 1 2.400000000000 17.354521730661 12.246223969044 3.148868368160
220 1 2.400000000000 15.426241538366 15.586103233329 3.148868368160
221 2 -1.200000000000 15.426241538366 13.359517057139 2.361651276120
222 2 -1.200000000000 15.426241538366 11.132930880950 3.936085460200
223 2 -1.200000000000 13.497961346070 14.472810145234 3.936085460200
224 2 -1.200000000000 13.497961346070 12.246223969044 5.510519644280
225 2 -1.200000000000 17.354521730661 14.472810145234 3.936085460200
226 2 -1.200000000000 17.354521730661 12.246223969044 5.510519644280
227 2 -1.200000000000 15.426241538366 15.586103233329 5.510519644280
228 2 -1.200000000000 15.426241538366 13.359517057139 7.084953828360
229 1 2.400000000000 15.426241538366 8.906344704760 3.148868368160
230 1 2.400000000000 13.497961346070 7.793051616665 6.297736736320
231 1 2.400000000000 17.354521730661 7.793051616665 6.297736736320
232 1 2.400000000000 15.426241538366 11.132930880950 6.297736736320
233 2 -1.200000000000 15.426241538366 8.906344704760 5.510519644280
234 2 -1.200000000000 15.426241538366 6.679758528570 7.084953828360
235 2 -1.200000000000 13.497961346070 10.019637792855 7.084953828360
236 2 -1.200000000000 13.497961346070 7.793051616665 8.659388012441
237 2 -1.200000000000 17.354521730661 10.019637792855 7.084953828360
238 2 -1.200000000000 17.354521730661 7.793051616665 8.659388012441
239 2 -1.200000000000 15.426241538366 11.132930880950 8.659388012441
240 2 -1.200000000000 15.426241538366 8.906344704760 10.233822196521
241 1 2.400000000000 15.426241538366 4.453172352380 6.297736736320
242 1 2.400000000000 13.497961346070 3.339879264285 9.446605104481
243 1 2.400000000000 17.354521730661 3.339879264285 9.446605104481
244 1 2.400000000000 15.426241538366 6.679758528570 9.446605104481
245 2 -1.200000000000 15.426241538366 4.453172352380 8.659388012441
246 2 -1.200000000000 15.426241538366 2.226586176190 10.233822196521
247 2 -1.200000000000 13.497961346070 5.566465440475 10.233822196521
248 2 -1.200000000000 13.497961346070 3.339879264285 11.808256380601
249 2 -1.200000000000 17.354521730661 5.566465440475 10.233822196521
250 2 -1.200000000000 17.354521730661 3.339879264285 11.808256380601
251 2 -1.200000000000 15.426241538366 6.679758528570 11.808256380601
252 2 -1.200000000000 15.426241538366 4.453172352380 13.382690564681
253 1 2.400000000000 15.426241538366 0.000000000000 9.446605104481
254 1 2.400000000000 13.497961346070 25.605741026184 12.595473472641
255 1 2.400000000000 17.354521730661 25.605741026184 12.595473472641
256 1 2.400000000000 15.426241538366 2.226586176190 12.595473472641
257 2 -1.200000000000 15.426241538366 0.000000000000 11.808256380601
258 2 -1.200000000000 15.426241538366 24.492447938089 13.382690564681
259 2 -1.200000000000 13.497961346070 1.113293088095 13.382690564681
260 2 -1.200000000000 13.497961346070 25.605741026184 14.957124748761
261 2 -1.200000000000 17.354521730661 1.113293088095 13.382690564681
262 2 -1.200000000000 17.354521730661 25.605741026184 14.957124748761
263 2 -1.200000000000 15.426241538366 2.226586176190 14.957124748761
264 2 -1.200000000000 15.426241538366 0.000000000000 16.531558932841
265 1 2.400000000000 11.569681153774 20.039275585709 0.000000000000
266 1 2.400000000000 9.641400961479 18.925982497614 3.148868368160
267 1 2.400000000000 13.497961346070 18.925982497614 3.148868368160
268 1 2.400000000000 11.569681153774 22.265861761899 3.148868368160
269 2 -1.200000000000 11.569681153774 20.039275585709 2.361651276120
270 2 -1.200000000000 11.569681153774 17.812689409519 3.936085460200
271 2 -1.200000000000 9.641400961479 21.152568673804 3.936085460200
272 2 -1.200000000000 9.641400961479 18.925982497614 5.510519644280
273 2 -1.200000000000 13.497961346070 21.152568673804 3.936085460200
274 2 -1.200000000000 13.497961346070 18.925982497614 5.510519644280
275 2 -1.200000000000 11.569681153774 22.265861761899 5.510519644280
276 2 -1.200000000000 11.569681153774 20.039275585709 7.084953828360
277 1 2.400000000000 11.569681153774 15.586103233329 3.148868368160
278 1 2.400000000000 9.641400961479 14.472810145234 6.297736736320
279 1 2.400000000000 13.497961346070 14.472810145234 6.297736736320
280 1 2.400000000000 11.569681153774 17.812689409519 6.297736736320
281 2 -1.200000000000 11.569681153774 15.586103233329 5.510519644280
282 2 -1.200000000000 11.569681153774 13.359517057139 7.084953828360
283 2 -1.200000000000 9.641400961479 16.699396321424 7.084953828360
284 2 -1.200000000000 9.641400961479 14.472810145234 8.659388012441
285 2 -1.200000000000 13.497961346070 16.699396321424 7.084953828360
286 2 -1.200000000000 13.497961346070 14.472810145234 8.659388012441
287 2 -1.200000000000 11.569681153774 17.812689409519 8.659388012441
288 2 -1.200000000000 11.569681153774 15.586103233329 10.233822196521
289 1 2.400000000000 11.569681153774 11.132930880950 6.297736736320
290 1 2.400000000000 9.641400961479 10.019637792855 9.446605104481
291 1 2.400000000000 13.497961346070 10.019637792855 9.446605104481
292 1 2.400000000000 11.569681153774 13.359517057139 9.446605104481
293 2 -1.200000000000 11.569681153774 11.132930880950 8.659388012441
294 2 -1.200000000000 11.569681153774 8.906344704760 10.233822196521
295 2 -1.200000000000 9.641400961479 12.246223969044 10.233822196521
296 2 -1.200000000000 9.641400961479 10.019637792855 11.808256380601
297 2 -1.200000000000 13.497961346070 12.246223969045 10.233822196521
298 2 -1.200000000000 13.497961346070 10.019637792855 11.808256380601
299 2 -1.200000000000 11.569681153774 13.359517057139 11.808256380601
300 2 -1.200000000000 11.569681153774 11.132930880950 13.382690564681
301 1 2.400000000000 11.569681153774 6.679758528570 9.446605104481
302 1 2.400000000000 9.641400961479 5.566465440475 12.595473472641
303 1 2.400000000000 13.497961346070 5.566465440475 12.595473472641
304 1 2.400000000000 11.569681153774 8.906344704760 12.595473472641
305 2 -1.200000000000 11.569681153774 6.679758528570 11.808256380601
306 2 -1.200000000000 11.569681153774 4.453172352380 13.382690564681
307 2 -1.200000000000 9.641400961479 7.793051616665 13.382690564681
308 2 -1.200000000000 9.641400961479 5.566465440475 14.957124748761
309 2 -1.200000000000 13.497961346070 7.793051616665 13.382690564681
310 2 -1.200000000000 13.497961346070 5.566465440475 14.957124748761
311 2 -1.200000000000 11.569681153774 8.906344704760 14.957124748761
312 2 -1.200000000000 11.569681153774 6.679758528570 16.531558932841
313 1 2.400000000000 11.569681153774 2.226586176190 12.595473472641
314 1 2.400000000000 9.641400961479 1.113293088095 15.744341840801
315 1 2.400000000000 13.497961346070 1.113293088095 15.744341840801
316 1 2.400000000000 11.569681153774 4.453172352380 15.744341840801
317 2 -1.200000000000 11.569681153774 2.226586176190 14.957124748761
318 2 -1.200000000000 11.569681153774 0.000000000000 16.531558932841
319 2 -1.200000000000 9.641400961479 3.339879264285 16.531558932841
320 2 -1.200000000000 9.641400961479 1.113293088095 18.105993116921
321 2 -1.200000000000 13.497961346070 3.339879264285 16.531558932841
322 2 -1.200000000000 13.497961346070 1.113293088095 18.105993116921
323 2 -1.200000000000 11.569681153774 4.453172352380 18.105993116921
324 2 -1.200000000000 11.569681153774 2.226586176190 19.680427301001
325 1 2.400000000000 7.713120769183 22.265861761899 3.148868368160
326 1 2.400000000000 5.784840576887 21.152568673804 6.297736736320
327 1 2.400000000000 9.641400961479 21.152568673804 6.297736736320
328 1 2.400000000000 7.713120769183 24.492447938089 6.297736736320
329 2 -1.200000000000 7.713120769183 22.265861761899 5.510519644280
330 2 -1.200000000000 7.713120769183 20.039275585709 7.084953828360
331 2 -1.200000000000 5.784840576887 23.379154849994 7.084953828360
332 2 -1.200000000000 5.784840576887 21.152568673804 8.659388012441
333 2 -1.200000000000 9.641400961479 23.379154849994 7.084953828360
334 2 -1.200000000000 9.641400961479 21.152568673804 8.659388012441
335 2 -1.200000000000 7.713120769183 24.492447938089 8.659388012441
336 2 -1.200000000000 7.713120769183 22.265861761899 10.233822196521
337 1 2.400000000000 7.713120769183 17.812689409519 6.297736736320
338 1 2.400000000000 5.784840576887 16.699396321424 9.446605104481
339 1 2.400000000000 9.641400961479 16.699396321424 9.446605104481
340 1 2.400000000000 7.713120769183 20.039275585709 9.446605104481
341 2 -1.200000000000 7.713120769183 17.812689409519 8.659388012441
342 2 -1.200000000000 7.713120769183 15.586103233329 10.233822196521
343 2 -1.200000000000 5.784840576887 18.925982497614 10.233822196521
344 2 -1.200000000000 5.784840576887 16.699396321424 11.808256380601
345 2 -1.200000000000 9.641400961479 18.925982497614 10.233822196521
346 2 -1.200000000000 9.641400961479 16.699396321424 11.808256380601
347 2 -1.200000000000 7.713120769183 20.039275585709 11.808256380601
348 2 -1.200000000000 7.713120769183 17.812689409519 13.382690564681
349 1 2.400000000000 7.713120769183 13.359517057139 9.446605104481
350 1 2.400000000000 5.784840576887 12.246223969045 12.595473472641
351 1 2.400000000000 9.641400961479 12.246223969045 12.595473472641
352 1 2.400000000000 7.713120769183 15.586103233329 12.595473472641
353 2 -1.200000000000 7.713120769183 13.359517057139 11.808256380601
354 2 -1.200000000000 7.713120769183 11.132930880950 13.382690564681
355 2 -1.200000000000 5.784840576887 14.472810145234 13.382690564681
356 2 -1.200000000000 5.784840576887 12.246223969044 14.957124748761
357 2 -1.200000000000 9.641400961479 14.472810145234 13.382690564681
358 2 -1.200000000000 9.641400961479 12.246223969044 14.957124748761
359 2 -1.200000000000 7.713120769183 15.586103233329 14.957124748761
360 2 -1.200000000000 7.713120769183 13.359517057139 16.531558932841
361 1 2.400000000000 7.713120769183 8.906344704760 12.595473472641
362 1 2.400000000000 5.784840576887 7.793051616665 15.744341840801
363 1 2.400000000000 9.641400961479 7.793051616665 15.744341840801
364 1 2.400000000000 7.713120769183 11.132930880950 15.744341840801
365 2 -1.200000000000 7.713120769183 8.906344704760 14.957124748761
366 2 -1.200000000000 7.713120769183 6.679758528570 16.531558932841
367 2 -1.200000000000 5.784840576887 10.019637792855 16.531558932841
368 2 -1.200000000000 5.784840576887 7.793051616665 18.105993116921
369 2 -1.200000000000 9.641400961479 10.019637792855 16.531558932841
370 2 -1.200000000000 9.641400961479 7.793051616665 18.105993116921
371 2 -1.200000000000 7.713120769183 11.132930880950 18.105993116921
372 2 -1.200000000000 7.713120769183 8.906344704760 19.680427301001
373 1 2.400000000000 7.713120769183 4.453172352380 15.744341840801
374 1 2.400000000000 5.784840576887 3.339879264285 18.893210208961
375 1 2.400000000000 9.641400961479 3.339879264285 18.893210208961
376 1 2.400000000000 7.713120769183 6.679758528570 18.893210208961
377 2 -1.200000000000 7.713120769183 4.453172352380 18.105993116921
378 2 -1.200000000000 7.713120769183 2.226586176190 19.680427301001
379 2 -1.200000000000 5.784840576887 5.566465440475 19.680427301001
380 2 -1.200000000000 5.784840576887 3.339879264285 21.254861485081
381 2 -1.200000000000 9.641400961479 5.566465440475 19.680427301001
382 2 -1.200000000000 9.641400961479 3.339879264285 21.254861485081
383 2 -1.200000000000 7.713120769183 6.679758528570 21.254861485081
384 2 -1.200000000000 7.713120769183 4.453172352380 22.829295669162
385 1 2.400000000000 7.713120769183 0.000000000000 18.893210208961
386 1 2.400000000000 5.784840576887 25.605741026184 22.042078577122
387 1 2.400000000000 9.641400961479 25.605741026184 22.042078577122
388 1 2.400000000000 7.713120769183 2.226586176190 22.042078577122
389 2 -1.200000000000 7.713120769183 0.000000000000 21.254861485081
390 2 -1.200000000000 7.713120769183 24.492447938089 22.829295669162
391 2 -1.200000000000 5.784840576887 1.113293088095 22.829295669162
392 2 -1.200000000000 5.784840576887 25.605741026184 24.403729853242
393 2 -1.200000000000 9.641400961479 1.113293088095 22.829295669162
394 2 -1.200000000000 9.641400961479 25.605741026184 24.403729853242
395 2 -1.200000000000 7.713120769183 2.226586176190 24.403729853242
396 2 -1.200000000000 7.713120769183 0.000000000000 25.978164037322
397 1 2.400000000000 3.856560384591 24.492447938089 6.297736736320
398 1 2.400000000000 1.928280192296 23.379154849994 9.446605104481
399 1 2.400000000000 5.784840576887 23.379154849994 9.446605104481
400 1 2.400000000000 3.856560384591 0.000000000000 9.446605104481
401 2 -1.200000000000 3.856560384591 24.492447938089 8.659388012441
402 2 -1.200000000000 3.856560384591 22.265861761899 10.233822196521
403 2 -1.200000000000 1.928280192296 25.605741026184 10.233822196521
404 2 -1.200000000000 1.928280192296 23.379154849994 11.808256380601
405 2 -1.200000000000 5.784840576887 25.605741026184 10.233822196521
406 2 -1.200000000000 5.784840576887 23.379154849994 11.808256380601
407 2 -1.200000000000 3.856560384591 0.000000000000 11.808256380601
408 2 -1.200000000000 3.856560384591 24.492447938089 13.382690564681
409 1 2.400000000000 3.856560384591 20.039275585709 9.446605104481
410 1 2.400000000000 1.928280192296 18.925982497614 12.595473472641
411 1 2.400000000000 5.784840576887 18.925982497614 12.595473472641
412 1 2.400000000000 3.856560384591 22.265861761899 12.595473472641
413 2 -1.200000000000 3.856560384591 20.039275585709 11.808256380601
414 2 -1.200000000000 3.856560384591 17.812689409519 13.382690564681
415 2 -1.200000000000 1.928280192296 21.152568673804 13.382690564681
416 2 -1.200000000000 1.928280192296 18.925982497614 14.957124748761
417 2 -1.200000000000 5.784840576887 21.152568673804 13.382690564681
418 2 -1.200000000000 5.784840576887 18.925982497614 14.957124748761
419 2 -1.200000000000 3.856560384591 22.265861761899 14.957124748761
420 2 -1.200000000000 3.856560384591 20.039275585709 16.531558932841
421 1 2.400000000000 3.856560384591 15.586103233329 12.595473472641
422 1 2.400000000000 1.928280192296 14.472810145234 15.744341840801
423 1 2.400000000000 5.784840576887 14.472810145234 15.744341840801
424 1 2.400000000000 3.856560384591 17.812689409519 15.744341840801
425 2 -1.200000000000 3.856560384591 15.586103233329 14.957124748761
426 2 -1.200000000000 3.856560384591 13.359517057139 16.531558932841
427 2 -1.200000000000 1.928280192296 16.699396321424 16.531558932841
428 2 -1.200000000000 1.928280192296 14.472810145234 18.105993116921
429 2 -1.200000000000 5.784840576887 16.699396321424 16.531558932841
430 2 -1.200000000000 5.784840576887 14.472810145234 18.105993116921
431 2 -1.200000000000 3.856560384591 17.812689409519 18.105993116921
432 2 -1.200000000000 3.856560384591 15.586103233329 19.680427301001
433 1 2.400000000000 3.856560384591 11.132930880950 15.744341840801
434 1 2.400000000000 1.928280192296 10.019637792855 18.893210208961
435 1 2.400000000000 5.784840576887 10.019637792855 18.893210208961
436 1 2.400000000000 3.856560384591 13.359517057139 18.893210208961
437 2 -1.200000000000 3.856560384591 11.132930880950 18.105993116921
438 2 -1.200000000000 3.856560384591 8.906344704760 19.680427301001
439 2 -1.200000000000 1.928280192296 12.246223969045 19.680427301001
440 2 -1.200000000000 1.928280192296 10.019637792855 21.254861485081
441 2 -1.200000000000 5.784840576887 12.246223969045 19.680427301001
442 2 -1.200000000000 5.784840576887 10.019637792855 21.254861485081
443 2 -1.200000000000 3.856560384591 13.359517057139 21.254861485081
444 2 -1.200000000000 3.856560384591 11.132930880950 22.829295669162
445 1 2.400000000000 3.856560384591 6.679758528570 18.893210208961
446 1 2.400000000000 1.928280192296 5.566465440475 22.042078577122
447 1 2.400000000000 5.784840576887 5.566465440475 22.042078577122
448 1 2.400000000000 3.856560384591 8.906344704760 22.042078577122
449 2 -1.200000000000 3.856560384591 6.679758528570 21.254861485081
450 2 -1.200000000000 3.856560384591 4.453172352380 22.829295669162
451 2 -1.200000000000 1.928280192296 7.793051616665 22.829295669162
452 2 -1.200000000000 1.928280192296 5.566465440475 24.403729853242
453 2 -1.200000000000 5.784840576887 7.793051616665 22.829295669162
454 2 -1.200000000000 5.784840576887 5.566465440475 24.403729853242
455 2 -1.200000000000 3.856560384591 8.906344704760 24.403729853242
456 2 -1.200000000000 3.856560384591 6.679758528570 25.978164037322
457 1 2.400000000000 3.856560384591 2.226586176190 22.042078577122
458 1 2.400000000000 1.928280192296 1.113293088095 25.190946945282
459 1 2.400000000000 5.784840576887 1.113293088095 25.190946945282
460 1 2.400000000000 3.856560384591 4.453172352380 25.190946945282
461 2 -1.200000000000 3.856560384591 2.226586176190 24.403729853242
462 2 -1.200000000000 3.856560384591 0.000000000000 25.978164037322
463 2 -1.200000000000 1.928280192296 3.339879264285 25.978164037322
464 2 -1.200000000000 1.928280192296 1.113293088095 27.552598221402
465 2 -1.200000000000 5.784840576887 3.339879264285 25.978164037322
466 2 -1.200000000000 5.784840576887 1.113293088095 27.552598221402
467 2 -1.200000000000 3.856560384591 4.453172352380 27.552598221402
468 2 -1.200000000000 3.856560384591 2.226586176190 0.787217092040
469 1 2.400000000000 30.852483076731 0.000000000000 0.000000000000
470 1 2.400000000000 28.924202884436 25.605741026184 3.148868368160
471 1 2.400000000000 32.780763269027 25.605741026184 3.148868368160
472 1 2.400000000000 30.852483076731 2.226586176190 3.148868368160
473 2 -1.200000000000 30.852483076731 0.000000000000 2.361651276120
474 2 -1.200000000000 30.852483076731 24.492447938089 3.936085460200
475 2 -1.200000000000 28.924202884436 1.113293088095 3.936085460200
476 2 -1.200000000000 28.924202884436 25.605741026184 5.510519644280
477 2 -1.200000000000 32.780763269027 1.113293088095 3.936085460200
478 2 -1.200000000000 32.780763269027 25.605741026184 5.510519644280
479 2 -1.200000000000 30.852483076731 2.226586176190 5.510519644280
480 2 -1.200000000000 30.852483076731 0.000000000000 7.084953828360
481 1 2.400000000000 26.995922692140 6.679758528570 0.000000000000
482 1 2.400000000000 25.067642499844 5.566465440475 3.148868368160
483 1 2.400000000000 28.924202884436 5.566465440475 3.148868368160
484 1 2.400000000000 26.995922692140 8.906344704760 3.148868368160
485 2 -1.200000000000 26.995922692140 6.679758528570 2.361651276120
486 2 -1.200000000000 26.995922692140 4.453172352380 3.936085460200
487 2 -1.200000000000 25.067642499844 7.793051616665 3.936085460200
488 2 -1.200000000000 25.067642499844 5.566465440475 5.510519644280
489 2 -1.200000000000 28.924202884436 7.793051616665 3.936085460200
490 2 -1.200000000000 28.924202884436 5.566465440475 5.510519644280
491 2 -1.200000000000 26.995922692140 8.906344704760 5.510519644280
492 2 -1.200000000000 26.995922692140 6.679758528570 7.084953828360
493 1 2.400000000000 26.995922692140 2.226586176190 3.148868368160
494 1 2.400000000000 25.067642499844 1.113293088095 6.297736736320
495 1 2.400000000000 28.924202884436 1.113293088095 6.297736736320
496 1 2.400000000000 26.995922692140 4.453172352380 6.297736736320
497 2 -1.200000000000 26.995922692140 2.226586176190 5.510519644280
498 2 -1.200000000000 26.995922692140 0.000000000000 7.084953828360
499 2 -1.200000000000 25.067642499844 3.339879264285 7.084953828360
500 2 -1.200000000000 25.067642499844 1.113293088095 8.659388012441
501 2 -1.200000000000 28.924202884436 3.339879264285 7.084953828360
502 2 -1.200000000000 28.924202884436 1.113293088095 8.659388012441
503 2 -1.200000000000 26.995922692140 4.453172352380 8.659388012441
504 2 -1.200000000000 26.995922692140 2.226586176190 10.233822196521
505 1 2.400000000000 23.139362307549 13.359517057139 0.000000000000
506 1 2.400000000000 21.211082115253 12.246223969045 3.148868368160
507 1 2.400000000000 25.067642499844 12.246223969044 3.148868368160
508 1 2.400000000000 23.139362307549 15.586103233329 3.148868368160
509 2 -1.200000000000 23.139362307549 13.359517057139 2.361651276120
510 2 -1.200000000000 23.139362307549 11.132930880950 3.936085460200
511 2 -1.200000000000 21.211082115253 14.472810145234 3.936085460200
512 2 -1.200000000000 21.211082115253 12.246223969044 5.510519644280
513 2 -1.200000000000 25.067642499844 14.472810145234 3.936085460200
514 2 -1.200000000000 25.067642499844 12.246223969045 5.510519644280
515 2 -1.200000000000 23.139362307549 15.586103233329 5.510519644280
516 2 -1.200000000000 23.139362307549 13.359517057139 7.084953828360
517 1 2.400000000000 23.139362307549 8.906344704760 3.148868368160
518 1 2.400000000000 21.211082115253 7.793051616665 6.297736736320
519 1 2.400000000000 25.067642499844 7.793051616665 6.297736736320
520 1 2.400000000000 23.139362307549 11.132930880950 6.297736736320
521 2 -1.200000000000 23.139362307549 8.906344704760 5.510519644280
522 2 -1.200000000000 23.139362307549 6.679758528570 7.084953828360
523 2 -1.200000000000 21.211082115253 10.019637792855 7.084953828360
524 2 -1.200000000000 21.211082115253 7.793051616665 8.659388012441
525 2 -1.200000000000 25.067642499844 10.019637792855 7.084953828360
526 2 -1.200000000000 25.067642499844 7.793051616665 8.659388012441
527 2 -1.200000000000 23.139362307549 11.132930880950 8.659388012441
528 2 -1.200000000000 23.139362307549 8.906344704760 10.233822196521
529 1 2.400000000000 23.139362307549 4.453172352380 6.297736736320
530 1 2.400000000000 21.211082115253 3.339879264285 9.446605104481
531 1 2.400000000000 25.067642499844 3.339879264285 9.446605104481
532 1 2.400000000000 23.139362307549 6.679758528570 9.446605104481
533 2 -1.200000000000 23.139362307549 4.453172352380 8.659388012441
534 2 -1.200000000000 23.139362307549 2.226586176190 10.233822196521
535 2 -1.200000000000 21.211082115253 5.566465440475 10.233822196521
536 2 -1.200000000000 21.211082115253 3.339879264285 11.808256380601
537 2 -1.200000000000 25.067642499844 5.566465440475 10.233822196521
538 2 -1.200000000000 25.067642499844 3.339879264285 11.808256380601
539 2 -1.200000000000 23.139362307549 6.679758528570 11.808256380601
540 2 -1.200000000000 23.139362307549 4.453172352380 13.382690564681
541 1 2.400000000000 23.139362307549 0.000000000000 9.446605104481
542 1 2.400000000000 21.211082115253 25.605741026184 12.595473472641
543 1 2.400000000000 25.067642499844 25.605741026184 12.595473472641
544 1 2.400000000000 23.139362307549 2.226586176190 12.595473472641
545 2 -1.200000000000 23.139362307549 0.000000000000 11.808256380601
546 2 -1.200000000000 23.139362307549 24.492447938089 13.382690564681
547 2 -1.200000000000 21.211082115253 1.113293088095 13.382690564681
548 2 -1.200000000000 21.211082115253 25.605741026184 14.957124748761
549 2 -1.200000000000 25.067642499844 1.113293088095 13.382690564681
550 2 -1.200000000000 25.067642499844 25.605741026184 14.957124748761
551 2 -1.200000000000 23.139362307549 2.226586176190 14.957124748761
552 2 -1.200000000000 23.139362307549 0.000000000000 16.531558932841
553 1 2.400000000000 19.282801922957 20.039275585709 0.000000000000
554 1 2.400000000000 17.354521730661 18.925982497614 3.148868368160
555 1 2.400000000000 21.211082115253 18.925982497614 3.148868368160
556 1 2.400000000000 19.282801922957 22.265861761899 3.148868368160
557 2 -1.200000000000 19.282801922957 20.039275585709 2.361651276120
558 2 -1.200000000000 19.282801922957 17.812689409519 3.936085460200
559 2 -1.200000000000 17.354521730661 21.152568673804 3.936085460200
560 2 -1.200000000000 17.354521730661 18.925982497614 5.510519644280
561 2 -1.200000000000 21.211082115253 21.152568673804 3.936085460200
562 2 -1.200000000000 21.211082115253 18.925982497614 5.510519644280
563 2 -1.200000000000 19.282801922957 22.265861761899 5.510519644280
564 2 -1.200000000000 19.282801922957 20.039275585709 7.084953828360
565 1 2.400000000000 19.282801922957 15.586103233329 3.148868368160
566 1 2.400000000000 17.354521730661 14.472810145234 6.297736736320
567 1 2.400000000000 21.211082115253 14.472810145234 6.297736736320
568 1 2.400000000000 19.282801922957 17.812689409519 6.297736736320
569 2 -1.200000000000 19.282801922957 15.586103233329 5.510519644280
570 2 -1.200000000000 19.282801922957 13.359517057139 7.084953828360
571 2 -1.200000000000 17.354521730661 16.699396321424 7.084953828360
572 2 -1.200000000000 17.354521730661 14.472810145234 8.659388012441
573 2 -1.200000000000 21.211082115253 16.699396321424 7.084953828360
574 2 -1.200000000000 21.211082115253 14.472810145234 8.659388012441
575 2 -1.200000000000 19.282801922957 17.812689409519 8.659388012441
576 2 -1.200000000000 19.282801922957 15.586103233329 10.233822196521
577 1 2.400000000000 19.282801922957 11.132930880950 6.297736736320
578 1 2.400000000000 17.354521730661 10.019637792855 9.446605104481
579 1 2.400000000000 21.211082115253 10.019637792855 9.446605104481
580 1 2.400000000000 19.282801922957 13.359517057139 9.446605104481
581 2 -1.200000000000 19.282801922957 11.132930880950 8.659388012441
582 2 -1.200000000000 19.282801922957 8.906344704760 10.233822196521
583 2 -1.200000000000 17.354521730661 12.246223969044 10.233822196521
584 2 -1.200000000000 17.354521730661 10.019637792855 11.808256380601
585 2 -1.200000000000 21.211082115253 12.246223969045 10.233822196521
586 2 -1.200000000000 21.211082115253 10.019637792855 11.808256380601
587 2 -1.200000000000 19.282801922957 13.359517057139 11.808256380601
588 2 -1.200000000000 19.282801922957 11.132930880950 13.382690564681
589 1 2.400000000000 19.282801922957 6.679758528570 9.446605104481
590 1 2.400000000000 17.354521730661 5.566465440475 12.595473472641
591 1 2.400000000000 21.211082115253 5.566465440475 12.595473472641
592 1 2.400000000000 19.282801922957 8.906344704760 12.595473472641
593 2 -1.200000000000 19.282801922957 6.679758528570 11.808256380601
594 2 -1.200000000000 19.282801922957 4.453172352380 13.382690564681
595 2 -1.200000000000 17.354521730661 7.793051616665 13.382690564681
596 2 -1.200000000000 17.354521730661 5.566465440475 14.957124748761
597 2 -1.200000000000 21.211082115253 7.793051616665 13.382690564681
598 2 -1.200000000000 21.211082115253 5.566465440475 14.957124748761
599 2 -1.200000000000 19.282801922957 8.906344704760 14.957124748761
600 2 -1.200000000000 19.282801922957 6.679758528570 16.531558932841
601 1 2.400000000000 19.282801922957 2.226586176190 12.595473472641
602 1 2.400000000000 17.354521730661 1.113293088095 15.744341840801
603 1 2.400000000000 21.211082115253 1.113293088095 15.744341840801
604 1 2.400000000000 19.282801922957 4.453172352380 15.744341840801
605 2 -1.200000000000 19.282801922957 2.226586176190 14.957124748761
606 2 -1.200000000000 19.282801922957 0.000000000000 16.531558932841
607 2 -1.200000000000 17.354521730661 3.339879264285 16.531558932841
608 2 -1.200000000000 17.354521730661 1.113293088095 18.105993116921
609 2 -1.200000000000 21.211082115253 3.339879264285 16.531558932841
610 2 -1.200000000000 21.211082115253 1.113293088095 18.105993116921
611 2 -1.200000000000 19.282801922957 4.453172352380 18.105993116921
612 2 -1.200000000000 19.282801922957 2.226586176190 19.680427301001
613 1 2.400000000000 15.426241538366 22.265861761899 3.148868368160
614 1 2.400000000000 13.497961346070 21.152568673804 6.297736736320
615 1 2.400000000000 17.354521730661 21.152568673804 6.297736736320
616 1 2.400000000000 15.426241538366 24.492447938089 6.297736736320
617 2 -1.200000000000 15.426241538366 22.265861761899 5.510519644280
618 2 -1.200000000000 15.426241538366 20.039275585709 7.084953828360
619 2 -1.200000000000 13.497961346070 23.379154849994 7.084953828360
620 2 -1.200000000000 13.497961346070 21.152568673804 8.659388012441
621 2 -1.200000000000 17.354521730661 23.379154849994 7.084953828360
622 2 -1.200000000000 17.354521730661 21.152568673804 8.659388012441
623 2 -1.200000000000 15.426241538366 24.492447938089 8.659388012441
624 2 -1.200000000000 15.426241538366 22.265861761899 10.233822196521
625 1 2.400000000000 15.426241538366 17.812689409519 6.297736736320
626 1 2.400000000000 13.497961346070 16.699396321424 9.446605104481
627 1 2.400000000000 17.354521730661 16.699396321424 9.446605104481
628 1 2.400000000000 15.426241538366 20.039275585709 9.446605104481
629 2 -1.200000000000 15.426241538366 17.812689409519 8.659388012441
630 2 -1.200000000000 15.426241538366 15.586103233329 10.233822196521
631 2 -1.200000000000 13.497961346070 18.925982497614 10.233822196521
632 2 -1.200000000000 13.497961346070 16.699396321424 11.808256380601
633 2 -1.200000000000 17.354521730661 18.925982497614 10.233822196521
634 2 -1.200000000000 17.354521730661 16.699396321424 11.808256380601
635 2 -1.200000000000 15.426241538366 20.039275585709 11.808256380601
636 2 -1.200000000000 15.426241538366 17.812689409519 13.382690564681
637 1 2.400000000000 15.426241538366 13.359517057139 9.446605104481
638 1 2.400000000000 13.497961346070 12.246223969045 12.595473472641
639 1 2.400000000000 17.354521730661 12.246223969045 12.595473472641
640 1 2.400000000000 15.426241538366 15.586103233329 12.595473472641
641 2 -1.200000000000 15.426241538366 13.359517057139 11.808256380601
642 2 -1.200000000000 15.426241538366 11.132930880950 13.382690564681
643 2 -1.200000000000 13.497961346070 14.472810145234 13.382690564681
644 2 -1.200000000000 13.497961346070 12.246223969044 14.957124748761
645 2 -1.200000000000 17.354521730661 14.472810145234 13.382690564681
646 2 -1.200000000000 17.354521730661 12.246223969045 14.957124748761
647 2 -1.200000000000 15.426241538366 15.586103233329 14.957124748761
648 2 -1.200000000000 15.426241538366 13.359517057139 16.531558932841
649 1 2.400000000000 15.426241538366 8.906344704760 12.595473472641
650 1 2.400000000000 13.497961346070 7.793051616665 15.744341840801
651 1 2.400000000000 17.354521730661 7.793051616665 15.744341840801
652 1 2.400000000000 15.426241538366 11.132930880950 15.744341840801
653 2 -1.200000000000 15.426241538366 8.906344704760 14.957124748761
654 2 -1.200000000000 15.426241538366 6.679758528570 16.531558932841
655 2 -1.200000000000 13.497961346070 10.019637792855 16.531558932841
656 2 -1.200000000000 13.497961346070 7.793051616665 18.105993116921
657 2 -1.200000000000 17.354521730661 10.019637792855 16.531558932841
658 2 -1.200000000000 17.354521730661 7.793051616665 18.105993116921
659 2 -1.200000000000 15.426241538366 11.132930880950 18.105993116921
660 2 -1.200000000000 15.426241538366 8.906344704760 19.680427301001
661 1 2.400000000000 15.426241538366 4.453172352380 15.744341840801
662 1 2.400000000000 13.497961346070 3.339879264285 18.893210208961
663 1 2.400000000000 17.354521730661 3.339879264285 18.893210208961
664 1 2.400000000000 15.426241538366 6.679758528570 18.893210208961
665 2 -1.200000000000 15.426241538366 4.453172352380 18.105993116921
666 2 -1.200000000000 15.426241538366 2.226586176190 19.680427301001
667 2 -1.200000000000 13.497961346070 5.566465440475 19.680427301001
668 2 -1.200000000000 13.497961346070 3.339879264285 21.254861485081
669 2 -1.200000000000 17.354521730661 5.566465440475 19.680427301001
670 2 -1.200000000000 17.354521730661 3.339879264285 21.254861485081
671 2 -1.200000000000 15.426241538366 6.679758528570 21.254861485081
672 2 -1.200000000000 15.426241538366 4.453172352380 22.829295669162
673 1 2.400000000000 15.426241538366 0.000000000000 18.893210208961
674 1 2.400000000000 13.497961346070 25.605741026184 22.042078577122
675 1 2.400000000000 17.354521730661 25.605741026184 22.042078577122
676 1 2.400000000000 15.426241538366 2.226586176190 22.042078577122
677 2 -1.200000000000 15.426241538366 0.000000000000 21.254861485081
678 2 -1.200000000000 15.426241538366 24.492447938089 22.829295669162
679 2 -1.200000000000 13.497961346070 1.113293088095 22.829295669162
680 2 -1.200000000000 13.497961346070 25.605741026184 24.403729853242
681 2 -1.200000000000 17.354521730661 1.113293088095 22.829295669162
682 2 -1.200000000000 17.354521730661 25.605741026184 24.403729853242
683 2 -1.200000000000 15.426241538366 2.226586176190 24.403729853242
684 2 -1.200000000000 15.426241538366 0.000000000000 25.978164037322
685 1 2.400000000000 11.569681153774 24.492447938089 6.297736736320
686 1 2.400000000000 9.641400961479 23.379154849994 9.446605104481
687 1 2.400000000000 13.497961346070 23.379154849994 9.446605104481
688 1 2.400000000000 11.569681153774 0.000000000000 9.446605104481
689 2 -1.200000000000 11.569681153774 24.492447938089 8.659388012441
690 2 -1.200000000000 11.569681153774 22.265861761899 10.233822196521
691 2 -1.200000000000 9.641400961479 25.605741026184 10.233822196521
692 2 -1.200000000000 9.641400961479 23.379154849994 11.808256380601
693 2 -1.200000000000 13.497961346070 25.605741026184 10.233822196521
694 2 -1.200000000000 13.497961346070 23.379154849994 11.808256380601
695 2 -1.200000000000 11.569681153774 0.000000000000 11.808256380601
696 2 -1.200000000000 11.569681153774 24.492447938089 13.382690564681
697 1 2.400000000000 11.569681153774 20.039275585709 9.446605104481
698 1 2.400000000000 9.641400961479 18.925982497614 12.595473472641
699 1 2.400000000000 13.497961346070 18.925982497614 12.595473472641
700 1 2.400000000000 11.569681153774 22.265861761899 12.595473472641
701 2 -1.200000000000 11.569681153774 20.039275585709 11.808256380601
702 2 -1.200000000000 11.569681153774 17.812689409519 13.382690564681
703 2 -1.200000000000 9.641400961479 21.152568673804 13.382690564681
704 2 -1.200000000000 9.641400961479 18.925982497614 14.957124748761
705 2 -1.200000000000 13.497961346070 21.152568673804 13.382690564681
706 2 -1.200000000000 13.497961346070 18.925982497614 14.957124748761
707 2 -1.200000000000 11.569681153774 22.265861761899 14.957124748761
708 2 -1.200000000000 11.569681153774 20.039275585709 16.531558932841
709 1 2.400000000000 11.569681153774 15.586103233329 12.595473472641
710 1 2.400000000000 9.641400961479 14.472810145234 15.744341840801
711 1 2.400000000000 13.497961346070 14.472810145234 15.744341840801
712 1 2.400000000000 11.569681153774 17.812689409519 15.744341840801
713 2 -1.200000000000 11.569681153774 15.586103233329 14.957124748761
714 2 -1.200000000000 11.569681153774 13.359517057139 16.531558932841
715 2 -1.200000000000 9.641400961479 16.699396321424 16.531558932841
716 2 -1.200000000000 9.641400961479 14.472810145234 18.105993116921
717 2 -1.200000000000 13.497961346070 16.699396321424 16.531558932841
718 2 -1.200000000000 13.497961346070 14.472810145234 18.105993116921
719 2 -1.200000000000 11.569681153774 17.812689409519 18.105993116921
720 2 -1.200000000000 11.569681153774 15.586103233329 19.680427301001
721 1 2.400000000000 11.569681153774 11.132930880950 15.744341840801
722 1 2.400000000000 9.641400961479 10.019637792855 18.893210208961
723 1 2.400000000000 13.497961346070 10.019637792855 18.893210208961
724 1 2.400000000000 11.569681153774 13.359517057139 18.893210208961
725 2 -1.200000000000 11.569681153774 11.132930880950 18.105993116921
726 2 -1.200000000000 11.569681153774 8.906344704760 19.680427301001
727 2 -1.200000000000 9.641400961479 12.246223969044 19.680427301001
728 2 -1.200000000000 9.641400961479 10.019637792855 21.254861485081
729 2 -1.200000000000 13.497961346070 12.246223969045 19.680427301001
730 2 -1.200000000000 13.497961346070 10.019637792855 21.254861485081
731 2 -1.200000000000 11.569681153774 13.359517057139 21.254861485081
732 2 -1.200000000000 11.569681153774 11.132930880950 22.829295669162
733 1 2.400000000000 11.569681153774 6.679758528570 18.893210208961
734 1 2.400000000000 9.641400961479 5.566465440475 22.042078577122
735 1 2.400000000000 13.497961346070 5.566465440475 22.042078577122
736 1 2.400000000000 11.569681153774 8.906344704760 22.042078577122
737 2 -1.200000000000 11.569681153774 6.679758528570 21.254861485081
738 2 -1.200000000000 11.569681153774 4.453172352380 22.829295669162
739 2 -1.200000000000 9.641400961479 7.793051616665 22.829295669162
740 2 -1.200000000000 9.641400961479 5.566465440475 24.403729853242
741 2 -1.200000000000 13.497961346070 7.793051616665 22.829295669162
742 2 -1.200000000000 13.497961346070 5.566465440475 24.403729853242
743 2 -1.200000000000 11.569681153774 8.906344704760 24.403729853242
744 2 -1.200000000000 11.569681153774 6.679758528570 25.978164037322
745 1 2.400000000000 11.569681153774 2.226586176190 22.042078577122
746 1 2.400000000000 9.641400961479 1.113293088095 25.190946945282
747 1 2.400000000000 13.497961346070 1.113293088095 25.190946945282
748 1 2.400000000000 11.569681153774 4.453172352380 25.190946945282
749 2 -1.200000000000 11.569681153774 2.226586176190 24.403729853242
750 2 -1.200000000000 11.569681153774 0.000000000000 25.978164037322
751 2 -1.200000000000 9.641400961479 3.339879264285 25.978164037322
752 2 -1.200000000000 9.641400961479 1.113293088095 27.552598221402
753 2 -1.200000000000 13.497961346070 3.339879264285 25.978164037322
754 2 -1.200000000000 13.497961346070 1.113293088095 27.552598221402
755 2 -1.200000000000 11.569681153774 4.453172352380 27.552598221402
756 2 -1.200000000000 11.569681153774 2.226586176190 0.787217092040
757 1 2.400000000000 7.713120769183 22.265861761899 12.595473472641
758 1 2.400000000000 5.784840576887 21.152568673804 15.744341840801
759 1 2.400000000000 9.641400961479 21.152568673804 15.744341840801
760 1 2.400000000000 7.713120769183 24.492447938089 15.744341840801
761 2 -1.200000000000 7.713120769183 22.265861761899 14.957124748761
762 2 -1.200000000000 7.713120769183 20.039275585709 16.531558932841
763 2 -1.200000000000 5.784840576887 23.379154849994 16.531558932841
764 2 -1.200000000000 5.784840576887 21.152568673804 18.105993116921
765 2 -1.200000000000 9.641400961479 23.379154849994 16.531558932841
766 2 -1.200000000000 9.641400961479 21.152568673804 18.105993116921
767 2 -1.200000000000 7.713120769183 24.492447938089 18.105993116921
768 2 -1.200000000000 7.713120769183 22.265861761899 19.680427301001
769 1 2.400000000000 7.713120769183 17.812689409519 15.744341840801
770 1 2.400000000000 5.784840576887 16.699396321424 18.893210208961
771 1 2.400000000000 9.641400961479 16.699396321424 18.893210208961
772 1 2.400000000000 7.713120769183 20.039275585709 18.893210208961
773 2 -1.200000000000 7.713120769183 17.812689409519 18.105993116921
774 2 -1.200000000000 7.713120769183 15.586103233329 19.680427301001
775 2 -1.200000000000 5.784840576887 18.925982497614 19.680427301001
776 2 -1.200000000000 5.784840576887 16.699396321424 21.254861485081
777 2 -1.200000000000 9.641400961479 18.925982497614 19.680427301001
778 2 -1.200000000000 9.641400961479 16.699396321424 21.254861485081
779 2 -1.200000000000 7.713120769183 20.039275585709 21.254861485081
780 2 -1.200000000000 7.713120769183 17.812689409519 22.829295669162
781 1 2.400000000000 7.713120769183 13.359517057139 18.893210208961
782 1 2.400000000000 5.784840576887 12.246223969044 22.042078577122
783 1 2.400000000000 9.641400961479 12.246223969044 22.042078577122
784 1 2.400000000000 7.713120769183 15.586103233329 22.042078577122
785 2 -1.200000000000 7.713120769183 13.359517057139 21.254861485081
786 2 -1.200000000000 7.713120769183 11.132930880950 22.829295669162
787 2 -1.200000000000 5.784840576887 14.472810145234 22.829295669162
788 2 -1.200000000000 5.784840576887 12.246223969044 24.403729853242
789 2 -1.200000000000 9.641400961479 14.472810145234 22.829295669162
790 2 -1.200000000000 9.641400961479 12.246223969045 24.403729853242
791 2 -1.200000000000 7.713120769183 15.586103233329 24.403729853242
792 2 -1.200000000000 7.713120769183 13.359517057139 25.978164037322
793 1 2.400000000000 7.713120769183 8.906344704760 22.042078577122
794 1 2.400000000000 5.784840576887 7.793051616665 25.190946945282
795 1 2.400000000000 9.641400961479 7.793051616665 25.190946945282
796 1 2.400000000000 7.713120769183 11.132930880950 25.190946945282
797 2 -1.200000000000 7.713120769183 8.906344704760 24.403729853242
798 2 -1.200000000000 7.713120769183 6.679758528570 25.978164037322
799 2 -1.200000000000 5.784840576887 10.019637792855 25.978164037322
800 2 -1.200000000000 5.784840576887 7.793051616665 27.552598221402
801 2 -1.200000000000 9.641400961479 10.019637792855 25.978164037322
802 2 -1.200000000000 9.641400961479 7.793051616665 27.552598221402
803 2 -1.200000000000 7.713120769183 11.132930880950 27.552598221402
804 2 -1.200000000000 7.713120769183 8.906344704760 0.787217092040
805 1 2.400000000000 7.713120769183 4.453172352380 25.190946945282
806 1 2.400000000000 5.784840576887 3.339879264285 0.000000000000
807 1 2.400000000000 9.641400961479 3.339879264285 0.000000000000
808 1 2.400000000000 7.713120769183 6.679758528570 0.000000000000
809 2 -1.200000000000 7.713120769183 4.453172352380 27.552598221402
810 2 -1.200000000000 7.713120769183 2.226586176190 0.787217092040
811 2 -1.200000000000 5.784840576887 5.566465440475 0.787217092040
812 2 -1.200000000000 5.784840576887 3.339879264285 2.361651276120
813 2 -1.200000000000 9.641400961479 5.566465440475 0.787217092040
814 2 -1.200000000000 9.641400961479 3.339879264285 2.361651276120
815 2 -1.200000000000 7.713120769183 6.679758528570 2.361651276120
816 2 -1.200000000000 7.713120769183 4.453172352380 3.936085460200
817 1 2.400000000000 3.856560384591 24.492447938089 15.744341840801
818 1 2.400000000000 1.928280192296 23.379154849994 18.893210208961
819 1 2.400000000000 5.784840576887 23.379154849994 18.893210208961
820 1 2.400000000000 3.856560384591 0.000000000000 18.893210208961
821 2 -1.200000000000 3.856560384591 24.492447938089 18.105993116921
822 2 -1.200000000000 3.856560384591 22.265861761899 19.680427301001
823 2 -1.200000000000 1.928280192296 25.605741026184 19.680427301001
824 2 -1.200000000000 1.928280192296 23.379154849994 21.254861485081
825 2 -1.200000000000 5.784840576887 25.605741026184 19.680427301001
826 2 -1.200000000000 5.784840576887 23.379154849994 21.254861485081
827 2 -1.200000000000 3.856560384591 0.000000000000 21.254861485081
828 2 -1.200000000000 3.856560384591 24.492447938089 22.829295669162
829 1 2.400000000000 3.856560384591 20.039275585709 18.893210208961
830 1 2.400000000000 1.928280192296 18.925982497614 22.042078577122
831 1 2.400000000000 5.784840576887 18.925982497614 22.042078577122
832 1 2.400000000000 3.856560384591 22.265861761899 22.042078577122
833 2 -1.200000000000 3.856560384591 20.039275585709 21.254861485081
834 2 -1.200000000000 3.856560384591 17.812689409519 22.829295669162
835 2 -1.200000000000 1.928280192296 21.152568673804 22.829295669162
836 2 -1.200000000000 1.928280192296 18.925982497614 24.403729853242
837 2 -1.200000000000 5.784840576887 21.152568673804 22.829295669162
838 2 -1.200000000000 5.784840576887 18.925982497614 24.403729853242
839 2 -1.200000000000 3.856560384591 22.265861761899 24.403729853242
840 2 -1.200000000000 3.856560384591 20.039275585709 25.978164037322
841 1 2.400000000000 3.856560384591 15.586103233329 22.042078577122
842 1 2.400000000000 1.928280192296 14.472810145234 25.190946945282
843 1 2.400000000000 5.784840576887 14.472810145234 25.190946945282
844 1 2.400000000000 3.856560384591 17.812689409519 25.190946945282
845 2 -1.200000000000 3.856560384591 15.586103233329 24.403729853242
846 2 -1.200000000000 3.856560384591 13.359517057139 25.978164037322
847 2 -1.200000000000 1.928280192296 16.699396321424 25.978164037322
848 2 -1.200000000000 1.928280192296 14.472810145234 27.552598221402
849 2 -1.200000000000 5.784840576887 16.699396321424 25.978164037322
850 2 -1.200000000000 5.784840576887 14.472810145234 27.552598221402
851 2 -1.200000000000 3.856560384591 17.812689409519 27.552598221402
852 2 -1.200000000000 3.856560384591 15.586103233329 0.787217092040
853 1 2.400000000000 3.856560384591 11.132930880950 25.190946945282
854 1 2.400000000000 1.928280192296 10.019637792855 0.000000000000
855 1 2.400000000000 5.784840576887 10.019637792855 0.000000000000
856 1 2.400000000000 3.856560384591 13.359517057139 0.000000000000
857 2 -1.200000000000 3.856560384591 11.132930880950 27.552598221402
858 2 -1.200000000000 3.856560384591 8.906344704760 0.787217092040
859 2 -1.200000000000 1.928280192296 12.246223969044 0.787217092040
860 2 -1.200000000000 1.928280192296 10.019637792855 2.361651276120
861 2 -1.200000000000 5.784840576887 12.246223969045 0.787217092040
862 2 -1.200000000000 5.784840576887 10.019637792855 2.361651276120
863 2 -1.200000000000 3.856560384591 13.359517057139 2.361651276120
864 2 -1.200000000000 3.856560384591 11.132930880950 3.936085460200
865 1 2.400000000000 38.565603845914 0.000000000000 0.000000000000
866 1 2.400000000000 36.637323653619 25.605741026184 3.148868368160
867 1 2.400000000000 40.493884038210 25.605741026184 3.148868368160
868 1 2.400000000000 38.565603845914 2.226586176190 3.148868368160
869 2 -1.200000000000 38.565603845914 0.000000000000 2.361651276120
870 2 -1.200000000000 38.565603845914 24.492447938089 3.936085460200
871 2 -1.200000000000 36.637323653619 1.113293088095 3.936085460200
872 2 -1.200000000000 36.637323653619 25.605741026184 5.510519644280
873 2 -1.200000000000 40.493884038210 1.113293088095 3.936085460200
874 2 -1.200000000000 40.493884038210 25.605741026184 5.510519644280
875 2 -1.200000000000 38.565603845914 2.226586176190 5.510519644280
876 2 -1.200000000000 38.565603845914 0.000000000000 7.084953828360
877 1 2.400000000000 34.709043461323 6.679758528570 0.000000000000
878 1 2.400000000000 32.780763269027 5.566465440475 3.148868368160
879 1 2.400000000000 36.637323653619 5.566465440475 3.148868368160
880 1 2.400000000000 34.709043461323 8.906344704760 3.148868368160
881 2 -1.200000000000 34.709043461323 6.679758528570 2.361651276120
882 2 -1.200000000000 34.709043461323 4.453172352380 3.936085460200
883 2 -1.200000000000 32.780763269027 7.793051616665 3.936085460200
884 2 -1.200000000000 32.780763269027 5.566465440475 5.510519644280
885 2 -1.200000000000 36.637323653619 7.793051616665 3.936085460200
886 2 -1.200000000000 36.637323653619 5.566465440475 5.510519644280
887 2 -1.200000000000 34.709043461323 8.906344704760 5.510519644280
888 2 -1.200000000000 34.709043461323 6.679758528570 7.084953828360
889 1 2.400000000000 34.709043461323 2.226586176190 3.148868368160
890 1 2.400000000000 32.780763269027 1.113293088095 6.297736736320
891 1 2.400000000000 36.637323653619 1.113293088095 6.297736736320
892 1 2.400000000000 34.709043461323 4.453172352380 6.297736736320
893 2 -1.200000000000 34.709043461323 2.226586176190 5.510519644280
894 2 -1.200000000000 34.709043461323 0.000000000000 7.084953828360
895 2 -1.200000000000 32.780763269027 3.339879264285 7.084953828360
896 2 -1.200000000000 32.780763269027 1.113293088095 8.659388012441
897 2 -1.200000000000 36.637323653619 3.339879264285 7.084953828360
898 2 -1.200000000000 36.637323653619 1.113293088095 8.659388012441
899 2 -1.200000000000 34.709043461323 4.453172352380 8.659388012441
900 2 -1.200000000000 34.709043461323 2.226586176190 10.233822196521
901 1 2.400000000000 30.852483076731 13.359517057139 0.000000000000
902 1 2.400000000000 28.924202884436 12.246223969045 3.148868368160
903 1 2.400000000000 32.780763269027 12.246223969045 3.148868368160
904 1 2.400000000000 30.852483076731 15.586103233329 3.148868368160
905 2 -1.200000000000 30.852483076731 13.359517057139 2.361651276120
906 2 -1.200000000000 30.852483076731 11.132930880950 3.936085460200
907 2 -1.200000000000 28.924202884436 14.472810145234 3.936085460200
908 2 -1.200000000000 28.924202884436 12.246223969045 5.510519644280
909 2 -1.200000000000 32.780763269027 14.472810145234 3.936085460200
910 2 -1.200000000000 32.780763269027 12.246223969045 5.510519644280
911 2 -1.200000000000 30.852483076731 15.586103233329 5.510519644280
912 2 -1.200000000000 30.852483076731 13.359517057139 7.084953828360
913 1 2.400000000000 30.852483076731 8.906344704760 3.148868368160
914 1 2.400000000000 28.924202884436 7.793051616665 6.297736736320
915 1 2.400000000000 32.780763269027 7.793051616665 6.297736736320
916 1 2.400000000000 30.852483076731 11.132930880950 6.297736736320
917 2 -1.200000000000 30.852483076731 8.906344704760 5.510519644280
918 2 -1.200000000000 30.852483076731 6.679758528570 7.084953828360
919 2 -1.200000000000 28.924202884436 10.019637792855 7.084953828360
920 2 -1.200000000000 28.924202884436 7.793051616665 8.659388012441
921 2 -1.200000000000 32.780763269027 10.019637792855 7.084953828360
922 2 -1.200000000000 32.780763269027 7.793051616665 8.659388012441
923 2 -1.200000000000 30.852483076731 11.132930880950 8.659388012441
924 2 -1.200000000000 30.852483076731 8.906344704760 10.233822196521
925 1 2.400000000000 30.852483076731 4.453172352380 6.297736736320
926 1 2.400000000000 28.924202884436 3.339879264285 9.446605104481
927 1 2.400000000000 32.780763269027 3.339879264285 9.446605104481
928 1 2.400000000000 30.852483076731 6.679758528570 9.446605104481
929 2 -1.200000000000 30.852483076731 4.453172352380 8.659388012441
930 2 -1.200000000000 30.852483076731 2.226586176190 10.233822196521
931 2 -1.200000000000 28.924202884436 5.566465440475 10.233822196521
932 2 -1.200000000000 28.924202884436 3.339879264285 11.808256380601
933 2 -1.200000000000 32.780763269027 5.566465440475 10.233822196521
934 2 -1.200000000000 32.780763269027 3.339879264285 11.808256380601
935 2 -1.200000000000 30.852483076731 6.679758528570 11.808256380601
936 2 -1.200000000000 30.852483076731 4.453172352380 13.382690564681
937 1 2.400000000000 30.852483076731 0.000000000000 9.446605104481
938 1 2.400000000000 28.924202884436 25.605741026184 12.595473472641
939 1 2.400000000000 32.780763269027 25.605741026184 12.595473472641
940 1 2.400000000000 30.852483076731 2.226586176190 12.595473472641
941 2 -1.200000000000 30.852483076731 0.000000000000 11.808256380601
942 2 -1.200000000000 30.852483076731 24.492447938089 13.382690564681
943 2 -1.200000000000 28.924202884436 1.113293088095 13.382690564681
944 2 -1.200000000000 28.924202884436 25.605741026184 14.957124748761
945 2 -1.200000000000 32.780763269027 1.113293088095 13.382690564681
946 2 -1.200000000000 32.780763269027 25.605741026184 14.957124748761
947 2 -1.200000000000 30.852483076731 2.226586176190 14.957124748761
948 2 -1.200000000000 30.852483076731 0.000000000000 16.531558932841
949 1 2.400000000000 26.995922692140 20.039275585709 0.000000000000
950 1 2.400000000000 25.067642499844 18.925982497614 3.148868368160
951 1 2.400000000000 28.924202884436 18.925982497614 3.148868368160
952 1 2.400000000000 26.995922692140 22.265861761899 3.148868368160
953 2 -1.200000000000 26.995922692140 20.039275585709 2.361651276120
954 2 -1.200000000000 26.995922692140 17.812689409519 3.936085460200
955 2 -1.200000000000 25.067642499844 21.152568673804 3.936085460200
956 2 -1.200000000000 25.067642499844 18.925982497614 5.510519644280
957 2 -1.200000000000 28.924202884436 21.152568673804 3.936085460200
958 2 -1.200000000000 28.924202884436 18.925982497614 5.510519644280
959 2 -1.200000000000 26.995922692140 22.265861761899 5.510519644280
960 2 -1.200000000000 26.995922692140 20.039275585709 7.084953828360
961 1 2.400000000000 26.995922692140 15.586103233329 3.148868368160
962 1 2.400000000000 25.067642499844 14.472810145234 6.297736736320
963 1 2.400000000000 28.924202884436 14.472810145234 6.297736736320
964 1 2.400000000000 26.995922692140 17.812689409519 6.297736736320
965 2 -1.200000000000 26.995922692140 15.586103233329 5.510519644280
966 2 -1.200000000000 26.995922692140 13.359517057139 7.084953828360
967 2 -1.200000000000 25.067642499844 16.699396321424 7.084953828360
968 2 -1.200000000000 25.067642499844 14.472810145234 8.659388012441
969 2 -1.200000000000 28.924202884436 16.699396321424 7.084953828360
970 2 -1.200000000000 28.924202884436 14.472810145234 8.659388012441
971 2 -1.200000000000 26.995922692140 17.812689409519 8.659388012441
972 2 -1.200000000000 26.995922692140 15.586103233329 10.233822196521
973 1 2.400000000000 26.995922692140 11.132930880950 6.297736736320
974 1 2.400000000000 25.067642499844 10.019637792855 9.446605104481
975 1 2.400000000000 28.924202884436 10.019637792855 9.446605104481
976 1 2.400000000000 26.995922692140 13.359517057139 9.446605104481
977 2 -1.200000000000 26.995922692140 11.132930880950 8.659388012441
978 2 -1.200000000000 26.995922692140 8.906344704760 10.233822196521
979 2 -1.200000000000 25.067642499844 12.246223969045 10.233822196521
980 2 -1.200000000000 25.067642499844 10.019637792855 11.808256380601
981 2 -1.200000000000 28.924202884436 12.246223969045 10.233822196521
982 2 -1.200000000000 28.924202884436 10.019637792855 11.808256380601
983 2 -1.200000000000 26.995922692140 13.359517057139 11.808256380601
984 2 -1.200000000000 26.995922692140 11.132930880950 13.382690564681
985 1 2.400000000000 26.995922692140 6.679758528570 9.446605104481
986 1 2.400000000000 25.067642499844 5.566465440475 12.595473472641
987 1 2.400000000000 28.924202884436 5.566465440475 12.595473472641
988 1 2.400000000000 26.995922692140 8.906344704760 12.595473472641
989 2 -1.200000000000 26.995922692140 6.679758528570 11.808256380601
990 2 -1.200000000000 26.995922692140 4.453172352380 13.382690564681
991 2 -1.200000000000 25.067642499844 7.793051616665 13.382690564681
992 2 -1.200000000000 25.067642499844 5.566465440475 14.957124748761
993 2 -1.200000000000 28.924202884436 7.793051616665 13.382690564681
994 2 -1.200000000000 28.924202884436 5.566465440475 14.957124748761
995 2 -1.200000000000 26.995922692140 8.906344704760 14.957124748761
996 2 -1.200000000000 26.995922692140 6.679758528570 16.531558932841
997 1 2.400000000000 26.995922692140 2.226586176190 12.595473472641
998 1 2.400000000000 25.067642499844 1.113293088095 15.744341840801
999 1 2.400000000000 28.924202884436 1.113293088095 15.744341840801
1000 1 2.400000000000 26.995922692140 4.453172352380 15.744341840801
1001 2 -1.200000000000 26.995922692140 2.226586176190 14.957124748761
1002 2 -1.200000000000 26.995922692140 0.000000000000 16.531558932841
1003 2 -1.200000000000 25.067642499844 3.339879264285 16.531558932841
1004 2 -1.200000000000 25.067642499844 1.113293088095 18.105993116921
1005 2 -1.200000000000 28.924202884436 3.339879264285 16.531558932841
1006 2 -1.200000000000 28.924202884436 1.113293088095 18.105993116921
1007 2 -1.200000000000 26.995922692140 4.453172352380 18.105993116921
1008 2 -1.200000000000 26.995922692140 2.226586176190 19.680427301001
1009 1 2.400000000000 23.139362307549 22.265861761899 3.148868368160
1010 1 2.400000000000 21.211082115253 21.152568673804 6.297736736320
1011 1 2.400000000000 25.067642499844 21.152568673804 6.297736736320
1012 1 2.400000000000 23.139362307549 24.492447938089 6.297736736320
1013 2 -1.200000000000 23.139362307549 22.265861761899 5.510519644280
1014 2 -1.200000000000 23.139362307549 20.039275585709 7.084953828360
1015 2 -1.200000000000 21.211082115253 23.379154849994 7.084953828360
1016 2 -1.200000000000 21.211082115253 21.152568673804 8.659388012441
1017 2 -1.200000000000 25.067642499844 23.379154849994 7.084953828360
1018 2 -1.200000000000 25.067642499844 21.152568673804 8.659388012441
1019 2 -1.200000000000 23.139362307549 24.492447938089 8.659388012441
1020 2 -1.200000000000 23.139362307549 22.265861761899 10.233822196521
1021 1 2.400000000000 23.139362307549 17.812689409519 6.297736736320
1022 1 2.400000000000 21.211082115253 16.699396321424 9.446605104481
1023 1 2.400000000000 25.067642499844 16.699396321424 9.446605104481
1024 1 2.400000000000 23.139362307549 20.039275585709 9.446605104481
1025 2 -1.200000000000 23.139362307549 17.812689409519 8.659388012441
1026 2 -1.200000000000 23.139362307549 15.586103233329 10.233822196521
1027 2 -1.200000000000 21.211082115253 18.925982497614 10.233822196521
1028 2 -1.200000000000 21.211082115253 16.699396321424 11.808256380601
1029 2 -1.200000000000 25.067642499844 18.925982497614 10.233822196521
1030 2 -1.200000000000 25.067642499844 16.699396321424 11.808256380601
1031 2 -1.200000000000 23.139362307549 20.039275585709 11.808256380601
1032 2 -1.200000000000 23.139362307549 17.812689409519 13.382690564681
1033 1 2.400000000000 23.139362307549 13.359517057139 9.446605104481
1034 1 2.400000000000 21.211082115253 12.246223969045 12.595473472641
1035 1 2.400000000000 25.067642499844 12.246223969045 12.595473472641
1036 1 2.400000000000 23.139362307549 15.586103233329 12.595473472641
1037 2 -1.200000000000 23.139362307549 13.359517057139 11.808256380601
1038 2 -1.200000000000 23.139362307549 11.132930880950 13.382690564681
1039 2 -1.200000000000 21.211082115253 14.472810145234 13.382690564681
1040 2 -1.200000000000 21.211082115253 12.246223969044 14.957124748761
1041 2 -1.200000000000 25.067642499844 14.472810145234 13.382690564681
1042 2 -1.200000000000 25.067642499844 12.246223969044 14.957124748761
1043 2 -1.200000000000 23.139362307549 15.586103233329 14.957124748761
1044 2 -1.200000000000 23.139362307549 13.359517057139 16.531558932841
1045 1 2.400000000000 23.139362307549 8.906344704760 12.595473472641
1046 1 2.400000000000 21.211082115253 7.793051616665 15.744341840801
1047 1 2.400000000000 25.067642499844 7.793051616665 15.744341840801
1048 1 2.400000000000 23.139362307549 11.132930880950 15.744341840801
1049 2 -1.200000000000 23.139362307549 8.906344704760 14.957124748761
1050 2 -1.200000000000 23.139362307549 6.679758528570 16.531558932841
1051 2 -1.200000000000 21.211082115253 10.019637792855 16.531558932841
1052 2 -1.200000000000 21.211082115253 7.793051616665 18.105993116921
1053 2 -1.200000000000 25.067642499844 10.019637792855 16.531558932841
1054 2 -1.200000000000 25.067642499844 7.793051616665 18.105993116921
1055 2 -1.200000000000 23.139362307549 11.132930880950 18.105993116921
1056 2 -1.200000000000 23.139362307549 8.906344704760 19.680427301001
1057 1 2.400000000000 23.139362307549 4.453172352380 15.744341840801
1058 1 2.400000000000 21.211082115253 3.339879264285 18.893210208961
1059 1 2.400000000000 25.067642499844 3.339879264285 18.893210208961
1060 1 2.400000000000 23.139362307549 6.679758528570 18.893210208961
1061 2 -1.200000000000 23.139362307549 4.453172352380 18.105993116921
1062 2 -1.200000000000 23.139362307549 2.226586176190 19.680427301001
1063 2 -1.200000000000 21.211082115253 5.566465440475 19.680427301001
1064 2 -1.200000000000 21.211082115253 3.339879264285 21.254861485081
1065 2 -1.200000000000 25.067642499844 5.566465440475 19.680427301001
1066 2 -1.200000000000 25.067642499844 3.339879264285 21.254861485081
1067 2 -1.200000000000 23.139362307549 6.679758528570 21.254861485081
1068 2 -1.200000000000 23.139362307549 4.453172352380 22.829295669162
1069 1 2.400000000000 23.139362307549 0.000000000000 18.893210208961
1070 1 2.400000000000 21.211082115253 25.605741026184 22.042078577122
1071 1 2.400000000000 25.067642499844 25.605741026184 22.042078577122
1072 1 2.400000000000 23.139362307549 2.226586176190 22.042078577122
1073 2 -1.200000000000 23.139362307549 0.000000000000 21.254861485081
1074 2 -1.200000000000 23.139362307549 24.492447938089 22.829295669162
1075 2 -1.200000000000 21.211082115253 1.113293088095 22.829295669162
1076 2 -1.200000000000 21.211082115253 25.605741026184 24.403729853242
1077 2 -1.200000000000 25.067642499844 1.113293088095 22.829295669162
1078 2 -1.200000000000 25.067642499844 25.605741026184 24.403729853242
1079 2 -1.200000000000 23.139362307549 2.226586176190 24.403729853242
1080 2 -1.200000000000 23.139362307549 0.000000000000 25.978164037322
1081 1 2.400000000000 19.282801922957 24.492447938089 6.297736736320
1082 1 2.400000000000 17.354521730661 23.379154849994 9.446605104481
1083 1 2.400000000000 21.211082115253 23.379154849994 9.446605104481
1084 1 2.400000000000 19.282801922957 0.000000000000 9.446605104481
1085 2 -1.200000000000 19.282801922957 24.492447938089 8.659388012441
1086 2 -1.200000000000 19.282801922957 22.265861761899 10.233822196521
1087 2 -1.200000000000 17.354521730661 25.605741026184 10.233822196521
1088 2 -1.200000000000 17.354521730661 23.379154849994 11.808256380601
1089 2 -1.200000000000 21.211082115253 25.605741026184 10.233822196521
1090 2 -1.200000000000 21.211082115253 23.379154849994 11.808256380601
1091 2 -1.200000000000 19.282801922957 0.000000000000 11.808256380601
1092 2 -1.200000000000 19.282801922957 24.492447938089 13.382690564681
1093 1 2.400000000000 19.282801922957 20.039275585709 9.446605104481
1094 1 2.400000000000 17.354521730661 18.925982497614 12.595473472641
1095 1 2.400000000000 21.211082115253 18.925982497614 12.595473472641
1096 1 2.400000000000 19.282801922957 22.265861761899 12.595473472641
1097 2 -1.200000000000 19.282801922957 20.039275585709 11.808256380601
1098 2 -1.200000000000 19.282801922957 17.812689409519 13.382690564681
1099 2 -1.200000000000 17.354521730661 21.152568673804 13.382690564681
1100 2 -1.200000000000 17.354521730661 18.925982497614 14.957124748761
1101 2 -1.200000000000 21.211082115253 21.152568673804 13.382690564681
1102 2 -1.200000000000 21.211082115253 18.925982497614 14.957124748761
1103 2 -1.200000000000 19.282801922957 22.265861761899 14.957124748761
1104 2 -1.200000000000 19.282801922957 20.039275585709 16.531558932841
1105 1 2.400000000000 19.282801922957 15.586103233329 12.595473472641
1106 1 2.400000000000 17.354521730661 14.472810145234 15.744341840801
1107 1 2.400000000000 21.211082115253 14.472810145234 15.744341840801
1108 1 2.400000000000 19.282801922957 17.812689409519 15.744341840801
1109 2 -1.200000000000 19.282801922957 15.586103233329 14.957124748761
1110 2 -1.200000000000 19.282801922957 13.359517057139 16.531558932841
1111 2 -1.200000000000 17.354521730661 16.699396321424 16.531558932841
1112 2 -1.200000000000 17.354521730661 14.472810145234 18.105993116921
1113 2 -1.200000000000 21.211082115253 16.699396321424 16.531558932841
1114 2 -1.200000000000 21.211082115253 14.472810145234 18.105993116921
1115 2 -1.200000000000 19.282801922957 17.812689409519 18.105993116921
1116 2 -1.200000000000 19.282801922957 15.586103233329 19.680427301001
1117 1 2.400000000000 19.282801922957 11.132930880950 15.744341840801
1118 1 2.400000000000 17.354521730661 10.019637792855 18.893210208961
1119 1 2.400000000000 21.211082115253 10.019637792855 18.893210208961
1120 1 2.400000000000 19.282801922957 13.359517057139 18.893210208961
1121 2 -1.200000000000 19.282801922957 11.132930880950 18.105993116921
1122 2 -1.200000000000 19.282801922957 8.906344704760 19.680427301001
1123 2 -1.200000000000 17.354521730661 12.246223969045 19.680427301001
1124 2 -1.200000000000 17.354521730661 10.019637792855 21.254861485081
1125 2 -1.200000000000 21.211082115253 12.246223969045 19.680427301001
1126 2 -1.200000000000 21.211082115253 10.019637792855 21.254861485081
1127 2 -1.200000000000 19.282801922957 13.359517057139 21.254861485081
1128 2 -1.200000000000 19.282801922957 11.132930880950 22.829295669162
1129 1 2.400000000000 19.282801922957 6.679758528570 18.893210208961
1130 1 2.400000000000 17.354521730661 5.566465440475 22.042078577122
1131 1 2.400000000000 21.211082115253 5.566465440475 22.042078577122
1132 1 2.400000000000 19.282801922957 8.906344704760 22.042078577122
1133 2 -1.200000000000 19.282801922957 6.679758528570 21.254861485081
1134 2 -1.200000000000 19.282801922957 4.453172352380 22.829295669162
1135 2 -1.200000000000 17.354521730661 7.793051616665 22.829295669162
1136 2 -1.200000000000 17.354521730661 5.566465440475 24.403729853242
1137 2 -1.200000000000 21.211082115253 7.793051616665 22.829295669162
1138 2 -1.200000000000 21.211082115253 5.566465440475 24.403729853242
1139 2 -1.200000000000 19.282801922957 8.906344704760 24.403729853242
1140 2 -1.200000000000 19.282801922957 6.679758528570 25.978164037322
1141 1 2.400000000000 19.282801922957 2.226586176190 22.042078577122
1142 1 2.400000000000 17.354521730661 1.113293088095 25.190946945282
1143 1 2.400000000000 21.211082115253 1.113293088095 25.190946945282
1144 1 2.400000000000 19.282801922957 4.453172352380 25.190946945282
1145 2 -1.200000000000 19.282801922957 2.226586176190 24.403729853242
1146 2 -1.200000000000 19.282801922957 0.000000000000 25.978164037322
1147 2 -1.200000000000 17.354521730661 3.339879264285 25.978164037322
1148 2 -1.200000000000 17.354521730661 1.113293088095 27.552598221402
1149 2 -1.200000000000 21.211082115253 3.339879264285 25.978164037322
1150 2 -1.200000000000 21.211082115253 1.113293088095 27.552598221402
1151 2 -1.200000000000 19.282801922957 4.453172352380 27.552598221402
1152 2 -1.200000000000 19.282801922957 2.226586176190 0.787217092040
1153 1 2.400000000000 15.426241538366 22.265861761899 12.595473472641
1154 1 2.400000000000 13.497961346070 21.152568673804 15.744341840801
1155 1 2.400000000000 17.354521730661 21.152568673804 15.744341840801
1156 1 2.400000000000 15.426241538366 24.492447938089 15.744341840801
1157 2 -1.200000000000 15.426241538366 22.265861761899 14.957124748761
1158 2 -1.200000000000 15.426241538366 20.039275585709 16.531558932841
1159 2 -1.200000000000 13.497961346070 23.379154849994 16.531558932841
1160 2 -1.200000000000 13.497961346070 21.152568673804 18.105993116921
1161 2 -1.200000000000 17.354521730661 23.379154849994 16.531558932841
1162 2 -1.200000000000 17.354521730661 21.152568673804 18.105993116921
1163 2 -1.200000000000 15.426241538366 24.492447938089 18.105993116921
1164 2 -1.200000000000 15.426241538366 22.265861761899 19.680427301001
1165 1 2.400000000000 15.426241538366 17.812689409519 15.744341840801
1166 1 2.400000000000 13.497961346070 16.699396321424 18.893210208961
1167 1 2.400000000000 17.354521730661 16.699396321424 18.893210208961
1168 1 2.400000000000 15.426241538366 20.039275585709 18.893210208961
1169 2 -1.200000000000 15.426241538366 17.812689409519 18.105993116921
1170 2 -1.200000000000 15.426241538366 15.586103233329 19.680427301001
1171 2 -1.200000000000 13.497961346070 18.925982497614 19.680427301001
1172 2 -1.200000000000 13.497961346070 16.699396321424 21.254861485081
1173 2 -1.200000000000 17.354521730661 18.925982497614 19.680427301001
1174 2 -1.200000000000 17.354521730661 16.699396321424 21.254861485081
1175 2 -1.200000000000 15.426241538366 20.039275585709 21.254861485081
1176 2 -1.200000000000 15.426241538366 17.812689409519 22.829295669162
1177 1 2.400000000000 15.426241538366 13.359517057139 18.893210208961
1178 1 2.400000000000 13.497961346070 12.246223969045 22.042078577122
1179 1 2.400000000000 17.354521730661 12.246223969045 22.042078577122
1180 1 2.400000000000 15.426241538366 15.586103233329 22.042078577122
1181 2 -1.200000000000 15.426241538366 13.359517057139 21.254861485081
1182 2 -1.200000000000 15.426241538366 11.132930880950 22.829295669162
1183 2 -1.200000000000 13.497961346070 14.472810145234 22.829295669162
1184 2 -1.200000000000 13.497961346070 12.246223969044 24.403729853242
1185 2 -1.200000000000 17.354521730661 14.472810145234 22.829295669162
1186 2 -1.200000000000 17.354521730661 12.246223969044 24.403729853242
1187 2 -1.200000000000 15.426241538366 15.586103233329 24.403729853242
1188 2 -1.200000000000 15.426241538366 13.359517057139 25.978164037322
1189 1 2.400000000000 15.426241538366 8.906344704760 22.042078577122
1190 1 2.400000000000 13.497961346070 7.793051616665 25.190946945282
1191 1 2.400000000000 17.354521730661 7.793051616665 25.190946945282
1192 1 2.400000000000 15.426241538366 11.132930880950 25.190946945282
1193 2 -1.200000000000 15.426241538366 8.906344704760 24.403729853242
1194 2 -1.200000000000 15.426241538366 6.679758528570 25.978164037322
1195 2 -1.200000000000 13.497961346070 10.019637792855 25.978164037322
1196 2 -1.200000000000 13.497961346070 7.793051616665 27.552598221402
1197 2 -1.200000000000 17.354521730661 10.019637792855 25.978164037322
1198 2 -1.200000000000 17.354521730661 7.793051616665 27.552598221402
1199 2 -1.200000000000 15.426241538366 11.132930880950 27.552598221402
1200 2 -1.200000000000 15.426241538366 8.906344704760 0.787217092040
1201 1 2.400000000000 15.426241538366 4.453172352380 25.190946945282
1202 1 2.400000000000 13.497961346070 3.339879264285 0.000000000000
1203 1 2.400000000000 17.354521730661 3.339879264285 0.000000000000
1204 1 2.400000000000 15.426241538366 6.679758528570 0.000000000000
1205 2 -1.200000000000 15.426241538366 4.453172352380 27.552598221402
1206 2 -1.200000000000 15.426241538366 2.226586176190 0.787217092040
1207 2 -1.200000000000 13.497961346070 5.566465440475 0.787217092040
1208 2 -1.200000000000 13.497961346070 3.339879264285 2.361651276120
1209 2 -1.200000000000 17.354521730661 5.566465440475 0.787217092040
1210 2 -1.200000000000 17.354521730661 3.339879264285 2.361651276120
1211 2 -1.200000000000 15.426241538366 6.679758528570 2.361651276120
1212 2 -1.200000000000 15.426241538366 4.453172352380 3.936085460200
1213 1 2.400000000000 11.569681153774 24.492447938089 15.744341840801
1214 1 2.400000000000 9.641400961479 23.379154849994 18.893210208961
1215 1 2.400000000000 13.497961346070 23.379154849994 18.893210208961
1216 1 2.400000000000 11.569681153774 0.000000000000 18.893210208961
1217 2 -1.200000000000 11.569681153774 24.492447938089 18.105993116921
1218 2 -1.200000000000 11.569681153774 22.265861761899 19.680427301001
1219 2 -1.200000000000 9.641400961479 25.605741026184 19.680427301001
1220 2 -1.200000000000 9.641400961479 23.379154849994 21.254861485081
1221 2 -1.200000000000 13.497961346070 25.605741026184 19.680427301001
1222 2 -1.200000000000 13.497961346070 23.379154849994 21.254861485081
1223 2 -1.200000000000 11.569681153774 0.000000000000 21.254861485081
1224 2 -1.200000000000 11.569681153774 24.492447938089 22.829295669162
1225 1 2.400000000000 11.569681153774 20.039275585709 18.893210208961
1226 1 2.400000000000 9.641400961479 18.925982497614 22.042078577122
1227 1 2.400000000000 13.497961346070 18.925982497614 22.042078577122
1228 1 2.400000000000 11.569681153774 22.265861761899 22.042078577122
1229 2 -1.200000000000 11.569681153774 20.039275585709 21.254861485081
1230 2 -1.200000000000 11.569681153774 17.812689409519 22.829295669162
1231 2 -1.200000000000 9.641400961479 21.152568673804 22.829295669162
1232 2 -1.200000000000 9.641400961479 18.925982497614 24.403729853242
1233 2 -1.200000000000 13.497961346070 21.152568673804 22.829295669162
1234 2 -1.200000000000 13.497961346070 18.925982497614 24.403729853242
1235 2 -1.200000000000 11.569681153774 22.265861761899 24.403729853242
1236 2 -1.200000000000 11.569681153774 20.039275585709 25.978164037322
1237 1 2.400000000000 11.569681153774 15.586103233329 22.042078577122
1238 1 2.400000000000 9.641400961479 14.472810145234 25.190946945282
1239 1 2.400000000000 13.497961346070 14.472810145234 25.190946945282
1240 1 2.400000000000 11.569681153774 17.812689409519 25.190946945282
1241 2 -1.200000000000 11.569681153774 15.586103233329 24.403729853242
1242 2 -1.200000000000 11.569681153774 13.359517057139 25.978164037322
1243 2 -1.200000000000 9.641400961479 16.699396321424 25.978164037322
1244 2 -1.200000000000 9.641400961479 14.472810145234 27.552598221402
1245 2 -1.200000000000 13.497961346070 16.699396321424 25.978164037322
1246 2 -1.200000000000 13.497961346070 14.472810145234 27.552598221402
1247 2 -1.200000000000 11.569681153774 17.812689409519 27.552598221402
1248 2 -1.200000000000 11.569681153774 15.586103233329 0.787217092040
1249 1 2.400000000000 11.569681153774 11.132930880950 25.190946945282
1250 1 2.400000000000 9.641400961479 10.019637792855 0.000000000000
1251 1 2.400000000000 13.497961346070 10.019637792855 0.000000000000
1252 1 2.400000000000 11.569681153774 13.359517057139 0.000000000000
1253 2 -1.200000000000 11.569681153774 11.132930880950 27.552598221402
1254 2 -1.200000000000 11.569681153774 8.906344704760 0.787217092040
1255 2 -1.200000000000 9.641400961479 12.246223969045 0.787217092040
1256 2 -1.200000000000 9.641400961479 10.019637792855 2.361651276120
1257 2 -1.200000000000 13.497961346070 12.246223969045 0.787217092040
1258 2 -1.200000000000 13.497961346070 10.019637792855 2.361651276120
1259 2 -1.200000000000 11.569681153774 13.359517057139 2.361651276120
1260 2 -1.200000000000 11.569681153774 11.132930880950 3.936085460200
1261 1 2.400000000000 7.713120769183 22.265861761899 22.042078577122
1262 1 2.400000000000 5.784840576887 21.152568673804 25.190946945282
1263 1 2.400000000000 9.641400961479 21.152568673804 25.190946945282
1264 1 2.400000000000 7.713120769183 24.492447938089 25.190946945282
1265 2 -1.200000000000 7.713120769183 22.265861761899 24.403729853242
1266 2 -1.200000000000 7.713120769183 20.039275585709 25.978164037322
1267 2 -1.200000000000 5.784840576887 23.379154849994 25.978164037322
1268 2 -1.200000000000 5.784840576887 21.152568673804 27.552598221402
1269 2 -1.200000000000 9.641400961479 23.379154849994 25.978164037322
1270 2 -1.200000000000 9.641400961479 21.152568673804 27.552598221402
1271 2 -1.200000000000 7.713120769183 24.492447938089 27.552598221402
1272 2 -1.200000000000 7.713120769183 22.265861761899 0.787217092040
1273 1 2.400000000000 7.713120769183 17.812689409519 25.190946945282
1274 1 2.400000000000 5.784840576887 16.699396321424 0.000000000000
1275 1 2.400000000000 9.641400961479 16.699396321424 0.000000000000
1276 1 2.400000000000 7.713120769183 20.039275585709 0.000000000000
1277 2 -1.200000000000 7.713120769183 17.812689409519 27.552598221402
1278 2 -1.200000000000 7.713120769183 15.586103233329 0.787217092040
1279 2 -1.200000000000 5.784840576887 18.925982497614 0.787217092040
1280 2 -1.200000000000 5.784840576887 16.699396321424 2.361651276120
1281 2 -1.200000000000 9.641400961479 18.925982497614 0.787217092040
1282 2 -1.200000000000 9.641400961479 16.699396321424 2.361651276120
1283 2 -1.200000000000 7.713120769183 20.039275585709 2.361651276120
1284 2 -1.200000000000 7.713120769183 17.812689409519 3.936085460200
1285 1 2.400000000000 3.856560384591 24.492447938089 25.190946945282
1286 1 2.400000000000 1.928280192296 23.379154849994 0.000000000000
1287 1 2.400000000000 5.784840576887 23.379154849994 0.000000000000
1288 1 2.400000000000 3.856560384591 0.000000000000 0.000000000000
1289 2 -1.200000000000 3.856560384591 24.492447938089 27.552598221402
1290 2 -1.200000000000 3.856560384591 22.265861761899 0.787217092040
1291 2 -1.200000000000 1.928280192296 25.605741026184 0.787217092040
1292 2 -1.200000000000 1.928280192296 23.379154849994 2.361651276120
1293 2 -1.200000000000 5.784840576887 25.605741026184 0.787217092040
1294 2 -1.200000000000 5.784840576887 23.379154849994 2.361651276120
1295 2 -1.200000000000 3.856560384591 0.000000000000 2.361651276120
1296 2 -1.200000000000 3.856560384591 24.492447938089 3.936085460200
1297 1 2.400000000000 46.278724615097 0.000000000000 0.000000000000
1298 1 2.400000000000 44.350444422801 25.605741026184 3.148868368160
1299 1 2.400000000000 48.207004807393 25.605741026184 3.148868368160
1300 1 2.400000000000 46.278724615097 2.226586176190 3.148868368160
1301 2 -1.200000000000 46.278724615097 0.000000000000 2.361651276120
1302 2 -1.200000000000 46.278724615097 24.492447938089 3.936085460200
1303 2 -1.200000000000 44.350444422801 1.113293088095 3.936085460200
1304 2 -1.200000000000 44.350444422801 25.605741026184 5.510519644280
1305 2 -1.200000000000 48.207004807393 1.113293088095 3.936085460200
1306 2 -1.200000000000 48.207004807393 25.605741026184 5.510519644280
1307 2 -1.200000000000 46.278724615097 2.226586176190 5.510519644280
1308 2 -1.200000000000 46.278724615097 0.000000000000 7.084953828360
1309 1 2.400000000000 42.422164230506 6.679758528570 0.000000000000
1310 1 2.400000000000 40.493884038210 5.566465440475 3.148868368160
1311 1 2.400000000000 44.350444422801 5.566465440475 3.148868368160
1312 1 2.400000000000 42.422164230506 8.906344704760 3.148868368160
1313 2 -1.200000000000 42.422164230506 6.679758528570 2.361651276120
1314 2 -1.200000000000 42.422164230506 4.453172352380 3.936085460200
1315 2 -1.200000000000 40.493884038210 7.793051616665 3.936085460200
1316 2 -1.200000000000 40.493884038210 5.566465440475 5.510519644280
1317 2 -1.200000000000 44.350444422801 7.793051616665 3.936085460200
1318 2 -1.200000000000 44.350444422801 5.566465440475 5.510519644280
1319 2 -1.200000000000 42.422164230506 8.906344704760 5.510519644280
1320 2 -1.200000000000 42.422164230506 6.679758528570 7.084953828360
1321 1 2.400000000000 42.422164230506 2.226586176190 3.148868368160
1322 1 2.400000000000 40.493884038210 1.113293088095 6.297736736320
1323 1 2.400000000000 44.350444422801 1.113293088095 6.297736736320
1324 1 2.400000000000 42.422164230506 4.453172352380 6.297736736320
1325 2 -1.200000000000 42.422164230506 2.226586176190 5.510519644280
1326 2 -1.200000000000 42.422164230506 0.000000000000 7.084953828360
1327 2 -1.200000000000 40.493884038210 3.339879264285 7.084953828360
1328 2 -1.200000000000 40.493884038210 1.113293088095 8.659388012441
1329 2 -1.200000000000 44.350444422801 3.339879264285 7.084953828360
1330 2 -1.200000000000 44.350444422801 1.113293088095 8.659388012441
1331 2 -1.200000000000 42.422164230506 4.453172352380 8.659388012441
1332 2 -1.200000000000 42.422164230506 2.226586176190 10.233822196521
1333 1 2.400000000000 38.565603845914 13.359517057139 0.000000000000
1334 1 2.400000000000 36.637323653619 12.246223969045 3.148868368160
1335 1 2.400000000000 40.493884038210 12.246223969044 3.148868368160
1336 1 2.400000000000 38.565603845914 15.586103233329 3.148868368160
1337 2 -1.200000000000 38.565603845914 13.359517057139 2.361651276120
1338 2 -1.200000000000 38.565603845914 11.132930880950 3.936085460200
1339 2 -1.200000000000 36.637323653619 14.472810145234 3.936085460200
1340 2 -1.200000000000 36.637323653619 12.246223969045 5.510519644280
1341 2 -1.200000000000 40.493884038210 14.472810145234 3.936085460200
1342 2 -1.200000000000 40.493884038210 12.246223969044 5.510519644280
1343 2 -1.200000000000 38.565603845914 15.586103233329 5.510519644280
1344 2 -1.200000000000 38.565603845914 13.359517057139 7.084953828360
1345 1 2.400000000000 38.565603845914 8.906344704760 3.148868368160
1346 1 2.400000000000 36.637323653619 7.793051616665 6.297736736320
1347 1 2.400000000000 40.493884038210 7.793051616665 6.297736736320
1348 1 2.400000000000 38.565603845914 11.132930880950 6.297736736320
1349 2 -1.200000000000 38.565603845914 8.906344704760 5.510519644280
1350 2 -1.200000000000 38.565603845914 6.679758528570 7.084953828360
1351 2 -1.200000000000 36.637323653619 10.019637792855 7.084953828360
1352 2 -1.200000000000 36.637323653619 7.793051616665 8.659388012441
1353 2 -1.200000000000 40.493884038210 10.019637792855 7.084953828360
1354 2 -1.200000000000 40.493884038210 7.793051616665 8.659388012441
1355 2 -1.200000000000 38.565603845914 11.132930880950 8.659388012441
1356 2 -1.200000000000 38.565603845914 8.906344704760 10.233822196521
1357 1 2.400000000000 38.565603845914 4.453172352380 6.297736736320
1358 1 2.400000000000 36.637323653619 3.339879264285 9.446605104481
1359 1 2.400000000000 40.493884038210 3.339879264285 9.446605104481
1360 1 2.400000000000 38.565603845914 6.679758528570 9.446605104481
1361 2 -1.200000000000 38.565603845914 4.453172352380 8.659388012441
1362 2 -1.200000000000 38.565603845914 2.226586176190 10.233822196521
1363 2 -1.200000000000 36.637323653619 5.566465440475 10.233822196521
1364 2 -1.200000000000 36.637323653619 3.339879264285 11.808256380601
1365 2 -1.200000000000 40.493884038210 5.566465440475 10.233822196521
1366 2 -1.200000000000 40.493884038210 3.339879264285 11.808256380601
1367 2 -1.200000000000 38.565603845914 6.679758528570 11.808256380601
1368 2 -1.200000000000 38.565603845914 4.453172352380 13.382690564681
1369 1 2.400000000000 38.565603845914 0.000000000000 9.446605104481
1370 1 2.400000000000 36.637323653619 25.605741026184 12.595473472641
1371 1 2.400000000000 40.493884038210 25.605741026184 12.595473472641
1372 1 2.400000000000 38.565603845914 2.226586176190 12.595473472641
1373 2 -1.200000000000 38.565603845914 0.000000000000 11.808256380601
1374 2 -1.200000000000 38.565603845914 24.492447938089 13.382690564681
1375 2 -1.200000000000 36.637323653619 1.113293088095 13.382690564681
1376 2 -1.200000000000 36.637323653619 25.605741026184 14.957124748761
1377 2 -1.200000000000 40.493884038210 1.113293088095 13.382690564681
1378 2 -1.200000000000 40.493884038210 25.605741026184 14.957124748761
1379 2 -1.200000000000 38.565603845914 2.226586176190 14.957124748761
1380 2 -1.200000000000 38.565603845914 0.000000000000 16.531558932841
1381 1 2.400000000000 34.709043461323 20.039275585709 0.000000000000
1382 1 2.400000000000 32.780763269027 18.925982497614 3.148868368160
1383 1 2.400000000000 36.637323653619 18.925982497614 3.148868368160
1384 1 2.400000000000 34.709043461323 22.265861761899 3.148868368160
1385 2 -1.200000000000 34.709043461323 20.039275585709 2.361651276120
1386 2 -1.200000000000 34.709043461323 17.812689409519 3.936085460200
1387 2 -1.200000000000 32.780763269027 21.152568673804 3.936085460200
1388 2 -1.200000000000 32.780763269027 18.925982497614 5.510519644280
1389 2 -1.200000000000 36.637323653619 21.152568673804 3.936085460200
1390 2 -1.200000000000 36.637323653619 18.925982497614 5.510519644280
1391 2 -1.200000000000 34.709043461323 22.265861761899 5.510519644280
1392 2 -1.200000000000 34.709043461323 20.039275585709 7.084953828360
1393 1 2.400000000000 34.709043461323 15.586103233329 3.148868368160
1394 1 2.400000000000 32.780763269027 14.472810145234 6.297736736320
1395 1 2.400000000000 36.637323653619 14.472810145234 6.297736736320
1396 1 2.400000000000 34.709043461323 17.812689409519 6.297736736320
1397 2 -1.200000000000 34.709043461323 15.586103233329 5.510519644280
1398 2 -1.200000000000 34.709043461323 13.359517057139 7.084953828360
1399 2 -1.200000000000 32.780763269027 16.699396321424 7.084953828360
1400 2 -1.200000000000 32.780763269027 14.472810145234 8.659388012441
1401 2 -1.200000000000 36.637323653619 16.699396321424 7.084953828360
1402 2 -1.200000000000 36.637323653619 14.472810145234 8.659388012441
1403 2 -1.200000000000 34.709043461323 17.812689409519 8.659388012441
1404 2 -1.200000000000 34.709043461323 15.586103233329 10.233822196521
1405 1 2.400000000000 34.709043461323 11.132930880950 6.297736736320
1406 1 2.400000000000 32.780763269027 10.019637792855 9.446605104481
1407 1 2.400000000000 36.637323653619 10.019637792855 9.446605104481
1408 1 2.400000000000 34.709043461323 13.359517057139 9.446605104481
1409 2 -1.200000000000 34.709043461323 11.132930880950 8.659388012441
1410 2 -1.200000000000 34.709043461323 8.906344704760 10.233822196521
1411 2 -1.200000000000 32.780763269027 12.246223969045 10.233822196521
1412 2 -1.200000000000 32.780763269027 10.019637792855 11.808256380601
1413 2 -1.200000000000 36.637323653619 12.246223969044 10.233822196521
1414 2 -1.200000000000 36.637323653619 10.019637792855 11.808256380601
1415 2 -1.200000000000 34.709043461323 13.359517057139 11.808256380601
1416 2 -1.200000000000 34.709043461323 11.132930880950 13.382690564681
1417 1 2.400000000000 34.709043461323 6.679758528570 9.446605104481
1418 1 2.400000000000 32.780763269027 5.566465440475 12.595473472641
1419 1 2.400000000000 36.637323653619 5.566465440475 12.595473472641
1420 1 2.400000000000 34.709043461323 8.906344704760 12.595473472641
1421 2 -1.200000000000 34.709043461323 6.679758528570 11.808256380601
1422 2 -1.200000000000 34.709043461323 4.453172352380 13.382690564681
1423 2 -1.200000000000 32.780763269027 7.793051616665 13.382690564681
1424 2 -1.200000000000 32.780763269027 5.566465440475 14.957124748761
1425 2 -1.200000000000 36.637323653619 7.793051616665 13.382690564681
1426 2 -1.200000000000 36.637323653619 5.566465440475 14.957124748761
1427 2 -1.200000000000 34.709043461323 8.906344704760 14.957124748761
1428 2 -1.200000000000 34.709043461323 6.679758528570 16.531558932841
1429 1 2.400000000000 34.709043461323 2.226586176190 12.595473472641
1430 1 2.400000000000 32.780763269027 1.113293088095 15.744341840801
1431 1 2.400000000000 36.637323653619 1.113293088095 15.744341840801
1432 1 2.400000000000 34.709043461323 4.453172352380 15.744341840801
1433 2 -1.200000000000 34.709043461323 2.226586176190 14.957124748761
1434 2 -1.200000000000 34.709043461323 0.000000000000 16.531558932841
1435 2 -1.200000000000 32.780763269027 3.339879264285 16.531558932841
1436 2 -1.200000000000 32.780763269027 1.113293088095 18.105993116921
1437 2 -1.200000000000 36.637323653619 3.339879264285 16.531558932841
1438 2 -1.200000000000 36.637323653619 1.113293088095 18.105993116921
1439 2 -1.200000000000 34.709043461323 4.453172352380 18.105993116921
1440 2 -1.200000000000 34.709043461323 2.226586176190 19.680427301001
1441 1 2.400000000000 30.852483076731 22.265861761899 3.148868368160
1442 1 2.400000000000 28.924202884436 21.152568673804 6.297736736320
1443 1 2.400000000000 32.780763269027 21.152568673804 6.297736736320
1444 1 2.400000000000 30.852483076731 24.492447938089 6.297736736320
1445 2 -1.200000000000 30.852483076731 22.265861761899 5.510519644280
1446 2 -1.200000000000 30.852483076731 20.039275585709 7.084953828360
1447 2 -1.200000000000 28.924202884436 23.379154849994 7.084953828360
1448 2 -1.200000000000 28.924202884436 21.152568673804 8.659388012441
1449 2 -1.200000000000 32.780763269027 23.379154849994 7.084953828360
1450 2 -1.200000000000 32.780763269027 21.152568673804 8.659388012441
1451 2 -1.200000000000 30.852483076731 24.492447938089 8.659388012441
1452 2 -1.200000000000 30.852483076731 22.265861761899 10.233822196521
1453 1 2.400000000000 30.852483076731 17.812689409519 6.297736736320
1454 1 2.400000000000 28.924202884436 16.699396321424 9.446605104481
1455 1 2.400000000000 32.780763269027 16.699396321424 9.446605104481
1456 1 2.400000000000 30.852483076731 20.039275585709 9.446605104481
1457 2 -1.200000000000 30.852483076731 17.812689409519 8.659388012441
1458 2 -1.200000000000 30.852483076731 15.586103233329 10.233822196521
1459 2 -1.200000000000 28.924202884436 18.925982497614 10.233822196521
1460 2 -1.200000000000 28.924202884436 16.699396321424 11.808256380601
1461 2 -1.200000000000 32.780763269027 18.925982497614 10.233822196521
1462 2 -1.200000000000 32.780763269027 16.699396321424 11.808256380601
1463 2 -1.200000000000 30.852483076731 20.039275585709 11.808256380601
1464 2 -1.200000000000 30.852483076731 17.812689409519 13.382690564681
1465 1 2.400000000000 30.852483076731 13.359517057139 9.446605104481
1466 1 2.400000000000 28.924202884436 12.246223969045 12.595473472641
1467 1 2.400000000000 32.780763269027 12.246223969044 12.595473472641
1468 1 2.400000000000 30.852483076731 15.586103233329 12.595473472641
1469 2 -1.200000000000 30.852483076731 13.359517057139 11.808256380601
1470 2 -1.200000000000 30.852483076731 11.132930880950 13.382690564681
1471 2 -1.200000000000 28.924202884436 14.472810145234 13.382690564681
1472 2 -1.200000000000 28.924202884436 12.246223969045 14.957124748761
1473 2 -1.200000000000 32.780763269027 14.472810145234 13.382690564681
1474 2 -1.200000000000 32.780763269027 12.246223969044 14.957124748761
1475 2 -1.200000000000 30.852483076731 15.586103233329 14.957124748761
1476 2 -1.200000000000 30.852483076731 13.359517057139 16.531558932841
1477 1 2.400000000000 30.852483076731 8.906344704760 12.595473472641
1478 1 2.400000000000 28.924202884436 7.793051616665 15.744341840801
1479 1 2.400000000000 32.780763269027 7.793051616665 15.744341840801
1480 1 2.400000000000 30.852483076731 11.132930880950 15.744341840801
1481 2 -1.200000000000 30.852483076731 8.906344704760 14.957124748761
1482 2 -1.200000000000 30.852483076731 6.679758528570 16.531558932841
1483 2 -1.200000000000 28.924202884436 10.019637792855 16.531558932841
1484 2 -1.200000000000 28.924202884436 7.793051616665 18.105993116921
1485 2 -1.200000000000 32.780763269027 10.019637792855 16.531558932841
1486 2 -1.200000000000 32.780763269027 7.793051616665 18.105993116921
1487 2 -1.200000000000 30.852483076731 11.132930880950 18.105993116921
1488 2 -1.200000000000 30.852483076731 8.906344704760 19.680427301001
1489 1 2.400000000000 30.852483076731 4.453172352380 15.744341840801
1490 1 2.400000000000 28.924202884436 3.339879264285 18.893210208961
1491 1 2.400000000000 32.780763269027 3.339879264285 18.893210208961
1492 1 2.400000000000 30.852483076731 6.679758528570 18.893210208961
1493 2 -1.200000000000 30.852483076731 4.453172352380 18.105993116921
1494 2 -1.200000000000 30.852483076731 2.226586176190 19.680427301001
1495 2 -1.200000000000 28.924202884436 5.566465440475 19.680427301001
1496 2 -1.200000000000 28.924202884436 3.339879264285 21.254861485081
1497 2 -1.200000000000 32.780763269027 5.566465440475 19.680427301001
1498 2 -1.200000000000 32.780763269027 3.339879264285 21.254861485081
1499 2 -1.200000000000 30.852483076731 6.679758528570 21.254861485081
1500 2 -1.200000000000 30.852483076731 4.453172352380 22.829295669162
1501 1 2.400000000000 30.852483076731 0.000000000000 18.893210208961
1502 1 2.400000000000 28.924202884436 25.605741026184 22.042078577122
1503 1 2.400000000000 32.780763269027 25.605741026184 22.042078577122
1504 1 2.400000000000 30.852483076731 2.226586176190 22.042078577122
1505 2 -1.200000000000 30.852483076731 0.000000000000 21.254861485081
1506 2 -1.200000000000 30.852483076731 24.492447938089 22.829295669162
1507 2 -1.200000000000 28.924202884436 1.113293088095 22.829295669162
1508 2 -1.200000000000 28.924202884436 25.605741026184 24.403729853242
1509 2 -1.200000000000 32.780763269027 1.113293088095 22.829295669162
1510 2 -1.200000000000 32.780763269027 25.605741026184 24.403729853242
1511 2 -1.200000000000 30.852483076731 2.226586176190 24.403729853242
1512 2 -1.200000000000 30.852483076731 0.000000000000 25.978164037322
1513 1 2.400000000000 26.995922692140 24.492447938089 6.297736736320
1514 1 2.400000000000 25.067642499844 23.379154849994 9.446605104481
1515 1 2.400000000000 28.924202884436 23.379154849994 9.446605104481
1516 1 2.400000000000 26.995922692140 0.000000000000 9.446605104481
1517 2 -1.200000000000 26.995922692140 24.492447938089 8.659388012441
1518 2 -1.200000000000 26.995922692140 22.265861761899 10.233822196521
1519 2 -1.200000000000 25.067642499844 25.605741026184 10.233822196521
1520 2 -1.200000000000 25.067642499844 23.379154849994 11.808256380601
1521 2 -1.200000000000 28.924202884436 25.605741026184 10.233822196521
1522 2 -1.200000000000 28.924202884436 23.379154849994 11.808256380601
1523 2 -1.200000000000 26.995922692140 0.000000000000 11.808256380601
1524 2 -1.200000000000 26.995922692140 24.492447938089 13.382690564681
1525 1 2.400000000000 26.995922692140 20.039275585709 9.446605104481
1526 1 2.400000000000 25.067642499844 18.925982497614 12.595473472641
1527 1 2.400000000000 28.924202884436 18.925982497614 12.595473472641
1528 1 2.400000000000 26.995922692140 22.265861761899 12.595473472641
1529 2 -1.200000000000 26.995922692140 20.039275585709 11.808256380601
1530 2 -1.200000000000 26.995922692140 17.812689409519 13.382690564681
1531 2 -1.200000000000 25.067642499844 21.152568673804 13.382690564681
1532 2 -1.200000000000 25.067642499844 18.925982497614 14.957124748761
1533 2 -1.200000000000 28.924202884436 21.152568673804 13.382690564681
1534 2 -1.200000000000 28.924202884436 18.925982497614 14.957124748761
1535 2 -1.200000000000 26.995922692140 22.265861761899 14.957124748761
1536 2 -1.200000000000 26.995922692140 20.039275585709 16.531558932841
1537 1 2.400000000000 26.995922692140 15.586103233329 12.595473472641
1538 1 2.400000000000 25.067642499844 14.472810145234 15.744341840801
1539 1 2.400000000000 28.924202884436 14.472810145234 15.744341840801
1540 1 2.400000000000 26.995922692140 17.812689409519 15.744341840801
1541 2 -1.200000000000 26.995922692140 15.586103233329 14.957124748761
1542 2 -1.200000000000 26.995922692140 13.359517057139 16.531558932841
1543 2 -1.200000000000 25.067642499844 16.699396321424 16.531558932841
1544 2 -1.200000000000 25.067642499844 14.472810145234 18.105993116921
1545 2 -1.200000000000 28.924202884436 16.699396321424 16.531558932841
1546 2 -1.200000000000 28.924202884436 14.472810145234 18.105993116921
1547 2 -1.200000000000 26.995922692140 17.812689409519 18.105993116921
1548 2 -1.200000000000 26.995922692140 15.586103233329 19.680427301001
1549 1 2.400000000000 26.995922692140 11.132930880950 15.744341840801
1550 1 2.400000000000 25.067642499844 10.019637792855 18.893210208961
1551 1 2.400000000000 28.924202884436 10.019637792855 18.893210208961
1552 1 2.400000000000 26.995922692140 13.359517057139 18.893210208961
1553 2 -1.200000000000 26.995922692140 11.132930880950 18.105993116921
1554 2 -1.200000000000 26.995922692140 8.906344704760 19.680427301001
1555 2 -1.200000000000 25.067642499844 12.246223969045 19.680427301001
1556 2 -1.200000000000 25.067642499844 10.019637792855 21.254861485081
1557 2 -1.200000000000 28.924202884436 12.246223969044 19.680427301001
1558 2 -1.200000000000 28.924202884436 10.019637792855 21.254861485081
1559 2 -1.200000000000 26.995922692140 13.359517057139 21.254861485081
1560 2 -1.200000000000 26.995922692140 11.132930880950 22.829295669162
1561 1 2.400000000000 26.995922692140 6.679758528570 18.893210208961
1562 1 2.400000000000 25.067642499844 5.566465440475 22.042078577122
1563 1 2.400000000000 28.924202884436 5.566465440475 22.042078577122
1564 1 2.400000000000 26.995922692140 8.906344704760 22.042078577122
1565 2 -1.200000000000 26.995922692140 6.679758528570 21.254861485081
1566 2 -1.200000000000 26.995922692140 4.453172352380 22.829295669162
1567 2 -1.200000000000 25.067642499844 7.793051616665 22.829295669162
1568 2 -1.200000000000 25.067642499844 5.566465440475 24.403729853242
1569 2 -1.200000000000 28.924202884436 7.793051616665 22.829295669162
1570 2 -1.200000000000 28.924202884436 5.566465440475 24.403729853242
1571 2 -1.200000000000 26.995922692140 8.906344704760 24.403729853242
1572 2 -1.200000000000 26.995922692140 6.679758528570 25.978164037322
1573 1 2.400000000000 26.995922692140 2.226586176190 22.042078577122
1574 1 2.400000000000 25.067642499844 1.113293088095 25.190946945282
1575 1 2.400000000000 28.924202884436 1.113293088095 25.190946945282
1576 1 2.400000000000 26.995922692140 4.453172352380 25.190946945282
1577 2 -1.200000000000 26.995922692140 2.226586176190 24.403729853242
1578 2 -1.200000000000 26.995922692140 0.000000000000 25.978164037322
1579 2 -1.200000000000 25.067642499844 3.339879264285 25.978164037322
1580 2 -1.200000000000 25.067642499844 1.113293088095 27.552598221402
1581 2 -1.200000000000 28.924202884436 3.339879264285 25.978164037322
1582 2 -1.200000000000 28.924202884436 1.113293088095 27.552598221402
1583 2 -1.200000000000 26.995922692140 4.453172352380 27.552598221402
1584 2 -1.200000000000 26.995922692140 2.226586176190 0.787217092040
1585 1 2.400000000000 23.139362307549 22.265861761899 12.595473472641
1586 1 2.400000000000 21.211082115253 21.152568673804 15.744341840801
1587 1 2.400000000000 25.067642499844 21.152568673804 15.744341840801
1588 1 2.400000000000 23.139362307549 24.492447938089 15.744341840801
1589 2 -1.200000000000 23.139362307549 22.265861761899 14.957124748761
1590 2 -1.200000000000 23.139362307549 20.039275585709 16.531558932841
1591 2 -1.200000000000 21.211082115253 23.379154849994 16.531558932841
1592 2 -1.200000000000 21.211082115253 21.152568673804 18.105993116921
1593 2 -1.200000000000 25.067642499844 23.379154849994 16.531558932841
1594 2 -1.200000000000 25.067642499844 21.152568673804 18.105993116921
1595 2 -1.200000000000 23.139362307549 24.492447938089 18.105993116921
1596 2 -1.200000000000 23.139362307549 22.265861761899 19.680427301001
1597 1 2.400000000000 23.139362307549 17.812689409519 15.744341840801
1598 1 2.400000000000 21.211082115253 16.699396321424 18.893210208961
1599 1 2.400000000000 25.067642499844 16.699396321424 18.893210208961
1600 1 2.400000000000 23.139362307549 20.039275585709 18.893210208961
1601 2 -1.200000000000 23.139362307549 17.812689409519 18.105993116921
1602 2 -1.200000000000 23.139362307549 15.586103233329 19.680427301001
1603 2 -1.200000000000 21.211082115253 18.925982497614 19.680427301001
1604 2 -1.200000000000 21.211082115253 16.699396321424 21.254861485081
1605 2 -1.200000000000 25.067642499844 18.925982497614 19.680427301001
1606 2 -1.200000000000 25.067642499844 16.699396321424 21.254861485081
1607 2 -1.200000000000 23.139362307549 20.039275585709 21.254861485081
1608 2 -1.200000000000 23.139362307549 17.812689409519 22.829295669162
1609 1 2.400000000000 23.139362307549 13.359517057139 18.893210208961
1610 1 2.400000000000 21.211082115253 12.246223969044 22.042078577122
1611 1 2.400000000000 25.067642499844 12.246223969044 22.042078577122
1612 1 2.400000000000 23.139362307549 15.586103233329 22.042078577122
1613 2 -1.200000000000 23.139362307549 13.359517057139 21.254861485081
1614 2 -1.200000000000 23.139362307549 11.132930880950 22.829295669162
1615 2 -1.200000000000 21.211082115253 14.472810145234 22.829295669162
1616 2 -1.200000000000 21.211082115253 12.246223969045 24.403729853242
1617 2 -1.200000000000 25.067642499844 14.472810145234 22.829295669162
1618 2 -1.200000000000 25.067642499844 12.246223969044 24.403729853242
1619 2 -1.200000000000 23.139362307549 15.586103233329 24.403729853242
1620 2 -1.200000000000 23.139362307549 13.359517057139 25.978164037322
1621 1 2.400000000000 23.139362307549 8.906344704760 22.042078577122
1622 1 2.400000000000 21.211082115253 7.793051616665 25.190946945282
1623 1 2.400000000000 25.067642499844 7.793051616665 25.190946945282
1624 1 2.400000000000 23.139362307549 11.132930880950 25.190946945282
1625 2 -1.200000000000 23.139362307549 8.906344704760 24.403729853242
1626 2 -1.200000000000 23.139362307549 6.679758528570 25.978164037322
1627 2 -1.200000000000 21.211082115253 10.019637792855 25.978164037322
1628 2 -1.200000000000 21.211082115253 7.793051616665 27.552598221402
1629 2 -1.200000000000 25.067642499844 10.019637792855 25.978164037322
1630 2 -1.200000000000 25.067642499844 7.793051616665 27.552598221402
1631 2 -1.200000000000 23.139362307549 11.132930880950 27.552598221402
1632 2 -1.200000000000 23.139362307549 8.906344704760 0.787217092040
1633 1 2.400000000000 23.139362307549 4.453172352380 25.190946945282
1634 1 2.400000000000 21.211082115253 3.339879264285 0.000000000000
1635 1 2.400000000000 25.067642499844 3.339879264285 0.000000000000
1636 1 2.400000000000 23.139362307549 6.679758528570 0.000000000000
1637 2 -1.200000000000 23.139362307549 4.453172352380 27.552598221402
1638 2 -1.200000000000 23.139362307549 2.226586176190 0.787217092040
1639 2 -1.200000000000 21.211082115253 5.566465440475 0.787217092040
1640 2 -1.200000000000 21.211082115253 3.339879264285 2.361651276120
1641 2 -1.200000000000 25.067642499844 5.566465440475 0.787217092040
1642 2 -1.200000000000 25.067642499844 3.339879264285 2.361651276120
1643 2 -1.200000000000 23.139362307549 6.679758528570 2.361651276120
1644 2 -1.200000000000 23.139362307549 4.453172352380 3.936085460200
1645 1 2.400000000000 19.282801922957 24.492447938089 15.744341840801
1646 1 2.400000000000 17.354521730661 23.379154849994 18.893210208961
1647 1 2.400000000000 21.211082115253 23.379154849994 18.893210208961
1648 1 2.400000000000 19.282801922957 0.000000000000 18.893210208961
1649 2 -1.200000000000 19.282801922957 24.492447938089 18.105993116921
1650 2 -1.200000000000 19.282801922957 22.265861761899 19.680427301001
1651 2 -1.200000000000 17.354521730661 25.605741026184 19.680427301001
1652 2 -1.200000000000 17.354521730661 23.379154849994 21.254861485081
1653 2 -1.200000000000 21.211082115253 25.605741026184 19.680427301001
1654 2 -1.200000000000 21.211082115253 23.379154849994 21.254861485081
1655 2 -1.200000000000 19.282801922957 0.000000000000 21.254861485081
1656 2 -1.200000000000 19.282801922957 24.492447938089 22.829295669162
1657 1 2.400000000000 19.282801922957 20.039275585709 18.893210208961
1658 1 2.400000000000 17.354521730661 18.925982497614 22.042078577122
1659 1 2.400000000000 21.211082115253 18.925982497614 22.042078577122
1660 1 2.400000000000 19.282801922957 22.265861761899 22.042078577122
1661 2 -1.200000000000 19.282801922957 20.039275585709 21.254861485081
1662 2 -1.200000000000 19.282801922957 17.812689409519 22.829295669162
1663 2 -1.200000000000 17.354521730661 21.152568673804 22.829295669162
1664 2 -1.200000000000 17.354521730661 18.925982497614 24.403729853242
1665 2 -1.200000000000 21.211082115253 21.152568673804 22.829295669162
1666 2 -1.200000000000 21.211082115253 18.925982497614 24.403729853242
1667 2 -1.200000000000 19.282801922957 22.265861761899 24.403729853242
1668 2 -1.200000000000 19.282801922957 20.039275585709 25.978164037322
1669 1 2.400000000000 19.282801922957 15.586103233329 22.042078577122
1670 1 2.400000000000 17.354521730661 14.472810145234 25.190946945282
1671 1 2.400000000000 21.211082115253 14.472810145234 25.190946945282
1672 1 2.400000000000 19.282801922957 17.812689409519 25.190946945282
1673 2 -1.200000000000 19.282801922957 15.586103233329 24.403729853242
1674 2 -1.200000000000 19.282801922957 13.359517057139 25.978164037322
1675 2 -1.200000000000 17.354521730661 16.699396321424 25.978164037322
1676 2 -1.200000000000 17.354521730661 14.472810145234 27.552598221402
1677 2 -1.200000000000 21.211082115253 16.699396321424 25.978164037322
1678 2 -1.200000000000 21.211082115253 14.472810145234 27.552598221402
1679 2 -1.200000000000 19.282801922957 17.812689409519 27.552598221402
1680 2 -1.200000000000 19.282801922957 15.586103233329 0.787217092040
1681 1 2.400000000000 19.282801922957 11.132930880950 25.190946945282
1682 1 2.400000000000 17.354521730661 10.019637792855 0.000000000000
1683 1 2.400000000000 21.211082115253 10.019637792855 0.000000000000
1684 1 2.400000000000 19.282801922957 13.359517057139 0.000000000000
1685 2 -1.200000000000 19.282801922957 11.132930880950 27.552598221402
1686 2 -1.200000000000 19.282801922957 8.906344704760 0.787217092040
1687 2 -1.200000000000 17.354521730661 12.246223969045 0.787217092040
1688 2 -1.200000000000 17.354521730661 10.019637792855 2.361651276120
1689 2 -1.200000000000 21.211082115253 12.246223969045 0.787217092040
1690 2 -1.200000000000 21.211082115253 10.019637792855 2.361651276120
1691 2 -1.200000000000 19.282801922957 13.359517057139 2.361651276120
1692 2 -1.200000000000 19.282801922957 11.132930880950 3.936085460200
1693 1 2.400000000000 15.426241538366 22.265861761899 22.042078577122
1694 1 2.400000000000 13.497961346070 21.152568673804 25.190946945282
1695 1 2.400000000000 17.354521730661 21.152568673804 25.190946945282
1696 1 2.400000000000 15.426241538366 24.492447938089 25.190946945282
1697 2 -1.200000000000 15.426241538366 22.265861761899 24.403729853242
1698 2 -1.200000000000 15.426241538366 20.039275585709 25.978164037322
1699 2 -1.200000000000 13.497961346070 23.379154849994 25.978164037322
1700 2 -1.200000000000 13.497961346070 21.152568673804 27.552598221402
1701 2 -1.200000000000 17.354521730661 23.379154849994 25.978164037322
1702 2 -1.200000000000 17.354521730661 21.152568673804 27.552598221402
1703 2 -1.200000000000 15.426241538366 24.492447938089 27.552598221402
1704 2 -1.200000000000 15.426241538366 22.265861761899 0.787217092040
1705 1 2.400000000000 15.426241538366 17.812689409519 25.190946945282
1706 1 2.400000000000 13.497961346070 16.699396321424 0.000000000000
1707 1 2.400000000000 17.354521730661 16.699396321424 0.000000000000
1708 1 2.400000000000 15.426241538366 20.039275585709 0.000000000000
1709 2 -1.200000000000 15.426241538366 17.812689409519 27.552598221402
1710 2 -1.200000000000 15.426241538366 15.586103233329 0.787217092040
1711 2 -1.200000000000 13.497961346070 18.925982497614 0.787217092040
1712 2 -1.200000000000 13.497961346070 16.699396321424 2.361651276120
1713 2 -1.200000000000 17.354521730661 18.925982497614 0.787217092040
1714 2 -1.200000000000 17.354521730661 16.699396321424 2.361651276120
1715 2 -1.200000000000 15.426241538366 20.039275585709 2.361651276120
1716 2 -1.200000000000 15.426241538366 17.812689409519 3.936085460200
1717 1 2.400000000000 11.569681153774 24.492447938089 25.190946945282
1718 1 2.400000000000 9.641400961479 23.379154849994 0.000000000000
1719 1 2.400000000000 13.497961346070 23.379154849994 0.000000000000
1720 1 2.400000000000 11.569681153774 0.000000000000 0.000000000000
1721 2 -1.200000000000 11.569681153774 24.492447938089 27.552598221402
1722 2 -1.200000000000 11.569681153774 22.265861761899 0.787217092040
1723 2 -1.200000000000 9.641400961479 25.605741026184 0.787217092040
1724 2 -1.200000000000 9.641400961479 23.379154849994 2.361651276120
1725 2 -1.200000000000 13.497961346070 25.605741026184 0.787217092040
1726 2 -1.200000000000 13.497961346070 23.379154849994 2.361651276120
1727 2 -1.200000000000 11.569681153774 0.000000000000 2.361651276120
1728 2 -1.200000000000 11.569681153774 24.492447938089 3.936085460200
1729 1 2.400000000000 53.991845384280 0.000000000000 0.000000000000
1730 1 2.400000000000 52.063565191984 25.605741026184 3.148868368160
1731 1 2.400000000000 55.920125576576 25.605741026184 3.148868368160
1732 1 2.400000000000 53.991845384280 2.226586176190 3.148868368160
1733 2 -1.200000000000 53.991845384280 0.000000000000 2.361651276120
1734 2 -1.200000000000 53.991845384280 24.492447938089 3.936085460200
1735 2 -1.200000000000 52.063565191984 1.113293088095 3.936085460200
1736 2 -1.200000000000 52.063565191984 25.605741026184 5.510519644280
1737 2 -1.200000000000 55.920125576576 1.113293088095 3.936085460200
1738 2 -1.200000000000 55.920125576576 25.605741026184 5.510519644280
1739 2 -1.200000000000 53.991845384280 2.226586176190 5.510519644280
1740 2 -1.200000000000 53.991845384280 0.000000000000 7.084953828360
1741 1 2.400000000000 50.135284999689 6.679758528570 0.000000000000
1742 1 2.400000000000 48.207004807393 5.566465440475 3.148868368160
1743 1 2.400000000000 52.063565191984 5.566465440475 3.148868368160
1744 1 2.400000000000 50.135284999689 8.906344704760 3.148868368160
1745 2 -1.200000000000 50.135284999689 6.679758528570 2.361651276120
1746 2 -1.200000000000 50.135284999689 4.453172352380 3.936085460200
1747 2 -1.200000000000 48.207004807393 7.793051616665 3.936085460200
1748 2 -1.200000000000 48.207004807393 5.566465440475 5.510519644280
1749 2 -1.200000000000 52.063565191984 7.793051616665 3.936085460200
1750 2 -1.200000000000 52.063565191984 5.566465440475 5.510519644280
1751 2 -1.200000000000 50.135284999689 8.906344704760 5.510519644280
1752 2 -1.200000000000 50.135284999689 6.679758528570 7.084953828360
1753 1 2.400000000000 50.135284999689 2.226586176190 3.148868368160
1754 1 2.400000000000 48.207004807393 1.113293088095 6.297736736320
1755 1 2.400000000000 52.063565191984 1.113293088095 6.297736736320
1756 1 2.400000000000 50.135284999689 4.453172352380 6.297736736320
1757 2 -1.200000000000 50.135284999689 2.226586176190 5.510519644280
1758 2 -1.200000000000 50.135284999689 0.000000000000 7.084953828360
1759 2 -1.200000000000 48.207004807393 3.339879264285 7.084953828360
1760 2 -1.200000000000 48.207004807393 1.113293088095 8.659388012441
1761 2 -1.200000000000 52.063565191984 3.339879264285 7.084953828360
1762 2 -1.200000000000 52.063565191984 1.113293088095 8.659388012441
1763 2 -1.200000000000 50.135284999689 4.453172352380 8.659388012441
1764 2 -1.200000000000 50.135284999689 2.226586176190 10.233822196521
1765 1 2.400000000000 46.278724615097 13.359517057139 0.000000000000
1766 1 2.400000000000 44.350444422801 12.246223969044 3.148868368160
1767 1 2.400000000000 48.207004807393 12.246223969044 3.148868368160
1768 1 2.400000000000 46.278724615097 15.586103233329 3.148868368160
1769 2 -1.200000000000 46.278724615097 13.359517057139 2.361651276120
1770 2 -1.200000000000 46.278724615097 11.132930880950 3.936085460200
1771 2 -1.200000000000 44.350444422801 14.472810145234 3.936085460200
1772 2 -1.200000000000 44.350444422801 12.246223969045 5.510519644280
1773 2 -1.200000000000 48.207004807393 14.472810145234 3.936085460200
1774 2 -1.200000000000 48.207004807393 12.246223969044 5.510519644280
1775 2 -1.200000000000 46.278724615097 15.586103233329 5.510519644280
1776 2 -1.200000000000 46.278724615097 13.359517057139 7.084953828360
1777 1 2.400000000000 46.278724615097 8.906344704760 3.148868368160
1778 1 2.400000000000 44.350444422801 7.793051616665 6.297736736320
1779 1 2.400000000000 48.207004807393 7.793051616665 6.297736736320
1780 1 2.400000000000 46.278724615097 11.132930880950 6.297736736320
1781 2 -1.200000000000 46.278724615097 8.906344704760 5.510519644280
1782 2 -1.200000000000 46.278724615097 6.679758528570 7.084953828360
1783 2 -1.200000000000 44.350444422801 10.019637792855 7.084953828360
1784 2 -1.200000000000 44.350444422801 7.793051616665 8.659388012441
1785 2 -1.200000000000 48.207004807393 10.019637792855 7.084953828360
1786 2 -1.200000000000 48.207004807393 7.793051616665 8.659388012441
1787 2 -1.200000000000 46.278724615097 11.132930880950 8.659388012441
1788 2 -1.200000000000 46.278724615097 8.906344704760 10.233822196521
1789 1 2.400000000000 46.278724615097 4.453172352380 6.297736736320
1790 1 2.400000000000 44.350444422801 3.339879264285 9.446605104481
1791 1 2.400000000000 48.207004807393 3.339879264285 9.446605104481
1792 1 2.400000000000 46.278724615097 6.679758528570 9.446605104481
1793 2 -1.200000000000 46.278724615097 4.453172352380 8.659388012441
1794 2 -1.200000000000 46.278724615097 2.226586176190 10.233822196521
1795 2 -1.200000000000 44.350444422801 5.566465440475 10.233822196521
1796 2 -1.200000000000 44.350444422801 3.339879264285 11.808256380601
1797 2 -1.200000000000 48.207004807393 5.566465440475 10.233822196521
1798 2 -1.200000000000 48.207004807393 3.339879264285 11.808256380601
1799 2 -1.200000000000 46.278724615097 6.679758528570 11.808256380601
1800 2 -1.200000000000 46.278724615097 4.453172352380 13.382690564681
1801 1 2.400000000000 46.278724615097 0.000000000000 9.446605104481
1802 1 2.400000000000 44.350444422801 25.605741026184 12.595473472641
1803 1 2.400000000000 48.207004807393 25.605741026184 12.595473472641
1804 1 2.400000000000 46.278724615097 2.226586176190 12.595473472641
1805 2 -1.200000000000 46.278724615097 0.000000000000 11.808256380601
1806 2 -1.200000000000 46.278724615097 24.492447938089 13.382690564681
1807 2 -1.200000000000 44.350444422801 1.113293088095 13.382690564681
1808 2 -1.200000000000 44.350444422801 25.605741026184 14.957124748761
1809 2 -1.200000000000 48.207004807393 1.113293088095 13.382690564681
1810 2 -1.200000000000 48.207004807393 25.605741026184 14.957124748761
1811 2 -1.200000000000 46.278724615097 2.226586176190 14.957124748761
1812 2 -1.200000000000 46.278724615097 0.000000000000 16.531558932841
1813 1 2.400000000000 42.422164230506 20.039275585709 0.000000000000
1814 1 2.400000000000 40.493884038210 18.925982497614 3.148868368160
1815 1 2.400000000000 44.350444422801 18.925982497614 3.148868368160
1816 1 2.400000000000 42.422164230506 22.265861761899 3.148868368160
1817 2 -1.200000000000 42.422164230506 20.039275585709 2.361651276120
1818 2 -1.200000000000 42.422164230506 17.812689409519 3.936085460200
1819 2 -1.200000000000 40.493884038210 21.152568673804 3.936085460200
1820 2 -1.200000000000 40.493884038210 18.925982497614 5.510519644280
1821 2 -1.200000000000 44.350444422801 21.152568673804 3.936085460200
1822 2 -1.200000000000 44.350444422801 18.925982497614 5.510519644280
1823 2 -1.200000000000 42.422164230506 22.265861761899 5.510519644280
1824 2 -1.200000000000 42.422164230506 20.039275585709 7.084953828360
1825 1 2.400000000000 42.422164230506 15.586103233329 3.148868368160
1826 1 2.400000000000 40.493884038210 14.472810145234 6.297736736320
1827 1 2.400000000000 44.350444422801 14.472810145234 6.297736736320
1828 1 2.400000000000 42.422164230506 17.812689409519 6.297736736320
1829 2 -1.200000000000 42.422164230506 15.586103233329 5.510519644280
1830 2 -1.200000000000 42.422164230506 13.359517057139 7.084953828360
1831 2 -1.200000000000 40.493884038210 16.699396321424 7.084953828360
1832 2 -1.200000000000 40.493884038210 14.472810145234 8.659388012441
1833 2 -1.200000000000 44.350444422801 16.699396321424 7.084953828360
1834 2 -1.200000000000 44.350444422801 14.472810145234 8.659388012441
1835 2 -1.200000000000 42.422164230506 17.812689409519 8.659388012441
1836 2 -1.200000000000 42.422164230506 15.586103233329 10.233822196521
1837 1 2.400000000000 42.422164230506 11.132930880950 6.297736736320
1838 1 2.400000000000 40.493884038210 10.019637792855 9.446605104481
1839 1 2.400000000000 44.350444422801 10.019637792855 9.446605104481
1840 1 2.400000000000 42.422164230506 13.359517057139 9.446605104481
1841 2 -1.200000000000 42.422164230506 11.132930880950 8.659388012441
1842 2 -1.200000000000 42.422164230506 8.906344704760 10.233822196521
1843 2 -1.200000000000 40.493884038210 12.246223969045 10.233822196521
1844 2 -1.200000000000 40.493884038210 10.019637792855 11.808256380601
1845 2 -1.200000000000 44.350444422801 12.246223969044 10.233822196521
1846 2 -1.200000000000 44.350444422801 10.019637792855 11.808256380601
1847 2 -1.200000000000 42.422164230506 13.359517057139 11.808256380601
1848 2 -1.200000000000 42.422164230506 11.132930880950 13.382690564681
1849 1 2.400000000000 42.422164230506 6.679758528570 9.446605104481
1850 1 2.400000000000 40.493884038210 5.566465440475 12.595473472641
1851 1 2.400000000000 44.350444422801 5.566465440475 12.595473472641
1852 1 2.400000000000 42.422164230506 8.906344704760 12.595473472641
1853 2 -1.200000000000 42.422164230506 6.679758528570 11.808256380601
1854 2 -1.200000000000 42.422164230506 4.453172352380 13.382690564681
1855 2 -1.200000000000 40.493884038210 7.793051616665 13.382690564681
1856 2 -1.200000000000 40.493884038210 5.566465440475 14.957124748761
1857 2 -1.200000000000 44.350444422801 7.793051616665 13.382690564681
1858 2 -1.200000000000 44.350444422801 5.566465440475 14.957124748761
1859 2 -1.200000000000 42.422164230506 8.906344704760 14.957124748761
1860 2 -1.200000000000 42.422164230506 6.679758528570 16.531558932841
1861 1 2.400000000000 42.422164230506 2.226586176190 12.595473472641
1862 1 2.400000000000 40.493884038210 1.113293088095 15.744341840801
1863 1 2.400000000000 44.350444422801 1.113293088095 15.744341840801
1864 1 2.400000000000 42.422164230506 4.453172352380 15.744341840801
1865 2 -1.200000000000 42.422164230506 2.226586176190 14.957124748761
1866 2 -1.200000000000 42.422164230506 0.000000000000 16.531558932841
1867 2 -1.200000000000 40.493884038210 3.339879264285 16.531558932841
1868 2 -1.200000000000 40.493884038210 1.113293088095 18.105993116921
1869 2 -1.200000000000 44.350444422801 3.339879264285 16.531558932841
1870 2 -1.200000000000 44.350444422801 1.113293088095 18.105993116921
1871 2 -1.200000000000 42.422164230506 4.453172352380 18.105993116921
1872 2 -1.200000000000 42.422164230506 2.226586176190 19.680427301001
1873 1 2.400000000000 38.565603845914 22.265861761899 3.148868368160
1874 1 2.400000000000 36.637323653619 21.152568673804 6.297736736320
1875 1 2.400000000000 40.493884038210 21.152568673804 6.297736736320
1876 1 2.400000000000 38.565603845914 24.492447938089 6.297736736320
1877 2 -1.200000000000 38.565603845914 22.265861761899 5.510519644280
1878 2 -1.200000000000 38.565603845914 20.039275585709 7.084953828360
1879 2 -1.200000000000 36.637323653619 23.379154849994 7.084953828360
1880 2 -1.200000000000 36.637323653619 21.152568673804 8.659388012441
1881 2 -1.200000000000 40.493884038210 23.379154849994 7.084953828360
1882 2 -1.200000000000 40.493884038210 21.152568673804 8.659388012441
1883 2 -1.200000000000 38.565603845914 24.492447938089 8.659388012441
1884 2 -1.200000000000 38.565603845914 22.265861761899 10.233822196521
1885 1 2.400000000000 38.565603845914 17.812689409519 6.297736736320
1886 1 2.400000000000 36.637323653619 16.699396321424 9.446605104481
1887 1 2.400000000000 40.493884038210 16.699396321424 9.446605104481
1888 1 2.400000000000 38.565603845914 20.039275585709 9.446605104481
1889 2 -1.200000000000 38.565603845914 17.812689409519 8.659388012441
1890 2 -1.200000000000 38.565603845914 15.586103233329 10.233822196521
1891 2 -1.200000000000 36.637323653619 18.925982497614 10.233822196521
1892 2 -1.200000000000 36.637323653619 16.699396321424 11.808256380601
1893 2 -1.200000000000 40.493884038210 18.925982497614 10.233822196521
1894 2 -1.200000000000 40.493884038210 16.699396321424 11.808256380601
1895 2 -1.200000000000 38.565603845914 20.039275585709 11.808256380601
1896 2 -1.200000000000 38.565603845914 17.812689409519 13.382690564681
1897 1 2.400000000000 38.565603845914 13.359517057139 9.446605104481
1898 1 2.400000000000 36.637323653619 12.246223969045 12.595473472641
1899 1 2.400000000000 40.493884038210 12.246223969045 12.595473472641
1900 1 2.400000000000 38.565603845914 15.586103233329 12.595473472641
1901 2 -1.200000000000 38.565603845914 13.359517057139 11.808256380601
1902 2 -1.200000000000 38.565603845914 11.132930880950 13.382690564681
1903 2 -1.200000000000 36.637323653619 14.472810145234 13.382690564681
1904 2 -1.200000000000 36.637323653619 12.246223969045 14.957124748761
1905 2 -1.200000000000 40.493884038210 14.472810145234 13.382690564681
1906 2 -1.200000000000 40.493884038210 12.246223969044 14.957124748761
1907 2 -1.200000000000 38.565603845914 15.586103233329 14.957124748761
1908 2 -1.200000000000 38.565603845914 13.359517057139 16.531558932841
1909 1 2.400000000000 38.565603845914 8.906344704760 12.595473472641
1910 1 2.400000000000 36.637323653619 7.793051616665 15.744341840801
1911 1 2.400000000000 40.493884038210 7.793051616665 15.744341840801
1912 1 2.400000000000 38.565603845914 11.132930880950 15.744341840801
1913 2 -1.200000000000 38.565603845914 8.906344704760 14.957124748761
1914 2 -1.200000000000 38.565603845914 6.679758528570 16.531558932841
1915 2 -1.200000000000 36.637323653619 10.019637792855 16.531558932841
1916 2 -1.200000000000 36.637323653619 7.793051616665 18.105993116921
1917 2 -1.200000000000 40.493884038210 10.019637792855 16.531558932841
1918 2 -1.200000000000 40.493884038210 7.793051616665 18.105993116921
1919 2 -1.200000000000 38.565603845914 11.132930880950 18.105993116921
1920 2 -1.200000000000 38.565603845914 8.906344704760 19.680427301001
1921 1 2.400000000000 38.565603845914 4.453172352380 15.744341840801
1922 1 2.400000000000 36.637323653619 3.339879264285 18.893210208961
1923 1 2.400000000000 40.493884038210 3.339879264285 18.893210208961
1924 1 2.400000000000 38.565603845914 6.679758528570 18.893210208961
1925 2 -1.200000000000 38.565603845914 4.453172352380 18.105993116921
1926 2 -1.200000000000 38.565603845914 2.226586176190 19.680427301001
1927 2 -1.200000000000 36.637323653619 5.566465440475 19.680427301001
1928 2 -1.200000000000 36.637323653619 3.339879264285 21.254861485081
1929 2 -1.200000000000 40.493884038210 5.566465440475 19.680427301001
1930 2 -1.200000000000 40.493884038210 3.339879264285 21.254861485081
1931 2 -1.200000000000 38.565603845914 6.679758528570 21.254861485081
1932 2 -1.200000000000 38.565603845914 4.453172352380 22.829295669162
1933 1 2.400000000000 38.565603845914 0.000000000000 18.893210208961
1934 1 2.400000000000 36.637323653619 25.605741026184 22.042078577122
1935 1 2.400000000000 40.493884038210 25.605741026184 22.042078577122
1936 1 2.400000000000 38.565603845914 2.226586176190 22.042078577122
1937 2 -1.200000000000 38.565603845914 0.000000000000 21.254861485081
1938 2 -1.200000000000 38.565603845914 24.492447938089 22.829295669162
1939 2 -1.200000000000 36.637323653619 1.113293088095 22.829295669162
1940 2 -1.200000000000 36.637323653619 25.605741026184 24.403729853242
1941 2 -1.200000000000 40.493884038210 1.113293088095 22.829295669162
1942 2 -1.200000000000 40.493884038210 25.605741026184 24.403729853242
1943 2 -1.200000000000 38.565603845914 2.226586176190 24.403729853242
1944 2 -1.200000000000 38.565603845914 0.000000000000 25.978164037322
1945 1 2.400000000000 34.709043461323 24.492447938089 6.297736736320
1946 1 2.400000000000 32.780763269027 23.379154849994 9.446605104481
1947 1 2.400000000000 36.637323653619 23.379154849994 9.446605104481
1948 1 2.400000000000 34.709043461323 0.000000000000 9.446605104481
1949 2 -1.200000000000 34.709043461323 24.492447938089 8.659388012441
1950 2 -1.200000000000 34.709043461323 22.265861761899 10.233822196521
1951 2 -1.200000000000 32.780763269027 25.605741026184 10.233822196521
1952 2 -1.200000000000 32.780763269027 23.379154849994 11.808256380601
1953 2 -1.200000000000 36.637323653619 25.605741026184 10.233822196521
1954 2 -1.200000000000 36.637323653619 23.379154849994 11.808256380601
1955 2 -1.200000000000 34.709043461323 0.000000000000 11.808256380601
1956 2 -1.200000000000 34.709043461323 24.492447938089 13.382690564681
1957 1 2.400000000000 34.709043461323 20.039275585709 9.446605104481
1958 1 2.400000000000 32.780763269027 18.925982497614 12.595473472641
1959 1 2.400000000000 36.637323653619 18.925982497614 12.595473472641
1960 1 2.400000000000 34.709043461323 22.265861761899 12.595473472641
1961 2 -1.200000000000 34.709043461323 20.039275585709 11.808256380601
1962 2 -1.200000000000 34.709043461323 17.812689409519 13.382690564681
1963 2 -1.200000000000 32.780763269027 21.152568673804 13.382690564681
1964 2 -1.200000000000 32.780763269027 18.925982497614 14.957124748761
1965 2 -1.200000000000 36.637323653619 21.152568673804 13.382690564681
1966 2 -1.200000000000 36.637323653619 18.925982497614 14.957124748761
1967 2 -1.200000000000 34.709043461323 22.265861761899 14.957124748761
1968 2 -1.200000000000 34.709043461323 20.039275585709 16.531558932841
1969 1 2.400000000000 34.709043461323 15.586103233329 12.595473472641
1970 1 2.400000000000 32.780763269027 14.472810145234 15.744341840801
1971 1 2.400000000000 36.637323653619 14.472810145234 15.744341840801
1972 1 2.400000000000 34.709043461323 17.812689409519 15.744341840801
1973 2 -1.200000000000 34.709043461323 15.586103233329 14.957124748761
1974 2 -1.200000000000 34.709043461323 13.359517057139 16.531558932841
1975 2 -1.200000000000 32.780763269027 16.699396321424 16.531558932841
1976 2 -1.200000000000 32.780763269027 14.472810145234 18.105993116921
1977 2 -1.200000000000 36.637323653619 16.699396321424 16.531558932841
1978 2 -1.200000000000 36.637323653619 14.472810145234 18.105993116921
1979 2 -1.200000000000 34.709043461323 17.812689409519 18.105993116921
1980 2 -1.200000000000 34.709043461323 15.586103233329 19.680427301001
1981 1 2.400000000000 34.709043461323 11.132930880950 15.744341840801
1982 1 2.400000000000 32.780763269027 10.019637792855 18.893210208961
1983 1 2.400000000000 36.637323653619 10.019637792855 18.893210208961
1984 1 2.400000000000 34.709043461323 13.359517057139 18.893210208961
1985 2 -1.200000000000 34.709043461323 11.132930880950 18.105993116921
1986 2 -1.200000000000 34.709043461323 8.906344704760 19.680427301001
1987 2 -1.200000000000 32.780763269027 12.246223969045 19.680427301001
1988 2 -1.200000000000 32.780763269027 10.019637792855 21.254861485081
1989 2 -1.200000000000 36.637323653619 12.246223969045 19.680427301001
1990 2 -1.200000000000 36.637323653619 10.019637792855 21.254861485081
1991 2 -1.200000000000 34.709043461323 13.359517057139 21.254861485081
1992 2 -1.200000000000 34.709043461323 11.132930880950 22.829295669162
1993 1 2.400000000000 34.709043461323 6.679758528570 18.893210208961
1994 1 2.400000000000 32.780763269027 5.566465440475 22.042078577122
1995 1 2.400000000000 36.637323653619 5.566465440475 22.042078577122
1996 1 2.400000000000 34.709043461323 8.906344704760 22.042078577122
1997 2 -1.200000000000 34.709043461323 6.679758528570 21.254861485081
1998 2 -1.200000000000 34.709043461323 4.453172352380 22.829295669162
1999 2 -1.200000000000 32.780763269027 7.793051616665 22.829295669162
2000 2 -1.200000000000 32.780763269027 5.566465440475 24.403729853242
2001 2 -1.200000000000 36.637323653619 7.793051616665 22.829295669162
2002 2 -1.200000000000 36.637323653619 5.566465440475 24.403729853242
2003 2 -1.200000000000 34.709043461323 8.906344704760 24.403729853242
2004 2 -1.200000000000 34.709043461323 6.679758528570 25.978164037322
2005 1 2.400000000000 34.709043461323 2.226586176190 22.042078577122
2006 1 2.400000000000 32.780763269027 1.113293088095 25.190946945282
2007 1 2.400000000000 36.637323653619 1.113293088095 25.190946945282
2008 1 2.400000000000 34.709043461323 4.453172352380 25.190946945282
2009 2 -1.200000000000 34.709043461323 2.226586176190 24.403729853242
2010 2 -1.200000000000 34.709043461323 0.000000000000 25.978164037322
2011 2 -1.200000000000 32.780763269027 3.339879264285 25.978164037322
2012 2 -1.200000000000 32.780763269027 1.113293088095 27.552598221402
2013 2 -1.200000000000 36.637323653619 3.339879264285 25.978164037322
2014 2 -1.200000000000 36.637323653619 1.113293088095 27.552598221402
2015 2 -1.200000000000 34.709043461323 4.453172352380 27.552598221402
2016 2 -1.200000000000 34.709043461323 2.226586176190 0.787217092040
2017 1 2.400000000000 30.852483076731 22.265861761899 12.595473472641
2018 1 2.400000000000 28.924202884436 21.152568673804 15.744341840801
2019 1 2.400000000000 32.780763269027 21.152568673804 15.744341840801
2020 1 2.400000000000 30.852483076731 24.492447938089 15.744341840801
2021 2 -1.200000000000 30.852483076731 22.265861761899 14.957124748761
2022 2 -1.200000000000 30.852483076731 20.039275585709 16.531558932841
2023 2 -1.200000000000 28.924202884436 23.379154849994 16.531558932841
2024 2 -1.200000000000 28.924202884436 21.152568673804 18.105993116921
2025 2 -1.200000000000 32.780763269027 23.379154849994 16.531558932841
2026 2 -1.200000000000 32.780763269027 21.152568673804 18.105993116921
2027 2 -1.200000000000 30.852483076731 24.492447938089 18.105993116921
2028 2 -1.200000000000 30.852483076731 22.265861761899 19.680427301001
2029 1 2.400000000000 30.852483076731 17.812689409519 15.744341840801
2030 1 2.400000000000 28.924202884436 16.699396321424 18.893210208961
2031 1 2.400000000000 32.780763269027 16.699396321424 18.893210208961
2032 1 2.400000000000 30.852483076731 20.039275585709 18.893210208961
2033 2 -1.200000000000 30.852483076731 17.812689409519 18.105993116921
2034 2 -1.200000000000 30.852483076731 15.586103233329 19.680427301001
2035 2 -1.200000000000 28.924202884436 18.925982497614 19.680427301001
2036 2 -1.200000000000 28.924202884436 16.699396321424 21.254861485081
2037 2 -1.200000000000 32.780763269027 18.925982497614 19.680427301001
2038 2 -1.200000000000 32.780763269027 16.699396321424 21.254861485081
2039 2 -1.200000000000 30.852483076731 20.039275585709 21.254861485081
2040 2 -1.200000000000 30.852483076731 17.812689409519 22.829295669162
2041 1 2.400000000000 30.852483076731 13.359517057139 18.893210208961
2042 1 2.400000000000 28.924202884436 12.246223969044 22.042078577122
2043 1 2.400000000000 32.780763269027 12.246223969044 22.042078577122
2044 1 2.400000000000 30.852483076731 15.586103233329 22.042078577122
2045 2 -1.200000000000 30.852483076731 13.359517057139 21.254861485081
2046 2 -1.200000000000 30.852483076731 11.132930880950 22.829295669162
2047 2 -1.200000000000 28.924202884436 14.472810145234 22.829295669162
2048 2 -1.200000000000 28.924202884436 12.246223969045 24.403729853242
2049 2 -1.200000000000 32.780763269027 14.472810145234 22.829295669162
2050 2 -1.200000000000 32.780763269027 12.246223969044 24.403729853242
2051 2 -1.200000000000 30.852483076731 15.586103233329 24.403729853242
2052 2 -1.200000000000 30.852483076731 13.359517057139 25.978164037322
2053 1 2.400000000000 30.852483076731 8.906344704760 22.042078577122
2054 1 2.400000000000 28.924202884436 7.793051616665 25.190946945282
2055 1 2.400000000000 32.780763269027 7.793051616665 25.190946945282
2056 1 2.400000000000 30.852483076731 11.132930880950 25.190946945282
2057 2 -1.200000000000 30.852483076731 8.906344704760 24.403729853242
2058 2 -1.200000000000 30.852483076731 6.679758528570 25.978164037322
2059 2 -1.200000000000 28.924202884436 10.019637792855 25.978164037322
2060 2 -1.200000000000 28.924202884436 7.793051616665 27.552598221402
2061 2 -1.200000000000 32.780763269027 10.019637792855 25.978164037322
2062 2 -1.200000000000 32.780763269027 7.793051616665 27.552598221402
2063 2 -1.200000000000 30.852483076731 11.132930880950 27.552598221402
2064 2 -1.200000000000 30.852483076731 8.906344704760 0.787217092040
2065 1 2.400000000000 30.852483076731 4.453172352380 25.190946945282
2066 1 2.400000000000 28.924202884436 3.339879264285 0.000000000000
2067 1 2.400000000000 32.780763269027 3.339879264285 0.000000000000
2068 1 2.400000000000 30.852483076731 6.679758528570 0.000000000000
2069 2 -1.200000000000 30.852483076731 4.453172352380 27.552598221402
2070 2 -1.200000000000 30.852483076731 2.226586176190 0.787217092040
2071 2 -1.200000000000 28.924202884436 5.566465440475 0.787217092040
2072 2 -1.200000000000 28.924202884436 3.339879264285 2.361651276120
2073 2 -1.200000000000 32.780763269027 5.566465440475 0.787217092040
2074 2 -1.200000000000 32.780763269027 3.339879264285 2.361651276120
2075 2 -1.200000000000 30.852483076731 6.679758528570 2.361651276120
2076 2 -1.200000000000 30.852483076731 4.453172352380 3.936085460200
2077 1 2.400000000000 26.995922692140 24.492447938089 15.744341840801
2078 1 2.400000000000 25.067642499844 23.379154849994 18.893210208961
2079 1 2.400000000000 28.924202884436 23.379154849994 18.893210208961
2080 1 2.400000000000 26.995922692140 0.000000000000 18.893210208961
2081 2 -1.200000000000 26.995922692140 24.492447938089 18.105993116921
2082 2 -1.200000000000 26.995922692140 22.265861761899 19.680427301001
2083 2 -1.200000000000 25.067642499844 25.605741026184 19.680427301001
2084 2 -1.200000000000 25.067642499844 23.379154849994 21.254861485081
2085 2 -1.200000000000 28.924202884436 25.605741026184 19.680427301001
2086 2 -1.200000000000 28.924202884436 23.379154849994 21.254861485081
2087 2 -1.200000000000 26.995922692140 0.000000000000 21.254861485081
2088 2 -1.200000000000 26.995922692140 24.492447938089 22.829295669162
2089 1 2.400000000000 26.995922692140 20.039275585709 18.893210208961
2090 1 2.400000000000 25.067642499844 18.925982497614 22.042078577122
2091 1 2.400000000000 28.924202884436 18.925982497614 22.042078577122
2092 1 2.400000000000 26.995922692140 22.265861761899 22.042078577122
2093 2 -1.200000000000 26.995922692140 20.039275585709 21.254861485081
2094 2 -1.200000000000 26.995922692140 17.812689409519 22.829295669162
2095 2 -1.200000000000 25.067642499844 21.152568673804 22.829295669162
2096 2 -1.200000000000 25.067642499844 18.925982497614 24.403729853242
2097 2 -1.200000000000 28.924202884436 21.152568673804 22.829295669162
2098 2 -1.200000000000 28.924202884436 18.925982497614 24.403729853242
2099 2 -1.200000000000 26.995922692140 22.265861761899 24.403729853242
2100 2 -1.200000000000 26.995922692140 20.039275585709 25.978164037322
2101 1 2.400000000000 26.995922692140 15.586103233329 22.042078577122
2102 1 2.400000000000 25.067642499844 14.472810145234 25.190946945282
2103 1 2.400000000000 28.924202884436 14.472810145234 25.190946945282
2104 1 2.400000000000 26.995922692140 17.812689409519 25.190946945282
2105 2 -1.200000000000 26.995922692140 15.586103233329 24.403729853242
2106 2 -1.200000000000 26.995922692140 13.359517057139 25.978164037322
2107 2 -1.200000000000 25.067642499844 16.699396321424 25.978164037322
2108 2 -1.200000000000 25.067642499844 14.472810145234 27.552598221402
2109 2 -1.200000000000 28.924202884436 16.699396321424 25.978164037322
2110 2 -1.200000000000 28.924202884436 14.472810145234 27.552598221402
2111 2 -1.200000000000 26.995922692140 17.812689409519 27.552598221402
2112 2 -1.200000000000 26.995922692140 15.586103233329 0.787217092040
2113 1 2.400000000000 26.995922692140 11.132930880950 25.190946945282
2114 1 2.400000000000 25.067642499844 10.019637792855 0.000000000000
2115 1 2.400000000000 28.924202884436 10.019637792855 0.000000000000
2116 1 2.400000000000 26.995922692140 13.359517057139 0.000000000000
2117 2 -1.200000000000 26.995922692140 11.132930880950 27.552598221402
2118 2 -1.200000000000 26.995922692140 8.906344704760 0.787217092040
2119 2 -1.200000000000 25.067642499844 12.246223969045 0.787217092040
2120 2 -1.200000000000 25.067642499844 10.019637792855 2.361651276120
2121 2 -1.200000000000 28.924202884436 12.246223969045 0.787217092040
2122 2 -1.200000000000 28.924202884436 10.019637792855 2.361651276120
2123 2 -1.200000000000 26.995922692140 13.359517057139 2.361651276120
2124 2 -1.200000000000 26.995922692140 11.132930880950 3.936085460200
2125 1 2.400000000000 23.139362307549 22.265861761899 22.042078577122
2126 1 2.400000000000 21.211082115253 21.152568673804 25.190946945282
2127 1 2.400000000000 25.067642499844 21.152568673804 25.190946945282
2128 1 2.400000000000 23.139362307549 24.492447938089 25.190946945282
2129 2 -1.200000000000 23.139362307549 22.265861761899 24.403729853242
2130 2 -1.200000000000 23.139362307549 20.039275585709 25.978164037322
2131 2 -1.200000000000 21.211082115253 23.379154849994 25.978164037322
2132 2 -1.200000000000 21.211082115253 21.152568673804 27.552598221402
2133 2 -1.200000000000 25.067642499844 23.379154849994 25.978164037322
2134 2 -1.200000000000 25.067642499844 21.152568673804 27.552598221402
2135 2 -1.200000000000 23.139362307549 24.492447938089 27.552598221402
2136 2 -1.200000000000 23.139362307549 22.265861761899 0.787217092040
2137 1 2.400000000000 23.139362307549 17.812689409519 25.190946945282
2138 1 2.400000000000 21.211082115253 16.699396321424 0.000000000000
2139 1 2.400000000000 25.067642499844 16.699396321424 0.000000000000
2140 1 2.400000000000 23.139362307549 20.039275585709 0.000000000000
2141 2 -1.200000000000 23.139362307549 17.812689409519 27.552598221402
2142 2 -1.200000000000 23.139362307549 15.586103233329 0.787217092040
2143 2 -1.200000000000 21.211082115253 18.925982497614 0.787217092040
2144 2 -1.200000000000 21.211082115253 16.699396321424 2.361651276120
2145 2 -1.200000000000 25.067642499844 18.925982497614 0.787217092040
2146 2 -1.200000000000 25.067642499844 16.699396321424 2.361651276120
2147 2 -1.200000000000 23.139362307549 20.039275585709 2.361651276120
2148 2 -1.200000000000 23.139362307549 17.812689409519 3.936085460200
2149 1 2.400000000000 19.282801922957 24.492447938089 25.190946945282
2150 1 2.400000000000 17.354521730661 23.379154849994 0.000000000000
2151 1 2.400000000000 21.211082115253 23.379154849994 0.000000000000
2152 1 2.400000000000 19.282801922957 0.000000000000 0.000000000000
2153 2 -1.200000000000 19.282801922957 24.492447938089 27.552598221402
2154 2 -1.200000000000 19.282801922957 22.265861761899 0.787217092040
2155 2 -1.200000000000 17.354521730661 25.605741026184 0.787217092040
2156 2 -1.200000000000 17.354521730661 23.379154849994 2.361651276120
2157 2 -1.200000000000 21.211082115253 25.605741026184 0.787217092040
2158 2 -1.200000000000 21.211082115253 23.379154849994 2.361651276120
2159 2 -1.200000000000 19.282801922957 0.000000000000 2.361651276120
2160 2 -1.200000000000 19.282801922957 24.492447938089 3.936085460200
2161 1 2.400000000000 57.848405768871 6.679758528570 0.000000000000
2162 1 2.400000000000 55.920125576576 5.566465440475 3.148868368160
2163 1 2.400000000000 59.776685961167 5.566465440475 3.148868368160
2164 1 2.400000000000 57.848405768871 8.906344704760 3.148868368160
2165 2 -1.200000000000 57.848405768871 6.679758528570 2.361651276120
2166 2 -1.200000000000 57.848405768871 4.453172352380 3.936085460200
2167 2 -1.200000000000 55.920125576576 7.793051616665 3.936085460200
2168 2 -1.200000000000 55.920125576576 5.566465440475 5.510519644280
2169 2 -1.200000000000 59.776685961167 7.793051616665 3.936085460200
2170 2 -1.200000000000 59.776685961167 5.566465440475 5.510519644280
2171 2 -1.200000000000 57.848405768871 8.906344704760 5.510519644280
2172 2 -1.200000000000 57.848405768871 6.679758528570 7.084953828360
2173 1 2.400000000000 57.848405768871 2.226586176190 3.148868368160
2174 1 2.400000000000 55.920125576576 1.113293088095 6.297736736320
2175 1 2.400000000000 59.776685961167 1.113293088095 6.297736736320
2176 1 2.400000000000 57.848405768871 4.453172352380 6.297736736320
2177 2 -1.200000000000 57.848405768871 2.226586176190 5.510519644280
2178 2 -1.200000000000 57.848405768871 0.000000000000 7.084953828360
2179 2 -1.200000000000 55.920125576576 3.339879264285 7.084953828360
2180 2 -1.200000000000 55.920125576576 1.113293088095 8.659388012441
2181 2 -1.200000000000 59.776685961167 3.339879264285 7.084953828360
2182 2 -1.200000000000 59.776685961167 1.113293088095 8.659388012441
2183 2 -1.200000000000 57.848405768871 4.453172352380 8.659388012441
2184 2 -1.200000000000 57.848405768871 2.226586176190 10.233822196521
2185 1 2.400000000000 53.991845384280 13.359517057139 0.000000000000
2186 1 2.400000000000 52.063565191984 12.246223969045 3.148868368160
2187 1 2.400000000000 55.920125576576 12.246223969044 3.148868368160
2188 1 2.400000000000 53.991845384280 15.586103233329 3.148868368160
2189 2 -1.200000000000 53.991845384280 13.359517057139 2.361651276120
2190 2 -1.200000000000 53.991845384280 11.132930880950 3.936085460200
2191 2 -1.200000000000 52.063565191984 14.472810145234 3.936085460200
2192 2 -1.200000000000 52.063565191984 12.246223969045 5.510519644280
2193 2 -1.200000000000 55.920125576576 14.472810145234 3.936085460200
2194 2 -1.200000000000 55.920125576576 12.246223969044 5.510519644280
2195 2 -1.200000000000 53.991845384280 15.586103233329 5.510519644280
2196 2 -1.200000000000 53.991845384280 13.359517057139 7.084953828360
2197 1 2.400000000000 53.991845384280 8.906344704760 3.148868368160
2198 1 2.400000000000 52.063565191984 7.793051616665 6.297736736320
2199 1 2.400000000000 55.920125576576 7.793051616665 6.297736736320
2200 1 2.400000000000 53.991845384280 11.132930880950 6.297736736320
2201 2 -1.200000000000 53.991845384280 8.906344704760 5.510519644280
2202 2 -1.200000000000 53.991845384280 6.679758528570 7.084953828360
2203 2 -1.200000000000 52.063565191984 10.019637792855 7.084953828360
2204 2 -1.200000000000 52.063565191984 7.793051616665 8.659388012441
2205 2 -1.200000000000 55.920125576576 10.019637792855 7.084953828360
2206 2 -1.200000000000 55.920125576576 7.793051616665 8.659388012441
2207 2 -1.200000000000 53.991845384280 11.132930880950 8.659388012441
2208 2 -1.200000000000 53.991845384280 8.906344704760 10.233822196521
2209 1 2.400000000000 53.991845384280 4.453172352380 6.297736736320
2210 1 2.400000000000 52.063565191984 3.339879264285 9.446605104481
2211 1 2.400000000000 55.920125576576 3.339879264285 9.446605104481
2212 1 2.400000000000 53.991845384280 6.679758528570 9.446605104481
2213 2 -1.200000000000 53.991845384280 4.453172352380 8.659388012441
2214 2 -1.200000000000 53.991845384280 2.226586176190 10.233822196521
2215 2 -1.200000000000 52.063565191984 5.566465440475 10.233822196521
2216 2 -1.200000000000 52.063565191984 3.339879264285 11.808256380601
2217 2 -1.200000000000 55.920125576576 5.566465440475 10.233822196521
2218 2 -1.200000000000 55.920125576576 3.339879264285 11.808256380601
2219 2 -1.200000000000 53.991845384280 6.679758528570 11.808256380601
2220 2 -1.200000000000 53.991845384280 4.453172352380 13.382690564681
2221 1 2.400000000000 53.991845384280 0.000000000000 9.446605104481
2222 1 2.400000000000 52.063565191984 25.605741026184 12.595473472641
2223 1 2.400000000000 55.920125576576 25.605741026184 12.595473472641
2224 1 2.400000000000 53.991845384280 2.226586176190 12.595473472641
2225 2 -1.200000000000 53.991845384280 0.000000000000 11.808256380601
2226 2 -1.200000000000 53.991845384280 24.492447938089 13.382690564681
2227 2 -1.200000000000 52.063565191984 1.113293088095 13.382690564681
2228 2 -1.200000000000 52.063565191984 25.605741026184 14.957124748761
2229 2 -1.200000000000 55.920125576576 1.113293088095 13.382690564681
2230 2 -1.200000000000 55.920125576576 25.605741026184 14.957124748761
2231 2 -1.200000000000 53.991845384280 2.226586176190 14.957124748761
2232 2 -1.200000000000 53.991845384280 0.000000000000 16.531558932841
2233 1 2.400000000000 50.135284999689 20.039275585709 0.000000000000
2234 1 2.400000000000 48.207004807393 18.925982497614 3.148868368160
2235 1 2.400000000000 52.063565191984 18.925982497614 3.148868368160
2236 1 2.400000000000 50.135284999689 22.265861761899 3.148868368160
2237 2 -1.200000000000 50.135284999689 20.039275585709 2.361651276120
2238 2 -1.200000000000 50.135284999689 17.812689409519 3.936085460200
2239 2 -1.200000000000 48.207004807393 21.152568673804 3.936085460200
2240 2 -1.200000000000 48.207004807393 18.925982497614 5.510519644280
2241 2 -1.200000000000 52.063565191984 21.152568673804 3.936085460200
2242 2 -1.200000000000 52.063565191984 18.925982497614 5.510519644280
2243 2 -1.200000000000 50.135284999689 22.265861761899 5.510519644280
2244 2 -1.200000000000 50.135284999689 20.039275585709 7.084953828360
2245 1 2.400000000000 50.135284999689 15.586103233329 3.148868368160
2246 1 2.400000000000 48.207004807393 14.472810145234 6.297736736320
2247 1 2.400000000000 52.063565191984 14.472810145234 6.297736736320
2248 1 2.400000000000 50.135284999689 17.812689409519 6.297736736320
2249 2 -1.200000000000 50.135284999689 15.586103233329 5.510519644280
2250 2 -1.200000000000 50.135284999689 13.359517057139 7.084953828360
2251 2 -1.200000000000 48.207004807393 16.699396321424 7.084953828360
2252 2 -1.200000000000 48.207004807393 14.472810145234 8.659388012441
2253 2 -1.200000000000 52.063565191984 16.699396321424 7.084953828360
2254 2 -1.200000000000 52.063565191984 14.472810145234 8.659388012441
2255 2 -1.200000000000 50.135284999689 17.812689409519 8.659388012441
2256 2 -1.200000000000 50.135284999689 15.586103233329 10.233822196521
2257 1 2.400000000000 50.135284999689 11.132930880950 6.297736736320
2258 1 2.400000000000 48.207004807393 10.019637792855 9.446605104481
2259 1 2.400000000000 52.063565191984 10.019637792855 9.446605104481
2260 1 2.400000000000 50.135284999689 13.359517057139 9.446605104481
2261 2 -1.200000000000 50.135284999689 11.132930880950 8.659388012441
2262 2 -1.200000000000 50.135284999689 8.906344704760 10.233822196521
2263 2 -1.200000000000 48.207004807393 12.246223969045 10.233822196521
2264 2 -1.200000000000 48.207004807393 10.019637792855 11.808256380601
2265 2 -1.200000000000 52.063565191984 12.246223969044 10.233822196521
2266 2 -1.200000000000 52.063565191984 10.019637792855 11.808256380601
2267 2 -1.200000000000 50.135284999689 13.359517057139 11.808256380601
2268 2 -1.200000000000 50.135284999689 11.132930880950 13.382690564681
2269 1 2.400000000000 50.135284999689 6.679758528570 9.446605104481
2270 1 2.400000000000 48.207004807393 5.566465440475 12.595473472641
2271 1 2.400000000000 52.063565191984 5.566465440475 12.595473472641
2272 1 2.400000000000 50.135284999689 8.906344704760 12.595473472641
2273 2 -1.200000000000 50.135284999689 6.679758528570 11.808256380601
2274 2 -1.200000000000 50.135284999689 4.453172352380 13.382690564681
2275 2 -1.200000000000 48.207004807393 7.793051616665 13.382690564681
2276 2 -1.200000000000 48.207004807393 5.566465440475 14.957124748761
2277 2 -1.200000000000 52.063565191984 7.793051616665 13.382690564681
2278 2 -1.200000000000 52.063565191984 5.566465440475 14.957124748761
2279 2 -1.200000000000 50.135284999689 8.906344704760 14.957124748761
2280 2 -1.200000000000 50.135284999689 6.679758528570 16.531558932841
2281 1 2.400000000000 50.135284999689 2.226586176190 12.595473472641
2282 1 2.400000000000 48.207004807393 1.113293088095 15.744341840801
2283 1 2.400000000000 52.063565191984 1.113293088095 15.744341840801
2284 1 2.400000000000 50.135284999689 4.453172352380 15.744341840801
2285 2 -1.200000000000 50.135284999689 2.226586176190 14.957124748761
2286 2 -1.200000000000 50.135284999689 0.000000000000 16.531558932841
2287 2 -1.200000000000 48.207004807393 3.339879264285 16.531558932841
2288 2 -1.200000000000 48.207004807393 1.113293088095 18.105993116921
2289 2 -1.200000000000 52.063565191984 3.339879264285 16.531558932841
2290 2 -1.200000000000 52.063565191984 1.113293088095 18.105993116921
2291 2 -1.200000000000 50.135284999689 4.453172352380 18.105993116921
2292 2 -1.200000000000 50.135284999689 2.226586176190 19.680427301001
2293 1 2.400000000000 46.278724615097 22.265861761899 3.148868368160
2294 1 2.400000000000 44.350444422801 21.152568673804 6.297736736320
2295 1 2.400000000000 48.207004807393 21.152568673804 6.297736736320
2296 1 2.400000000000 46.278724615097 24.492447938089 6.297736736320
2297 2 -1.200000000000 46.278724615097 22.265861761899 5.510519644280
2298 2 -1.200000000000 46.278724615097 20.039275585709 7.084953828360
2299 2 -1.200000000000 44.350444422801 23.379154849994 7.084953828360
2300 2 -1.200000000000 44.350444422801 21.152568673804 8.659388012441
2301 2 -1.200000000000 48.207004807393 23.379154849994 7.084953828360
2302 2 -1.200000000000 48.207004807393 21.152568673804 8.659388012441
2303 2 -1.200000000000 46.278724615097 24.492447938089 8.659388012441
2304 2 -1.200000000000 46.278724615097 22.265861761899 10.233822196521
2305 1 2.400000000000 46.278724615097 17.812689409519 6.297736736320
2306 1 2.400000000000 44.350444422801 16.699396321424 9.446605104481
2307 1 2.400000000000 48.207004807393 16.699396321424 9.446605104481
2308 1 2.400000000000 46.278724615097 20.039275585709 9.446605104481
2309 2 -1.200000000000 46.278724615097 17.812689409519 8.659388012441
2310 2 -1.200000000000 46.278724615097 15.586103233329 10.233822196521
2311 2 -1.200000000000 44.350444422801 18.925982497614 10.233822196521
2312 2 -1.200000000000 44.350444422801 16.699396321424 11.808256380601
2313 2 -1.200000000000 48.207004807393 18.925982497614 10.233822196521
2314 2 -1.200000000000 48.207004807393 16.699396321424 11.808256380601
2315 2 -1.200000000000 46.278724615097 20.039275585709 11.808256380601
2316 2 -1.200000000000 46.278724615097 17.812689409519 13.382690564681
2317 1 2.400000000000 46.278724615097 13.359517057139 9.446605104481
2318 1 2.400000000000 44.350444422801 12.246223969045 12.595473472641
2319 1 2.400000000000 48.207004807393 12.246223969044 12.595473472641
2320 1 2.400000000000 46.278724615097 15.586103233329 12.595473472641
2321 2 -1.200000000000 46.278724615097 13.359517057139 11.808256380601
2322 2 -1.200000000000 46.278724615097 11.132930880950 13.382690564681
2323 2 -1.200000000000 44.350444422801 14.472810145234 13.382690564681
2324 2 -1.200000000000 44.350444422801 12.246223969045 14.957124748761
2325 2 -1.200000000000 48.207004807393 14.472810145234 13.382690564681
2326 2 -1.200000000000 48.207004807393 12.246223969044 14.957124748761
2327 2 -1.200000000000 46.278724615097 15.586103233329 14.957124748761
2328 2 -1.200000000000 46.278724615097 13.359517057139 16.531558932841
2329 1 2.400000000000 46.278724615097 8.906344704760 12.595473472641
2330 1 2.400000000000 44.350444422801 7.793051616665 15.744341840801
2331 1 2.400000000000 48.207004807393 7.793051616665 15.744341840801
2332 1 2.400000000000 46.278724615097 11.132930880950 15.744341840801
2333 2 -1.200000000000 46.278724615097 8.906344704760 14.957124748761
2334 2 -1.200000000000 46.278724615097 6.679758528570 16.531558932841
2335 2 -1.200000000000 44.350444422801 10.019637792855 16.531558932841
2336 2 -1.200000000000 44.350444422801 7.793051616665 18.105993116921
2337 2 -1.200000000000 48.207004807393 10.019637792855 16.531558932841
2338 2 -1.200000000000 48.207004807393 7.793051616665 18.105993116921
2339 2 -1.200000000000 46.278724615097 11.132930880950 18.105993116921
2340 2 -1.200000000000 46.278724615097 8.906344704760 19.680427301001
2341 1 2.400000000000 46.278724615097 4.453172352380 15.744341840801
2342 1 2.400000000000 44.350444422801 3.339879264285 18.893210208961
2343 1 2.400000000000 48.207004807393 3.339879264285 18.893210208961
2344 1 2.400000000000 46.278724615097 6.679758528570 18.893210208961
2345 2 -1.200000000000 46.278724615097 4.453172352380 18.105993116921
2346 2 -1.200000000000 46.278724615097 2.226586176190 19.680427301001
2347 2 -1.200000000000 44.350444422801 5.566465440475 19.680427301001
2348 2 -1.200000000000 44.350444422801 3.339879264285 21.254861485081
2349 2 -1.200000000000 48.207004807393 5.566465440475 19.680427301001
2350 2 -1.200000000000 48.207004807393 3.339879264285 21.254861485081
2351 2 -1.200000000000 46.278724615097 6.679758528570 21.254861485081
2352 2 -1.200000000000 46.278724615097 4.453172352380 22.829295669162
2353 1 2.400000000000 46.278724615097 0.000000000000 18.893210208961
2354 1 2.400000000000 44.350444422801 25.605741026184 22.042078577122
2355 1 2.400000000000 48.207004807393 25.605741026184 22.042078577122
2356 1 2.400000000000 46.278724615097 2.226586176190 22.042078577122
2357 2 -1.200000000000 46.278724615097 0.000000000000 21.254861485081
2358 2 -1.200000000000 46.278724615097 24.492447938089 22.829295669162
2359 2 -1.200000000000 44.350444422801 1.113293088095 22.829295669162
2360 2 -1.200000000000 44.350444422801 25.605741026184 24.403729853242
2361 2 -1.200000000000 48.207004807393 1.113293088095 22.829295669162
2362 2 -1.200000000000 48.207004807393 25.605741026184 24.403729853242
2363 2 -1.200000000000 46.278724615097 2.226586176190 24.403729853242
2364 2 -1.200000000000 46.278724615097 0.000000000000 25.978164037322
2365 1 2.400000000000 42.422164230506 24.492447938089 6.297736736320
2366 1 2.400000000000 40.493884038210 23.379154849994 9.446605104481
2367 1 2.400000000000 44.350444422801 23.379154849994 9.446605104481
2368 1 2.400000000000 42.422164230506 0.000000000000 9.446605104481
2369 2 -1.200000000000 42.422164230506 24.492447938089 8.659388012441
2370 2 -1.200000000000 42.422164230506 22.265861761899 10.233822196521
2371 2 -1.200000000000 40.493884038210 25.605741026184 10.233822196521
2372 2 -1.200000000000 40.493884038210 23.379154849994 11.808256380601
2373 2 -1.200000000000 44.350444422801 25.605741026184 10.233822196521
2374 2 -1.200000000000 44.350444422801 23.379154849994 11.808256380601
2375 2 -1.200000000000 42.422164230506 0.000000000000 11.808256380601
2376 2 -1.200000000000 42.422164230506 24.492447938089 13.382690564681
2377 1 2.400000000000 42.422164230506 20.039275585709 9.446605104481
2378 1 2.400000000000 40.493884038210 18.925982497614 12.595473472641
2379 1 2.400000000000 44.350444422801 18.925982497614 12.595473472641
2380 1 2.400000000000 42.422164230506 22.265861761899 12.595473472641
2381 2 -1.200000000000 42.422164230506 20.039275585709 11.808256380601
2382 2 -1.200000000000 42.422164230506 17.812689409519 13.382690564681
2383 2 -1.200000000000 40.493884038210 21.152568673804 13.382690564681
2384 2 -1.200000000000 40.493884038210 18.925982497614 14.957124748761
2385 2 -1.200000000000 44.350444422801 21.152568673804 13.382690564681
2386 2 -1.200000000000 44.350444422801 18.925982497614 14.957124748761
2387 2 -1.200000000000 42.422164230506 22.265861761899 14.957124748761
2388 2 -1.200000000000 42.422164230506 20.039275585709 16.531558932841
2389 1 2.400000000000 42.422164230506 15.586103233329 12.595473472641
2390 1 2.400000000000 40.493884038210 14.472810145234 15.744341840801
2391 1 2.400000000000 44.350444422801 14.472810145234 15.744341840801
2392 1 2.400000000000 42.422164230506 17.812689409519 15.744341840801
2393 2 -1.200000000000 42.422164230506 15.586103233329 14.957124748761
2394 2 -1.200000000000 42.422164230506 13.359517057139 16.531558932841
2395 2 -1.200000000000 40.493884038210 16.699396321424 16.531558932841
2396 2 -1.200000000000 40.493884038210 14.472810145234 18.105993116921
2397 2 -1.200000000000 44.350444422801 16.699396321424 16.531558932841
2398 2 -1.200000000000 44.350444422801 14.472810145234 18.105993116921
2399 2 -1.200000000000 42.422164230506 17.812689409519 18.105993116921
2400 2 -1.200000000000 42.422164230506 15.586103233329 19.680427301001
2401 1 2.400000000000 42.422164230506 11.132930880950 15.744341840801
2402 1 2.400000000000 40.493884038210 10.019637792855 18.893210208961
2403 1 2.400000000000 44.350444422801 10.019637792855 18.893210208961
2404 1 2.400000000000 42.422164230506 13.359517057139 18.893210208961
2405 2 -1.200000000000 42.422164230506 11.132930880950 18.105993116921
2406 2 -1.200000000000 42.422164230506 8.906344704760 19.680427301001
2407 2 -1.200000000000 40.493884038210 12.246223969045 19.680427301001
2408 2 -1.200000000000 40.493884038210 10.019637792855 21.254861485081
2409 2 -1.200000000000 44.350444422801 12.246223969044 19.680427301001
2410 2 -1.200000000000 44.350444422801 10.019637792855 21.254861485081
2411 2 -1.200000000000 42.422164230506 13.359517057139 21.254861485081
2412 2 -1.200000000000 42.422164230506 11.132930880950 22.829295669162
2413 1 2.400000000000 42.422164230506 6.679758528570 18.893210208961
2414 1 2.400000000000 40.493884038210 5.566465440475 22.042078577122
2415 1 2.400000000000 44.350444422801 5.566465440475 22.042078577122
2416 1 2.400000000000 42.422164230506 8.906344704760 22.042078577122
2417 2 -1.200000000000 42.422164230506 6.679758528570 21.254861485081
2418 2 -1.200000000000 42.422164230506 4.453172352380 22.829295669162
2419 2 -1.200000000000 40.493884038210 7.793051616665 22.829295669162
2420 2 -1.200000000000 40.493884038210 5.566465440475 24.403729853242
2421 2 -1.200000000000 44.350444422801 7.793051616665 22.829295669162
2422 2 -1.200000000000 44.350444422801 5.566465440475 24.403729853242
2423 2 -1.200000000000 42.422164230506 8.906344704760 24.403729853242
2424 2 -1.200000000000 42.422164230506 6.679758528570 25.978164037322
2425 1 2.400000000000 42.422164230506 2.226586176190 22.042078577122
2426 1 2.400000000000 40.493884038210 1.113293088095 25.190946945282
2427 1 2.400000000000 44.350444422801 1.113293088095 25.190946945282
2428 1 2.400000000000 42.422164230506 4.453172352380 25.190946945282
2429 2 -1.200000000000 42.422164230506 2.226586176190 24.403729853242
2430 2 -1.200000000000 42.422164230506 0.000000000000 25.978164037322
2431 2 -1.200000000000 40.493884038210 3.339879264285 25.978164037322
2432 2 -1.200000000000 40.493884038210 1.113293088095 27.552598221402
2433 2 -1.200000000000 44.350444422801 3.339879264285 25.978164037322
2434 2 -1.200000000000 44.350444422801 1.113293088095 27.552598221402
2435 2 -1.200000000000 42.422164230506 4.453172352380 27.552598221402
2436 2 -1.200000000000 42.422164230506 2.226586176190 0.787217092040
2437 1 2.400000000000 38.565603845914 22.265861761899 12.595473472641
2438 1 2.400000000000 36.637323653619 21.152568673804 15.744341840801
2439 1 2.400000000000 40.493884038210 21.152568673804 15.744341840801
2440 1 2.400000000000 38.565603845914 24.492447938089 15.744341840801
2441 2 -1.200000000000 38.565603845914 22.265861761899 14.957124748761
2442 2 -1.200000000000 38.565603845914 20.039275585709 16.531558932841
2443 2 -1.200000000000 36.637323653619 23.379154849994 16.531558932841
2444 2 -1.200000000000 36.637323653619 21.152568673804 18.105993116921
2445 2 -1.200000000000 40.493884038210 23.379154849994 16.531558932841
2446 2 -1.200000000000 40.493884038210 21.152568673804 18.105993116921
2447 2 -1.200000000000 38.565603845914 24.492447938089 18.105993116921
2448 2 -1.200000000000 38.565603845914 22.265861761899 19.680427301001
2449 1 2.400000000000 38.565603845914 17.812689409519 15.744341840801
2450 1 2.400000000000 36.637323653619 16.699396321424 18.893210208961
2451 1 2.400000000000 40.493884038210 16.699396321424 18.893210208961
2452 1 2.400000000000 38.565603845914 20.039275585709 18.893210208961
2453 2 -1.200000000000 38.565603845914 17.812689409519 18.105993116921
2454 2 -1.200000000000 38.565603845914 15.586103233329 19.680427301001
2455 2 -1.200000000000 36.637323653619 18.925982497614 19.680427301001
2456 2 -1.200000000000 36.637323653619 16.699396321424 21.254861485081
2457 2 -1.200000000000 40.493884038210 18.925982497614 19.680427301001
2458 2 -1.200000000000 40.493884038210 16.699396321424 21.254861485081
2459 2 -1.200000000000 38.565603845914 20.039275585709 21.254861485081
2460 2 -1.200000000000 38.565603845914 17.812689409519 22.829295669162
2461 1 2.400000000000 38.565603845914 13.359517057139 18.893210208961
2462 1 2.400000000000 36.637323653619 12.246223969044 22.042078577122
2463 1 2.400000000000 40.493884038210 12.246223969044 22.042078577122
2464 1 2.400000000000 38.565603845914 15.586103233329 22.042078577122
2465 2 -1.200000000000 38.565603845914 13.359517057139 21.254861485081
2466 2 -1.200000000000 38.565603845914 11.132930880950 22.829295669162
2467 2 -1.200000000000 36.637323653619 14.472810145234 22.829295669162
2468 2 -1.200000000000 36.637323653619 12.246223969045 24.403729853242
2469 2 -1.200000000000 40.493884038210 14.472810145234 22.829295669162
2470 2 -1.200000000000 40.493884038210 12.246223969044 24.403729853242
2471 2 -1.200000000000 38.565603845914 15.586103233329 24.403729853242
2472 2 -1.200000000000 38.565603845914 13.359517057139 25.978164037322
2473 1 2.400000000000 38.565603845914 8.906344704760 22.042078577122
2474 1 2.400000000000 36.637323653619 7.793051616665 25.190946945282
2475 1 2.400000000000 40.493884038210 7.793051616665 25.190946945282
2476 1 2.400000000000 38.565603845914 11.132930880950 25.190946945282
2477 2 -1.200000000000 38.565603845914 8.906344704760 24.403729853242
2478 2 -1.200000000000 38.565603845914 6.679758528570 25.978164037322
2479 2 -1.200000000000 36.637323653619 10.019637792855 25.978164037322
2480 2 -1.200000000000 36.637323653619 7.793051616665 27.552598221402
2481 2 -1.200000000000 40.493884038210 10.019637792855 25.978164037322
2482 2 -1.200000000000 40.493884038210 7.793051616665 27.552598221402
2483 2 -1.200000000000 38.565603845914 11.132930880950 27.552598221402
2484 2 -1.200000000000 38.565603845914 8.906344704760 0.787217092040
2485 1 2.400000000000 38.565603845914 4.453172352380 25.190946945282
2486 1 2.400000000000 36.637323653619 3.339879264285 0.000000000000
2487 1 2.400000000000 40.493884038210 3.339879264285 0.000000000000
2488 1 2.400000000000 38.565603845914 6.679758528570 0.000000000000
2489 2 -1.200000000000 38.565603845914 4.453172352380 27.552598221402
2490 2 -1.200000000000 38.565603845914 2.226586176190 0.787217092040
2491 2 -1.200000000000 36.637323653619 5.566465440475 0.787217092040
2492 2 -1.200000000000 36.637323653619 3.339879264285 2.361651276120
2493 2 -1.200000000000 40.493884038210 5.566465440475 0.787217092040
2494 2 -1.200000000000 40.493884038210 3.339879264285 2.361651276120
2495 2 -1.200000000000 38.565603845914 6.679758528570 2.361651276120
2496 2 -1.200000000000 38.565603845914 4.453172352380 3.936085460200
2497 1 2.400000000000 34.709043461323 24.492447938089 15.744341840801
2498 1 2.400000000000 32.780763269027 23.379154849994 18.893210208961
2499 1 2.400000000000 36.637323653619 23.379154849994 18.893210208961
2500 1 2.400000000000 34.709043461323 0.000000000000 18.893210208961
2501 2 -1.200000000000 34.709043461323 24.492447938089 18.105993116921
2502 2 -1.200000000000 34.709043461323 22.265861761899 19.680427301001
2503 2 -1.200000000000 32.780763269027 25.605741026184 19.680427301001
2504 2 -1.200000000000 32.780763269027 23.379154849994 21.254861485081
2505 2 -1.200000000000 36.637323653619 25.605741026184 19.680427301001
2506 2 -1.200000000000 36.637323653619 23.379154849994 21.254861485081
2507 2 -1.200000000000 34.709043461323 0.000000000000 21.254861485081
2508 2 -1.200000000000 34.709043461323 24.492447938089 22.829295669162
2509 1 2.400000000000 34.709043461323 20.039275585709 18.893210208961
2510 1 2.400000000000 32.780763269027 18.925982497614 22.042078577122
2511 1 2.400000000000 36.637323653619 18.925982497614 22.042078577122
2512 1 2.400000000000 34.709043461323 22.265861761899 22.042078577122
2513 2 -1.200000000000 34.709043461323 20.039275585709 21.254861485081
2514 2 -1.200000000000 34.709043461323 17.812689409519 22.829295669162
2515 2 -1.200000000000 32.780763269027 21.152568673804 22.829295669162
2516 2 -1.200000000000 32.780763269027 18.925982497614 24.403729853242
2517 2 -1.200000000000 36.637323653619 21.152568673804 22.829295669162
2518 2 -1.200000000000 36.637323653619 18.925982497614 24.403729853242
2519 2 -1.200000000000 34.709043461323 22.265861761899 24.403729853242
2520 2 -1.200000000000 34.709043461323 20.039275585709 25.978164037322
2521 1 2.400000000000 34.709043461323 15.586103233329 22.042078577122
2522 1 2.400000000000 32.780763269027 14.472810145234 25.190946945282
2523 1 2.400000000000 36.637323653619 14.472810145234 25.190946945282
2524 1 2.400000000000 34.709043461323 17.812689409519 25.190946945282
2525 2 -1.200000000000 34.709043461323 15.586103233329 24.403729853242
2526 2 -1.200000000000 34.709043461323 13.359517057139 25.978164037322
2527 2 -1.200000000000 32.780763269027 16.699396321424 25.978164037322
2528 2 -1.200000000000 32.780763269027 14.472810145234 27.552598221402
2529 2 -1.200000000000 36.637323653619 16.699396321424 25.978164037322
2530 2 -1.200000000000 36.637323653619 14.472810145234 27.552598221402
2531 2 -1.200000000000 34.709043461323 17.812689409519 27.552598221402
2532 2 -1.200000000000 34.709043461323 15.586103233329 0.787217092040
2533 1 2.400000000000 34.709043461323 11.132930880950 25.190946945282
2534 1 2.400000000000 32.780763269027 10.019637792855 0.000000000000
2535 1 2.400000000000 36.637323653619 10.019637792855 0.000000000000
2536 1 2.400000000000 34.709043461323 13.359517057139 0.000000000000
2537 2 -1.200000000000 34.709043461323 11.132930880950 27.552598221402
2538 2 -1.200000000000 34.709043461323 8.906344704760 0.787217092040
2539 2 -1.200000000000 32.780763269027 12.246223969045 0.787217092040
2540 2 -1.200000000000 32.780763269027 10.019637792855 2.361651276120
2541 2 -1.200000000000 36.637323653619 12.246223969045 0.787217092040
2542 2 -1.200000000000 36.637323653619 10.019637792855 2.361651276120
2543 2 -1.200000000000 34.709043461323 13.359517057139 2.361651276120
2544 2 -1.200000000000 34.709043461323 11.132930880950 3.936085460200
2545 1 2.400000000000 30.852483076731 22.265861761899 22.042078577122
2546 1 2.400000000000 28.924202884436 21.152568673804 25.190946945282
2547 1 2.400000000000 32.780763269027 21.152568673804 25.190946945282
2548 1 2.400000000000 30.852483076731 24.492447938089 25.190946945282
2549 2 -1.200000000000 30.852483076731 22.265861761899 24.403729853242
2550 2 -1.200000000000 30.852483076731 20.039275585709 25.978164037322
2551 2 -1.200000000000 28.924202884436 23.379154849994 25.978164037322
2552 2 -1.200000000000 28.924202884436 21.152568673804 27.552598221402
2553 2 -1.200000000000 32.780763269027 23.379154849994 25.978164037322
2554 2 -1.200000000000 32.780763269027 21.152568673804 27.552598221402
2555 2 -1.200000000000 30.852483076731 24.492447938089 27.552598221402
2556 2 -1.200000000000 30.852483076731 22.265861761899 0.787217092040
2557 1 2.400000000000 30.852483076731 17.812689409519 25.190946945282
2558 1 2.400000000000 28.924202884436 16.699396321424 0.000000000000
2559 1 2.400000000000 32.780763269027 16.699396321424 0.000000000000
2560 1 2.400000000000 30.852483076731 20.039275585709 0.000000000000
2561 2 -1.200000000000 30.852483076731 17.812689409519 27.552598221402
2562 2 -1.200000000000 30.852483076731 15.586103233329 0.787217092040
2563 2 -1.200000000000 28.924202884436 18.925982497614 0.787217092040
2564 2 -1.200000000000 28.924202884436 16.699396321424 2.361651276120
2565 2 -1.200000000000 32.780763269027 18.925982497614 0.787217092040
2566 2 -1.200000000000 32.780763269027 16.699396321424 2.361651276120
2567 2 -1.200000000000 30.852483076731 20.039275585709 2.361651276120
2568 2 -1.200000000000 30.852483076731 17.812689409519 3.936085460200
2569 1 2.400000000000 26.995922692140 24.492447938089 25.190946945282
2570 1 2.400000000000 25.067642499844 23.379154849994 0.000000000000
2571 1 2.400000000000 28.924202884436 23.379154849994 0.000000000000
2572 1 2.400000000000 26.995922692140 0.000000000000 0.000000000000
2573 2 -1.200000000000 26.995922692140 24.492447938089 27.552598221402
2574 2 -1.200000000000 26.995922692140 22.265861761899 0.787217092040
2575 2 -1.200000000000 25.067642499844 25.605741026184 0.787217092040
2576 2 -1.200000000000 25.067642499844 23.379154849994 2.361651276120
2577 2 -1.200000000000 28.924202884436 25.605741026184 0.787217092040
2578 2 -1.200000000000 28.924202884436 23.379154849994 2.361651276120
2579 2 -1.200000000000 26.995922692140 0.000000000000 2.361651276120
2580 2 -1.200000000000 26.995922692140 24.492447938089 3.936085460200
2581 1 2.400000000000 57.848405768871 20.039275585709 0.000000000000
2582 1 2.400000000000 55.920125576576 18.925982497614 3.148868368160
2583 1 2.400000000000 59.776685961167 18.925982497614 3.148868368160
2584 1 2.400000000000 57.848405768871 22.265861761899 3.148868368160
2585 2 -1.200000000000 57.848405768871 20.039275585709 2.361651276120
2586 2 -1.200000000000 57.848405768871 17.812689409519 3.936085460200
2587 2 -1.200000000000 55.920125576576 21.152568673804 3.936085460200
2588 2 -1.200000000000 55.920125576576 18.925982497614 5.510519644280
2589 2 -1.200000000000 59.776685961167 21.152568673804 3.936085460200
2590 2 -1.200000000000 59.776685961167 18.925982497614 5.510519644280
2591 2 -1.200000000000 57.848405768871 22.265861761899 5.510519644280
2592 2 -1.200000000000 57.848405768871 20.039275585709 7.084953828360
2593 1 2.400000000000 57.848405768871 15.586103233329 3.148868368160
2594 1 2.400000000000 55.920125576576 14.472810145234 6.297736736320
2595 1 2.400000000000 59.776685961167 14.472810145234 6.297736736320
2596 1 2.400000000000 57.848405768871 17.812689409519 6.297736736320
2597 2 -1.200000000000 57.848405768871 15.586103233329 5.510519644280
2598 2 -1.200000000000 57.848405768871 13.359517057139 7.084953828360
2599 2 -1.200000000000 55.920125576576 16.699396321424 7.084953828360
2600 2 -1.200000000000 55.920125576576 14.472810145234 8.659388012441
2601 2 -1.200000000000 59.776685961167 16.699396321424 7.084953828360
2602 2 -1.200000000000 59.776685961167 14.472810145234 8.659388012441
2603 2 -1.200000000000 57.848405768871 17.812689409519 8.659388012441
2604 2 -1.200000000000 57.848405768871 15.586103233329 10.233822196521
2605 1 2.400000000000 57.848405768871 11.132930880950 6.297736736320
2606 1 2.400000000000 55.920125576576 10.019637792855 9.446605104481
2607 1 2.400000000000 59.776685961167 10.019637792855 9.446605104481
2608 1 2.400000000000 57.848405768871 13.359517057139 9.446605104481
2609 2 -1.200000000000 57.848405768871 11.132930880950 8.659388012441
2610 2 -1.200000000000 57.848405768871 8.906344704760 10.233822196521
2611 2 -1.200000000000 55.920125576576 12.246223969045 10.233822196521
2612 2 -1.200000000000 55.920125576576 10.019637792855 11.808256380601
2613 2 -1.200000000000 59.776685961167 12.246223969045 10.233822196521
2614 2 -1.200000000000 59.776685961167 10.019637792855 11.808256380601
2615 2 -1.200000000000 57.848405768871 13.359517057139 11.808256380601
2616 2 -1.200000000000 57.848405768871 11.132930880950 13.382690564681
2617 1 2.400000000000 57.848405768871 6.679758528570 9.446605104481
2618 1 2.400000000000 55.920125576576 5.566465440475 12.595473472641
2619 1 2.400000000000 59.776685961167 5.566465440475 12.595473472641
2620 1 2.400000000000 57.848405768871 8.906344704760 12.595473472641
2621 2 -1.200000000000 57.848405768871 6.679758528570 11.808256380601
2622 2 -1.200000000000 57.848405768871 4.453172352380 13.382690564681
2623 2 -1.200000000000 55.920125576576 7.793051616665 13.382690564681
2624 2 -1.200000000000 55.920125576576 5.566465440475 14.957124748761
2625 2 -1.200000000000 59.776685961167 7.793051616665 13.382690564681
2626 2 -1.200000000000 59.776685961167 5.566465440475 14.957124748761
2627 2 -1.200000000000 57.848405768871 8.906344704760 14.957124748761
2628 2 -1.200000000000 57.848405768871 6.679758528570 16.531558932841
2629 1 2.400000000000 57.848405768871 2.226586176190 12.595473472641
2630 1 2.400000000000 55.920125576576 1.113293088095 15.744341840801
2631 1 2.400000000000 59.776685961167 1.113293088095 15.744341840801
2632 1 2.400000000000 57.848405768871 4.453172352380 15.744341840801
2633 2 -1.200000000000 57.848405768871 2.226586176190 14.957124748761
2634 2 -1.200000000000 57.848405768871 0.000000000000 16.531558932841
2635 2 -1.200000000000 55.920125576576 3.339879264285 16.531558932841
2636 2 -1.200000000000 55.920125576576 1.113293088095 18.105993116921
2637 2 -1.200000000000 59.776685961167 3.339879264285 16.531558932841
2638 2 -1.200000000000 59.776685961167 1.113293088095 18.105993116921
2639 2 -1.200000000000 57.848405768871 4.453172352380 18.105993116921
2640 2 -1.200000000000 57.848405768871 2.226586176190 19.680427301001
2641 1 2.400000000000 53.991845384280 22.265861761899 3.148868368160
2642 1 2.400000000000 52.063565191984 21.152568673804 6.297736736320
2643 1 2.400000000000 55.920125576576 21.152568673804 6.297736736320
2644 1 2.400000000000 53.991845384280 24.492447938089 6.297736736320
2645 2 -1.200000000000 53.991845384280 22.265861761899 5.510519644280
2646 2 -1.200000000000 53.991845384280 20.039275585709 7.084953828360
2647 2 -1.200000000000 52.063565191984 23.379154849994 7.084953828360
2648 2 -1.200000000000 52.063565191984 21.152568673804 8.659388012441
2649 2 -1.200000000000 55.920125576576 23.379154849994 7.084953828360
2650 2 -1.200000000000 55.920125576576 21.152568673804 8.659388012441
2651 2 -1.200000000000 53.991845384280 24.492447938089 8.659388012441
2652 2 -1.200000000000 53.991845384280 22.265861761899 10.233822196521
2653 1 2.400000000000 53.991845384280 17.812689409519 6.297736736320
2654 1 2.400000000000 52.063565191984 16.699396321424 9.446605104481
2655 1 2.400000000000 55.920125576576 16.699396321424 9.446605104481
2656 1 2.400000000000 53.991845384280 20.039275585709 9.446605104481
2657 2 -1.200000000000 53.991845384280 17.812689409519 8.659388012441
2658 2 -1.200000000000 53.991845384280 15.586103233329 10.233822196521
2659 2 -1.200000000000 52.063565191984 18.925982497614 10.233822196521
2660 2 -1.200000000000 52.063565191984 16.699396321424 11.808256380601
2661 2 -1.200000000000 55.920125576576 18.925982497614 10.233822196521
2662 2 -1.200000000000 55.920125576576 16.699396321424 11.808256380601
2663 2 -1.200000000000 53.991845384280 20.039275585709 11.808256380601
2664 2 -1.200000000000 53.991845384280 17.812689409519 13.382690564681
2665 1 2.400000000000 53.991845384280 13.359517057139 9.446605104481
2666 1 2.400000000000 52.063565191984 12.246223969045 12.595473472641
2667 1 2.400000000000 55.920125576576 12.246223969045 12.595473472641
2668 1 2.400000000000 53.991845384280 15.586103233329 12.595473472641
2669 2 -1.200000000000 53.991845384280 13.359517057139 11.808256380601
2670 2 -1.200000000000 53.991845384280 11.132930880950 13.382690564681
2671 2 -1.200000000000 52.063565191984 14.472810145234 13.382690564681
2672 2 -1.200000000000 52.063565191984 12.246223969044 14.957124748761
2673 2 -1.200000000000 55.920125576576 14.472810145234 13.382690564681
2674 2 -1.200000000000 55.920125576576 12.246223969044 14.957124748761
2675 2 -1.200000000000 53.991845384280 15.586103233329 14.957124748761
2676 2 -1.200000000000 53.991845384280 13.359517057139 16.531558932841
2677 1 2.400000000000 53.991845384280 8.906344704760 12.595473472641
2678 1 2.400000000000 52.063565191984 7.793051616665 15.744341840801
2679 1 2.400000000000 55.920125576576 7.793051616665 15.744341840801
2680 1 2.400000000000 53.991845384280 11.132930880950 15.744341840801
2681 2 -1.200000000000 53.991845384280 8.906344704760 14.957124748761
2682 2 -1.200000000000 53.991845384280 6.679758528570 16.531558932841
2683 2 -1.200000000000 52.063565191984 10.019637792855 16.531558932841
2684 2 -1.200000000000 52.063565191984 7.793051616665 18.105993116921
2685 2 -1.200000000000 55.920125576576 10.019637792855 16.531558932841
2686 2 -1.200000000000 55.920125576576 7.793051616665 18.105993116921
2687 2 -1.200000000000 53.991845384280 11.132930880950 18.105993116921
2688 2 -1.200000000000 53.991845384280 8.906344704760 19.680427301001
2689 1 2.400000000000 53.991845384280 4.453172352380 15.744341840801
2690 1 2.400000000000 52.063565191984 3.339879264285 18.893210208961
2691 1 2.400000000000 55.920125576576 3.339879264285 18.893210208961
2692 1 2.400000000000 53.991845384280 6.679758528570 18.893210208961
2693 2 -1.200000000000 53.991845384280 4.453172352380 18.105993116921
2694 2 -1.200000000000 53.991845384280 2.226586176190 19.680427301001
2695 2 -1.200000000000 52.063565191984 5.566465440475 19.680427301001
2696 2 -1.200000000000 52.063565191984 3.339879264285 21.254861485081
2697 2 -1.200000000000 55.920125576576 5.566465440475 19.680427301001
2698 2 -1.200000000000 55.920125576576 3.339879264285 21.254861485081
2699 2 -1.200000000000 53.991845384280 6.679758528570 21.254861485081
2700 2 -1.200000000000 53.991845384280 4.453172352380 22.829295669162
2701 1 2.400000000000 53.991845384280 0.000000000000 18.893210208961
2702 1 2.400000000000 52.063565191984 25.605741026184 22.042078577122
2703 1 2.400000000000 55.920125576576 25.605741026184 22.042078577122
2704 1 2.400000000000 53.991845384280 2.226586176190 22.042078577122
2705 2 -1.200000000000 53.991845384280 0.000000000000 21.254861485081
2706 2 -1.200000000000 53.991845384280 24.492447938089 22.829295669162
2707 2 -1.200000000000 52.063565191984 1.113293088095 22.829295669162
2708 2 -1.200000000000 52.063565191984 25.605741026184 24.403729853242
2709 2 -1.200000000000 55.920125576576 1.113293088095 22.829295669162
2710 2 -1.200000000000 55.920125576576 25.605741026184 24.403729853242
2711 2 -1.200000000000 53.991845384280 2.226586176190 24.403729853242
2712 2 -1.200000000000 53.991845384280 0.000000000000 25.978164037322
2713 1 2.400000000000 50.135284999689 24.492447938089 6.297736736320
2714 1 2.400000000000 48.207004807393 23.379154849994 9.446605104481
2715 1 2.400000000000 52.063565191984 23.379154849994 9.446605104481
2716 1 2.400000000000 50.135284999689 0.000000000000 9.446605104481
2717 2 -1.200000000000 50.135284999689 24.492447938089 8.659388012441
2718 2 -1.200000000000 50.135284999689 22.265861761899 10.233822196521
2719 2 -1.200000000000 48.207004807393 25.605741026184 10.233822196521
2720 2 -1.200000000000 48.207004807393 23.379154849994 11.808256380601
2721 2 -1.200000000000 52.063565191984 25.605741026184 10.233822196521
2722 2 -1.200000000000 52.063565191984 23.379154849994 11.808256380601
2723 2 -1.200000000000 50.135284999689 0.000000000000 11.808256380601
2724 2 -1.200000000000 50.135284999689 24.492447938089 13.382690564681
2725 1 2.400000000000 50.135284999689 20.039275585709 9.446605104481
2726 1 2.400000000000 48.207004807393 18.925982497614 12.595473472641
2727 1 2.400000000000 52.063565191984 18.925982497614 12.595473472641
2728 1 2.400000000000 50.135284999689 22.265861761899 12.595473472641
2729 2 -1.200000000000 50.135284999689 20.039275585709 11.808256380601
2730 2 -1.200000000000 50.135284999689 17.812689409519 13.382690564681
2731 2 -1.200000000000 48.207004807393 21.152568673804 13.382690564681
2732 2 -1.200000000000 48.207004807393 18.925982497614 14.957124748761
2733 2 -1.200000000000 52.063565191984 21.152568673804 13.382690564681
2734 2 -1.200000000000 52.063565191984 18.925982497614 14.957124748761
2735 2 -1.200000000000 50.135284999689 22.265861761899 14.957124748761
2736 2 -1.200000000000 50.135284999689 20.039275585709 16.531558932841
2737 1 2.400000000000 50.135284999689 15.586103233329 12.595473472641
2738 1 2.400000000000 48.207004807393 14.472810145234 15.744341840801
2739 1 2.400000000000 52.063565191984 14.472810145234 15.744341840801
2740 1 2.400000000000 50.135284999689 17.812689409519 15.744341840801
2741 2 -1.200000000000 50.135284999689 15.586103233329 14.957124748761
2742 2 -1.200000000000 50.135284999689 13.359517057139 16.531558932841
2743 2 -1.200000000000 48.207004807393 16.699396321424 16.531558932841
2744 2 -1.200000000000 48.207004807393 14.472810145234 18.105993116921
2745 2 -1.200000000000 52.063565191984 16.699396321424 16.531558932841
2746 2 -1.200000000000 52.063565191984 14.472810145234 18.105993116921
2747 2 -1.200000000000 50.135284999689 17.812689409519 18.105993116921
2748 2 -1.200000000000 50.135284999689 15.586103233329 19.680427301001
2749 1 2.400000000000 50.135284999689 11.132930880950 15.744341840801
2750 1 2.400000000000 48.207004807393 10.019637792855 18.893210208961
2751 1 2.400000000000 52.063565191984 10.019637792855 18.893210208961
2752 1 2.400000000000 50.135284999689 13.359517057139 18.893210208961
2753 2 -1.200000000000 50.135284999689 11.132930880950 18.105993116921
2754 2 -1.200000000000 50.135284999689 8.906344704760 19.680427301001
2755 2 -1.200000000000 48.207004807393 12.246223969045 19.680427301001
2756 2 -1.200000000000 48.207004807393 10.019637792855 21.254861485081
2757 2 -1.200000000000 52.063565191984 12.246223969045 19.680427301001
2758 2 -1.200000000000 52.063565191984 10.019637792855 21.254861485081
2759 2 -1.200000000000 50.135284999689 13.359517057139 21.254861485081
2760 2 -1.200000000000 50.135284999689 11.132930880950 22.829295669162
2761 1 2.400000000000 50.135284999689 6.679758528570 18.893210208961
2762 1 2.400000000000 48.207004807393 5.566465440475 22.042078577122
2763 1 2.400000000000 52.063565191984 5.566465440475 22.042078577122
2764 1 2.400000000000 50.135284999689 8.906344704760 22.042078577122
2765 2 -1.200000000000 50.135284999689 6.679758528570 21.254861485081
2766 2 -1.200000000000 50.135284999689 4.453172352380 22.829295669162
2767 2 -1.200000000000 48.207004807393 7.793051616665 22.829295669162
2768 2 -1.200000000000 48.207004807393 5.566465440475 24.403729853242
2769 2 -1.200000000000 52.063565191984 7.793051616665 22.829295669162
2770 2 -1.200000000000 52.063565191984 5.566465440475 24.403729853242
2771 2 -1.200000000000 50.135284999689 8.906344704760 24.403729853242
2772 2 -1.200000000000 50.135284999689 6.679758528570 25.978164037322
2773 1 2.400000000000 50.135284999689 2.226586176190 22.042078577122
2774 1 2.400000000000 48.207004807393 1.113293088095 25.190946945282
2775 1 2.400000000000 52.063565191984 1.113293088095 25.190946945282
2776 1 2.400000000000 50.135284999689 4.453172352380 25.190946945282
2777 2 -1.200000000000 50.135284999689 2.226586176190 24.403729853242
2778 2 -1.200000000000 50.135284999689 0.000000000000 25.978164037322
2779 2 -1.200000000000 48.207004807393 3.339879264285 25.978164037322
2780 2 -1.200000000000 48.207004807393 1.113293088095 27.552598221402
2781 2 -1.200000000000 52.063565191984 3.339879264285 25.978164037322
2782 2 -1.200000000000 52.063565191984 1.113293088095 27.552598221402
2783 2 -1.200000000000 50.135284999689 4.453172352380 27.552598221402
2784 2 -1.200000000000 50.135284999689 2.226586176190 0.787217092040
2785 1 2.400000000000 46.278724615097 22.265861761899 12.595473472641
2786 1 2.400000000000 44.350444422801 21.152568673804 15.744341840801
2787 1 2.400000000000 48.207004807393 21.152568673804 15.744341840801
2788 1 2.400000000000 46.278724615097 24.492447938089 15.744341840801
2789 2 -1.200000000000 46.278724615097 22.265861761899 14.957124748761
2790 2 -1.200000000000 46.278724615097 20.039275585709 16.531558932841
2791 2 -1.200000000000 44.350444422801 23.379154849994 16.531558932841
2792 2 -1.200000000000 44.350444422801 21.152568673804 18.105993116921
2793 2 -1.200000000000 48.207004807393 23.379154849994 16.531558932841
2794 2 -1.200000000000 48.207004807393 21.152568673804 18.105993116921
2795 2 -1.200000000000 46.278724615097 24.492447938089 18.105993116921
2796 2 -1.200000000000 46.278724615097 22.265861761899 19.680427301001
2797 1 2.400000000000 46.278724615097 17.812689409519 15.744341840801
2798 1 2.400000000000 44.350444422801 16.699396321424 18.893210208961
2799 1 2.400000000000 48.207004807393 16.699396321424 18.893210208961
2800 1 2.400000000000 46.278724615097 20.039275585709 18.893210208961
2801 2 -1.200000000000 46.278724615097 17.812689409519 18.105993116921
2802 2 -1.200000000000 46.278724615097 15.586103233329 19.680427301001
2803 2 -1.200000000000 44.350444422801 18.925982497614 19.680427301001
2804 2 -1.200000000000 44.350444422801 16.699396321424 21.254861485081
2805 2 -1.200000000000 48.207004807393 18.925982497614 19.680427301001
2806 2 -1.200000000000 48.207004807393 16.699396321424 21.254861485081
2807 2 -1.200000000000 46.278724615097 20.039275585709 21.254861485081
2808 2 -1.200000000000 46.278724615097 17.812689409519 22.829295669162
2809 1 2.400000000000 46.278724615097 13.359517057139 18.893210208961
2810 1 2.400000000000 44.350444422801 12.246223969044 22.042078577122
2811 1 2.400000000000 48.207004807393 12.246223969045 22.042078577122
2812 1 2.400000000000 46.278724615097 15.586103233329 22.042078577122
2813 2 -1.200000000000 46.278724615097 13.359517057139 21.254861485081
2814 2 -1.200000000000 46.278724615097 11.132930880950 22.829295669162
2815 2 -1.200000000000 44.350444422801 14.472810145234 22.829295669162
2816 2 -1.200000000000 44.350444422801 12.246223969044 24.403729853242
2817 2 -1.200000000000 48.207004807393 14.472810145234 22.829295669162
2818 2 -1.200000000000 48.207004807393 12.246223969045 24.403729853242
2819 2 -1.200000000000 46.278724615097 15.586103233329 24.403729853242
2820 2 -1.200000000000 46.278724615097 13.359517057139 25.978164037322
2821 1 2.400000000000 46.278724615097 8.906344704760 22.042078577122
2822 1 2.400000000000 44.350444422801 7.793051616665 25.190946945282
2823 1 2.400000000000 48.207004807393 7.793051616665 25.190946945282
2824 1 2.400000000000 46.278724615097 11.132930880950 25.190946945282
2825 2 -1.200000000000 46.278724615097 8.906344704760 24.403729853242
2826 2 -1.200000000000 46.278724615097 6.679758528570 25.978164037322
2827 2 -1.200000000000 44.350444422801 10.019637792855 25.978164037322
2828 2 -1.200000000000 44.350444422801 7.793051616665 27.552598221402
2829 2 -1.200000000000 48.207004807393 10.019637792855 25.978164037322
2830 2 -1.200000000000 48.207004807393 7.793051616665 27.552598221402
2831 2 -1.200000000000 46.278724615097 11.132930880950 27.552598221402
2832 2 -1.200000000000 46.278724615097 8.906344704760 0.787217092040
2833 1 2.400000000000 46.278724615097 4.453172352380 25.190946945282
2834 1 2.400000000000 44.350444422801 3.339879264285 0.000000000000
2835 1 2.400000000000 48.207004807393 3.339879264285 0.000000000000
2836 1 2.400000000000 46.278724615097 6.679758528570 0.000000000000
2837 2 -1.200000000000 46.278724615097 4.453172352380 27.552598221402
2838 2 -1.200000000000 46.278724615097 2.226586176190 0.787217092040
2839 2 -1.200000000000 44.350444422801 5.566465440475 0.787217092040
2840 2 -1.200000000000 44.350444422801 3.339879264285 2.361651276120
2841 2 -1.200000000000 48.207004807393 5.566465440475 0.787217092040
2842 2 -1.200000000000 48.207004807393 3.339879264285 2.361651276120
2843 2 -1.200000000000 46.278724615097 6.679758528570 2.361651276120
2844 2 -1.200000000000 46.278724615097 4.453172352380 3.936085460200
2845 1 2.400000000000 42.422164230506 24.492447938089 15.744341840801
2846 1 2.400000000000 40.493884038210 23.379154849994 18.893210208961
2847 1 2.400000000000 44.350444422801 23.379154849994 18.893210208961
2848 1 2.400000000000 42.422164230506 0.000000000000 18.893210208961
2849 2 -1.200000000000 42.422164230506 24.492447938089 18.105993116921
2850 2 -1.200000000000 42.422164230506 22.265861761899 19.680427301001
2851 2 -1.200000000000 40.493884038210 25.605741026184 19.680427301001
2852 2 -1.200000000000 40.493884038210 23.379154849994 21.254861485081
2853 2 -1.200000000000 44.350444422801 25.605741026184 19.680427301001
2854 2 -1.200000000000 44.350444422801 23.379154849994 21.254861485081
2855 2 -1.200000000000 42.422164230506 0.000000000000 21.254861485081
2856 2 -1.200000000000 42.422164230506 24.492447938089 22.829295669162
2857 1 2.400000000000 42.422164230506 20.039275585709 18.893210208961
2858 1 2.400000000000 40.493884038210 18.925982497614 22.042078577122
2859 1 2.400000000000 44.350444422801 18.925982497614 22.042078577122
2860 1 2.400000000000 42.422164230506 22.265861761899 22.042078577122
2861 2 -1.200000000000 42.422164230506 20.039275585709 21.254861485081
2862 2 -1.200000000000 42.422164230506 17.812689409519 22.829295669162
2863 2 -1.200000000000 40.493884038210 21.152568673804 22.829295669162
2864 2 -1.200000000000 40.493884038210 18.925982497614 24.403729853242
2865 2 -1.200000000000 44.350444422801 21.152568673804 22.829295669162
2866 2 -1.200000000000 44.350444422801 18.925982497614 24.403729853242
2867 2 -1.200000000000 42.422164230506 22.265861761899 24.403729853242
2868 2 -1.200000000000 42.422164230506 20.039275585709 25.978164037322
2869 1 2.400000000000 42.422164230506 15.586103233329 22.042078577122
2870 1 2.400000000000 40.493884038210 14.472810145234 25.190946945282
2871 1 2.400000000000 44.350444422801 14.472810145234 25.190946945282
2872 1 2.400000000000 42.422164230506 17.812689409519 25.190946945282
2873 2 -1.200000000000 42.422164230506 15.586103233329 24.403729853242
2874 2 -1.200000000000 42.422164230506 13.359517057139 25.978164037322
2875 2 -1.200000000000 40.493884038210 16.699396321424 25.978164037322
2876 2 -1.200000000000 40.493884038210 14.472810145234 27.552598221402
2877 2 -1.200000000000 44.350444422801 16.699396321424 25.978164037322
2878 2 -1.200000000000 44.350444422801 14.472810145234 27.552598221402
2879 2 -1.200000000000 42.422164230506 17.812689409519 27.552598221402
2880 2 -1.200000000000 42.422164230506 15.586103233329 0.787217092040
2881 1 2.400000000000 42.422164230506 11.132930880950 25.190946945282
2882 1 2.400000000000 40.493884038210 10.019637792855 0.000000000000
2883 1 2.400000000000 44.350444422801 10.019637792855 0.000000000000
2884 1 2.400000000000 42.422164230506 13.359517057139 0.000000000000
2885 2 -1.200000000000 42.422164230506 11.132930880950 27.552598221402
2886 2 -1.200000000000 42.422164230506 8.906344704760 0.787217092040
2887 2 -1.200000000000 40.493884038210 12.246223969045 0.787217092040
2888 2 -1.200000000000 40.493884038210 10.019637792855 2.361651276120
2889 2 -1.200000000000 44.350444422801 12.246223969045 0.787217092040
2890 2 -1.200000000000 44.350444422801 10.019637792855 2.361651276120
2891 2 -1.200000000000 42.422164230506 13.359517057139 2.361651276120
2892 2 -1.200000000000 42.422164230506 11.132930880950 3.936085460200
2893 1 2.400000000000 38.565603845914 22.265861761899 22.042078577122
2894 1 2.400000000000 36.637323653619 21.152568673804 25.190946945282
2895 1 2.400000000000 40.493884038210 21.152568673804 25.190946945282
2896 1 2.400000000000 38.565603845914 24.492447938089 25.190946945282
2897 2 -1.200000000000 38.565603845914 22.265861761899 24.403729853242
2898 2 -1.200000000000 38.565603845914 20.039275585709 25.978164037322
2899 2 -1.200000000000 36.637323653619 23.379154849994 25.978164037322
2900 2 -1.200000000000 36.637323653619 21.152568673804 27.552598221402
2901 2 -1.200000000000 40.493884038210 23.379154849994 25.978164037322
2902 2 -1.200000000000 40.493884038210 21.152568673804 27.552598221402
2903 2 -1.200000000000 38.565603845914 24.492447938089 27.552598221402
2904 2 -1.200000000000 38.565603845914 22.265861761899 0.787217092040
2905 1 2.400000000000 38.565603845914 17.812689409519 25.190946945282
2906 1 2.400000000000 36.637323653619 16.699396321424 0.000000000000
2907 1 2.400000000000 40.493884038210 16.699396321424 0.000000000000
2908 1 2.400000000000 38.565603845914 20.039275585709 0.000000000000
2909 2 -1.200000000000 38.565603845914 17.812689409519 27.552598221402
2910 2 -1.200000000000 38.565603845914 15.586103233329 0.787217092040
2911 2 -1.200000000000 36.637323653619 18.925982497614 0.787217092040
2912 2 -1.200000000000 36.637323653619 16.699396321424 2.361651276120
2913 2 -1.200000000000 40.493884038210 18.925982497614 0.787217092040
2914 2 -1.200000000000 40.493884038210 16.699396321424 2.361651276120
2915 2 -1.200000000000 38.565603845914 20.039275585709 2.361651276120
2916 2 -1.200000000000 38.565603845914 17.812689409519 3.936085460200
2917 1 2.400000000000 34.709043461323 24.492447938089 25.190946945282
2918 1 2.400000000000 32.780763269027 23.379154849994 0.000000000000
2919 1 2.400000000000 36.637323653619 23.379154849994 0.000000000000
2920 1 2.400000000000 34.709043461323 0.000000000000 0.000000000000
2921 2 -1.200000000000 34.709043461323 24.492447938089 27.552598221402
2922 2 -1.200000000000 34.709043461323 22.265861761899 0.787217092040
2923 2 -1.200000000000 32.780763269027 25.605741026184 0.787217092040
2924 2 -1.200000000000 32.780763269027 23.379154849994 2.361651276120
2925 2 -1.200000000000 36.637323653619 25.605741026184 0.787217092040
2926 2 -1.200000000000 36.637323653619 23.379154849994 2.361651276120
2927 2 -1.200000000000 34.709043461323 0.000000000000 2.361651276120
2928 2 -1.200000000000 34.709043461323 24.492447938089 3.936085460200
2929 1 2.400000000000 57.848405768871 24.492447938089 6.297736736320
2930 1 2.400000000000 55.920125576576 23.379154849994 9.446605104481
2931 1 2.400000000000 59.776685961167 23.379154849994 9.446605104481
2932 1 2.400000000000 57.848405768871 0.000000000000 9.446605104481
2933 2 -1.200000000000 57.848405768871 24.492447938089 8.659388012441
2934 2 -1.200000000000 57.848405768871 22.265861761899 10.233822196521
2935 2 -1.200000000000 55.920125576576 25.605741026184 10.233822196521
2936 2 -1.200000000000 55.920125576576 23.379154849994 11.808256380601
2937 2 -1.200000000000 59.776685961167 25.605741026184 10.233822196521
2938 2 -1.200000000000 59.776685961167 23.379154849994 11.808256380601
2939 2 -1.200000000000 57.848405768871 0.000000000000 11.808256380601
2940 2 -1.200000000000 57.848405768871 24.492447938089 13.382690564681
2941 1 2.400000000000 57.848405768871 20.039275585709 9.446605104481
2942 1 2.400000000000 55.920125576576 18.925982497614 12.595473472641
2943 1 2.400000000000 59.776685961167 18.925982497614 12.595473472641
2944 1 2.400000000000 57.848405768871 22.265861761899 12.595473472641
2945 2 -1.200000000000 57.848405768871 20.039275585709 11.808256380601
2946 2 -1.200000000000 57.848405768871 17.812689409519 13.382690564681
2947 2 -1.200000000000 55.920125576576 21.152568673804 13.382690564681
2948 2 -1.200000000000 55.920125576576 18.925982497614 14.957124748761
2949 2 -1.200000000000 59.776685961167 21.152568673804 13.382690564681
2950 2 -1.200000000000 59.776685961167 18.925982497614 14.957124748761
2951 2 -1.200000000000 57.848405768871 22.265861761899 14.957124748761
2952 2 -1.200000000000 57.848405768871 20.039275585709 16.531558932841
2953 1 2.400000000000 57.848405768871 15.586103233329 12.595473472641
2954 1 2.400000000000 55.920125576576 14.472810145234 15.744341840801
2955 1 2.400000000000 59.776685961167 14.472810145234 15.744341840801
2956 1 2.400000000000 57.848405768871 17.812689409519 15.744341840801
2957 2 -1.200000000000 57.848405768871 15.586103233329 14.957124748761
2958 2 -1.200000000000 57.848405768871 13.359517057139 16.531558932841
2959 2 -1.200000000000 55.920125576576 16.699396321424 16.531558932841
2960 2 -1.200000000000 55.920125576576 14.472810145234 18.105993116921
2961 2 -1.200000000000 59.776685961167 16.699396321424 16.531558932841
2962 2 -1.200000000000 59.776685961167 14.472810145234 18.105993116921
2963 2 -1.200000000000 57.848405768871 17.812689409519 18.105993116921
2964 2 -1.200000000000 57.848405768871 15.586103233329 19.680427301001
2965 1 2.400000000000 57.848405768871 11.132930880950 15.744341840801
2966 1 2.400000000000 55.920125576576 10.019637792855 18.893210208961
2967 1 2.400000000000 59.776685961167 10.019637792855 18.893210208961
2968 1 2.400000000000 57.848405768871 13.359517057139 18.893210208961
2969 2 -1.200000000000 57.848405768871 11.132930880950 18.105993116921
2970 2 -1.200000000000 57.848405768871 8.906344704760 19.680427301001
2971 2 -1.200000000000 55.920125576576 12.246223969045 19.680427301001
2972 2 -1.200000000000 55.920125576576 10.019637792855 21.254861485081
2973 2 -1.200000000000 59.776685961167 12.246223969044 19.680427301001
2974 2 -1.200000000000 59.776685961167 10.019637792855 21.254861485081
2975 2 -1.200000000000 57.848405768871 13.359517057139 21.254861485081
2976 2 -1.200000000000 57.848405768871 11.132930880950 22.829295669162
2977 1 2.400000000000 57.848405768871 6.679758528570 18.893210208961
2978 1 2.400000000000 55.920125576576 5.566465440475 22.042078577122
2979 1 2.400000000000 59.776685961167 5.566465440475 22.042078577122
2980 1 2.400000000000 57.848405768871 8.906344704760 22.042078577122
2981 2 -1.200000000000 57.848405768871 6.679758528570 21.254861485081
2982 2 -1.200000000000 57.848405768871 4.453172352380 22.829295669162
2983 2 -1.200000000000 55.920125576576 7.793051616665 22.829295669162
2984 2 -1.200000000000 55.920125576576 5.566465440475 24.403729853242
2985 2 -1.200000000000 59.776685961167 7.793051616665 22.829295669162
2986 2 -1.200000000000 59.776685961167 5.566465440475 24.403729853242
2987 2 -1.200000000000 57.848405768871 8.906344704760 24.403729853242
2988 2 -1.200000000000 57.848405768871 6.679758528570 25.978164037322
2989 1 2.400000000000 57.848405768871 2.226586176190 22.042078577122
2990 1 2.400000000000 55.920125576576 1.113293088095 25.190946945282
2991 1 2.400000000000 59.776685961167 1.113293088095 25.190946945282
2992 1 2.400000000000 57.848405768871 4.453172352380 25.190946945282
2993 2 -1.200000000000 57.848405768871 2.226586176190 24.403729853242
2994 2 -1.200000000000 57.848405768871 0.000000000000 25.978164037322
2995 2 -1.200000000000 55.920125576576 3.339879264285 25.978164037322
2996 2 -1.200000000000 55.920125576576 1.113293088095 27.552598221402
2997 2 -1.200000000000 59.776685961167 3.339879264285 25.978164037322
2998 2 -1.200000000000 59.776685961167 1.113293088095 27.552598221402
2999 2 -1.200000000000 57.848405768871 4.453172352380 27.552598221402
3000 2 -1.200000000000 57.848405768871 2.226586176190 0.787217092040
3001 1 2.400000000000 53.991845384280 22.265861761899 12.595473472641
3002 1 2.400000000000 52.063565191984 21.152568673804 15.744341840801
3003 1 2.400000000000 55.920125576576 21.152568673804 15.744341840801
3004 1 2.400000000000 53.991845384280 24.492447938089 15.744341840801
3005 2 -1.200000000000 53.991845384280 22.265861761899 14.957124748761
3006 2 -1.200000000000 53.991845384280 20.039275585709 16.531558932841
3007 2 -1.200000000000 52.063565191984 23.379154849994 16.531558932841
3008 2 -1.200000000000 52.063565191984 21.152568673804 18.105993116921
3009 2 -1.200000000000 55.920125576576 23.379154849994 16.531558932841
3010 2 -1.200000000000 55.920125576576 21.152568673804 18.105993116921
3011 2 -1.200000000000 53.991845384280 24.492447938089 18.105993116921
3012 2 -1.200000000000 53.991845384280 22.265861761899 19.680427301001
3013 1 2.400000000000 53.991845384280 17.812689409519 15.744341840801
3014 1 2.400000000000 52.063565191984 16.699396321424 18.893210208961
3015 1 2.400000000000 55.920125576576 16.699396321424 18.893210208961
3016 1 2.400000000000 53.991845384280 20.039275585709 18.893210208961
3017 2 -1.200000000000 53.991845384280 17.812689409519 18.105993116921
3018 2 -1.200000000000 53.991845384280 15.586103233329 19.680427301001
3019 2 -1.200000000000 52.063565191984 18.925982497614 19.680427301001
3020 2 -1.200000000000 52.063565191984 16.699396321424 21.254861485081
3021 2 -1.200000000000 55.920125576576 18.925982497614 19.680427301001
3022 2 -1.200000000000 55.920125576576 16.699396321424 21.254861485081
3023 2 -1.200000000000 53.991845384280 20.039275585709 21.254861485081
3024 2 -1.200000000000 53.991845384280 17.812689409519 22.829295669162
3025 1 2.400000000000 53.991845384280 13.359517057139 18.893210208961
3026 1 2.400000000000 52.063565191984 12.246223969045 22.042078577122
3027 1 2.400000000000 55.920125576576 12.246223969044 22.042078577122
3028 1 2.400000000000 53.991845384280 15.586103233329 22.042078577122
3029 2 -1.200000000000 53.991845384280 13.359517057139 21.254861485081
3030 2 -1.200000000000 53.991845384280 11.132930880950 22.829295669162
3031 2 -1.200000000000 52.063565191984 14.472810145234 22.829295669162
3032 2 -1.200000000000 52.063565191984 12.246223969045 24.403729853242
3033 2 -1.200000000000 55.920125576576 14.472810145234 22.829295669162
3034 2 -1.200000000000 55.920125576576 12.246223969044 24.403729853242
3035 2 -1.200000000000 53.991845384280 15.586103233329 24.403729853242
3036 2 -1.200000000000 53.991845384280 13.359517057139 25.978164037322
3037 1 2.400000000000 53.991845384280 8.906344704760 22.042078577122
3038 1 2.400000000000 52.063565191984 7.793051616665 25.190946945282
3039 1 2.400000000000 55.920125576576 7.793051616665 25.190946945282
3040 1 2.400000000000 53.991845384280 11.132930880950 25.190946945282
3041 2 -1.200000000000 53.991845384280 8.906344704760 24.403729853242
3042 2 -1.200000000000 53.991845384280 6.679758528570 25.978164037322
3043 2 -1.200000000000 52.063565191984 10.019637792855 25.978164037322
3044 2 -1.200000000000 52.063565191984 7.793051616665 27.552598221402
3045 2 -1.200000000000 55.920125576576 10.019637792855 25.978164037322
3046 2 -1.200000000000 55.920125576576 7.793051616665 27.552598221402
3047 2 -1.200000000000 53.991845384280 11.132930880950 27.552598221402
3048 2 -1.200000000000 53.991845384280 8.906344704760 0.787217092040
3049 1 2.400000000000 53.991845384280 4.453172352380 25.190946945282
3050 1 2.400000000000 52.063565191984 3.339879264285 0.000000000000
3051 1 2.400000000000 55.920125576576 3.339879264285 0.000000000000
3052 1 2.400000000000 53.991845384280 6.679758528570 0.000000000000
3053 2 -1.200000000000 53.991845384280 4.453172352380 27.552598221402
3054 2 -1.200000000000 53.991845384280 2.226586176190 0.787217092040
3055 2 -1.200000000000 52.063565191984 5.566465440475 0.787217092040
3056 2 -1.200000000000 52.063565191984 3.339879264285 2.361651276120
3057 2 -1.200000000000 55.920125576576 5.566465440475 0.787217092040
3058 2 -1.200000000000 55.920125576576 3.339879264285 2.361651276120
3059 2 -1.200000000000 53.991845384280 6.679758528570 2.361651276120
3060 2 -1.200000000000 53.991845384280 4.453172352380 3.936085460200
3061 1 2.400000000000 50.135284999689 24.492447938089 15.744341840801
3062 1 2.400000000000 48.207004807393 23.379154849994 18.893210208961
3063 1 2.400000000000 52.063565191984 23.379154849994 18.893210208961
3064 1 2.400000000000 50.135284999689 0.000000000000 18.893210208961
3065 2 -1.200000000000 50.135284999689 24.492447938089 18.105993116921
3066 2 -1.200000000000 50.135284999689 22.265861761899 19.680427301001
3067 2 -1.200000000000 48.207004807393 25.605741026184 19.680427301001
3068 2 -1.200000000000 48.207004807393 23.379154849994 21.254861485081
3069 2 -1.200000000000 52.063565191984 25.605741026184 19.680427301001
3070 2 -1.200000000000 52.063565191984 23.379154849994 21.254861485081
3071 2 -1.200000000000 50.135284999689 0.000000000000 21.254861485081
3072 2 -1.200000000000 50.135284999689 24.492447938089 22.829295669162
3073 1 2.400000000000 50.135284999689 20.039275585709 18.893210208961
3074 1 2.400000000000 48.207004807393 18.925982497614 22.042078577122
3075 1 2.400000000000 52.063565191984 18.925982497614 22.042078577122
3076 1 2.400000000000 50.135284999689 22.265861761899 22.042078577122
3077 2 -1.200000000000 50.135284999689 20.039275585709 21.254861485081
3078 2 -1.200000000000 50.135284999689 17.812689409519 22.829295669162
3079 2 -1.200000000000 48.207004807393 21.152568673804 22.829295669162
3080 2 -1.200000000000 48.207004807393 18.925982497614 24.403729853242
3081 2 -1.200000000000 52.063565191984 21.152568673804 22.829295669162
3082 2 -1.200000000000 52.063565191984 18.925982497614 24.403729853242
3083 2 -1.200000000000 50.135284999689 22.265861761899 24.403729853242
3084 2 -1.200000000000 50.135284999689 20.039275585709 25.978164037322
3085 1 2.400000000000 50.135284999689 15.586103233329 22.042078577122
3086 1 2.400000000000 48.207004807393 14.472810145234 25.190946945282
3087 1 2.400000000000 52.063565191984 14.472810145234 25.190946945282
3088 1 2.400000000000 50.135284999689 17.812689409519 25.190946945282
3089 2 -1.200000000000 50.135284999689 15.586103233329 24.403729853242
3090 2 -1.200000000000 50.135284999689 13.359517057139 25.978164037322
3091 2 -1.200000000000 48.207004807393 16.699396321424 25.978164037322
3092 2 -1.200000000000 48.207004807393 14.472810145234 27.552598221402
3093 2 -1.200000000000 52.063565191984 16.699396321424 25.978164037322
3094 2 -1.200000000000 52.063565191984 14.472810145234 27.552598221402
3095 2 -1.200000000000 50.135284999689 17.812689409519 27.552598221402
3096 2 -1.200000000000 50.135284999689 15.586103233329 0.787217092040
3097 1 2.400000000000 50.135284999689 11.132930880950 25.190946945282
3098 1 2.400000000000 48.207004807393 10.019637792855 0.000000000000
3099 1 2.400000000000 52.063565191984 10.019637792855 0.000000000000
3100 1 2.400000000000 50.135284999689 13.359517057139 0.000000000000
3101 2 -1.200000000000 50.135284999689 11.132930880950 27.552598221402
3102 2 -1.200000000000 50.135284999689 8.906344704760 0.787217092040
3103 2 -1.200000000000 48.207004807393 12.246223969045 0.787217092040
3104 2 -1.200000000000 48.207004807393 10.019637792855 2.361651276120
3105 2 -1.200000000000 52.063565191984 12.246223969045 0.787217092040
3106 2 -1.200000000000 52.063565191984 10.019637792855 2.361651276120
3107 2 -1.200000000000 50.135284999689 13.359517057139 2.361651276120
3108 2 -1.200000000000 50.135284999689 11.132930880950 3.936085460200
3109 1 2.400000000000 46.278724615097 22.265861761899 22.042078577122
3110 1 2.400000000000 44.350444422801 21.152568673804 25.190946945282
3111 1 2.400000000000 48.207004807393 21.152568673804 25.190946945282
3112 1 2.400000000000 46.278724615097 24.492447938089 25.190946945282
3113 2 -1.200000000000 46.278724615097 22.265861761899 24.403729853242
3114 2 -1.200000000000 46.278724615097 20.039275585709 25.978164037322
3115 2 -1.200000000000 44.350444422801 23.379154849994 25.978164037322
3116 2 -1.200000000000 44.350444422801 21.152568673804 27.552598221402
3117 2 -1.200000000000 48.207004807393 23.379154849994 25.978164037322
3118 2 -1.200000000000 48.207004807393 21.152568673804 27.552598221402
3119 2 -1.200000000000 46.278724615097 24.492447938089 27.552598221402
3120 2 -1.200000000000 46.278724615097 22.265861761899 0.787217092040
3121 1 2.400000000000 46.278724615097 17.812689409519 25.190946945282
3122 1 2.400000000000 44.350444422801 16.699396321424 0.000000000000
3123 1 2.400000000000 48.207004807393 16.699396321424 0.000000000000
3124 1 2.400000000000 46.278724615097 20.039275585709 0.000000000000
3125 2 -1.200000000000 46.278724615097 17.812689409519 27.552598221402
3126 2 -1.200000000000 46.278724615097 15.586103233329 0.787217092040
3127 2 -1.200000000000 44.350444422801 18.925982497614 0.787217092040
3128 2 -1.200000000000 44.350444422801 16.699396321424 2.361651276120
3129 2 -1.200000000000 48.207004807393 18.925982497614 0.787217092040
3130 2 -1.200000000000 48.207004807393 16.699396321424 2.361651276120
3131 2 -1.200000000000 46.278724615097 20.039275585709 2.361651276120
3132 2 -1.200000000000 46.278724615097 17.812689409519 3.936085460200
3133 1 2.400000000000 42.422164230506 24.492447938089 25.190946945282
3134 1 2.400000000000 40.493884038210 23.379154849994 0.000000000000
3135 1 2.400000000000 44.350444422801 23.379154849994 0.000000000000
3136 1 2.400000000000 42.422164230506 0.000000000000 0.000000000000
3137 2 -1.200000000000 42.422164230506 24.492447938089 27.552598221402
3138 2 -1.200000000000 42.422164230506 22.265861761899 0.787217092040
3139 2 -1.200000000000 40.493884038210 25.605741026184 0.787217092040
3140 2 -1.200000000000 40.493884038210 23.379154849994 2.361651276120
3141 2 -1.200000000000 44.350444422801 25.605741026184 0.787217092040
3142 2 -1.200000000000 44.350444422801 23.379154849994 2.361651276120
3143 2 -1.200000000000 42.422164230506 0.000000000000 2.361651276120
3144 2 -1.200000000000 42.422164230506 24.492447938089 3.936085460200
3145 1 2.400000000000 57.848405768871 24.492447938089 15.744341840801
3146 1 2.400000000000 55.920125576576 23.379154849994 18.893210208961
3147 1 2.400000000000 59.776685961167 23.379154849994 18.893210208961
3148 1 2.400000000000 57.848405768871 0.000000000000 18.893210208961
3149 2 -1.200000000000 57.848405768871 24.492447938089 18.105993116921
3150 2 -1.200000000000 57.848405768871 22.265861761899 19.680427301001
3151 2 -1.200000000000 55.920125576576 25.605741026184 19.680427301001
3152 2 -1.200000000000 55.920125576576 23.379154849994 21.254861485081
3153 2 -1.200000000000 59.776685961167 25.605741026184 19.680427301001
3154 2 -1.200000000000 59.776685961167 23.379154849994 21.254861485081
3155 2 -1.200000000000 57.848405768871 0.000000000000 21.254861485081
3156 2 -1.200000000000 57.848405768871 24.492447938089 22.829295669162
3157 1 2.400000000000 57.848405768871 20.039275585709 18.893210208961
3158 1 2.400000000000 55.920125576576 18.925982497614 22.042078577122
3159 1 2.400000000000 59.776685961167 18.925982497614 22.042078577122
3160 1 2.400000000000 57.848405768871 22.265861761899 22.042078577122
3161 2 -1.200000000000 57.848405768871 20.039275585709 21.254861485081
3162 2 -1.200000000000 57.848405768871 17.812689409519 22.829295669162
3163 2 -1.200000000000 55.920125576576 21.152568673804 22.829295669162
3164 2 -1.200000000000 55.920125576576 18.925982497614 24.403729853242
3165 2 -1.200000000000 59.776685961167 21.152568673804 22.829295669162
3166 2 -1.200000000000 59.776685961167 18.925982497614 24.403729853242
3167 2 -1.200000000000 57.848405768871 22.265861761899 24.403729853242
3168 2 -1.200000000000 57.848405768871 20.039275585709 25.978164037322
3169 1 2.400000000000 57.848405768871 15.586103233329 22.042078577122
3170 1 2.400000000000 55.920125576576 14.472810145234 25.190946945282
3171 1 2.400000000000 59.776685961167 14.472810145234 25.190946945282
3172 1 2.400000000000 57.848405768871 17.812689409519 25.190946945282
3173 2 -1.200000000000 57.848405768871 15.586103233329 24.403729853242
3174 2 -1.200000000000 57.848405768871 13.359517057139 25.978164037322
3175 2 -1.200000000000 55.920125576576 16.699396321424 25.978164037322
3176 2 -1.200000000000 55.920125576576 14.472810145234 27.552598221402
3177 2 -1.200000000000 59.776685961167 16.699396321424 25.978164037322
3178 2 -1.200000000000 59.776685961167 14.472810145234 27.552598221402
3179 2 -1.200000000000 57.848405768871 17.812689409519 27.552598221402
3180 2 -1.200000000000 57.848405768871 15.586103233329 0.787217092040
3181 1 2.400000000000 57.848405768871 11.132930880950 25.190946945282
3182 1 2.400000000000 55.920125576576 10.019637792855 0.000000000000
3183 1 2.400000000000 59.776685961167 10.019637792855 0.000000000000
3184 1 2.400000000000 57.848405768871 13.359517057139 0.000000000000
3185 2 -1.200000000000 57.848405768871 11.132930880950 27.552598221402
3186 2 -1.200000000000 57.848405768871 8.906344704760 0.787217092040
3187 2 -1.200000000000 55.920125576576 12.246223969045 0.787217092040
3188 2 -1.200000000000 55.920125576576 10.019637792855 2.361651276120
3189 2 -1.200000000000 59.776685961167 12.246223969045 0.787217092040
3190 2 -1.200000000000 59.776685961167 10.019637792855 2.361651276120
3191 2 -1.200000000000 57.848405768871 13.359517057139 2.361651276120
3192 2 -1.200000000000 57.848405768871 11.132930880950 3.936085460200
3193 1 2.400000000000 53.991845384280 22.265861761899 22.042078577122
3194 1 2.400000000000 52.063565191984 21.152568673804 25.190946945282
3195 1 2.400000000000 55.920125576576 21.152568673804 25.190946945282
3196 1 2.400000000000 53.991845384280 24.492447938089 25.190946945282
3197 2 -1.200000000000 53.991845384280 22.265861761899 24.403729853242
3198 2 -1.200000000000 53.991845384280 20.039275585709 25.978164037322
3199 2 -1.200000000000 52.063565191984 23.379154849994 25.978164037322
3200 2 -1.200000000000 52.063565191984 21.152568673804 27.552598221402
3201 2 -1.200000000000 55.920125576576 23.379154849994 25.978164037322
3202 2 -1.200000000000 55.920125576576 21.152568673804 27.552598221402
3203 2 -1.200000000000 53.991845384280 24.492447938089 27.552598221402
3204 2 -1.200000000000 53.991845384280 22.265861761899 0.787217092040
3205 1 2.400000000000 53.991845384280 17.812689409519 25.190946945282
3206 1 2.400000000000 52.063565191984 16.699396321424 0.000000000000
3207 1 2.400000000000 55.920125576576 16.699396321424 0.000000000000
3208 1 2.400000000000 53.991845384280 20.039275585709 0.000000000000
3209 2 -1.200000000000 53.991845384280 17.812689409519 27.552598221402
3210 2 -1.200000000000 53.991845384280 15.586103233329 0.787217092040
3211 2 -1.200000000000 52.063565191984 18.925982497614 0.787217092040
3212 2 -1.200000000000 52.063565191984 16.699396321424 2.361651276120
3213 2 -1.200000000000 55.920125576576 18.925982497614 0.787217092040
3214 2 -1.200000000000 55.920125576576 16.699396321424 2.361651276120
3215 2 -1.200000000000 53.991845384280 20.039275585709 2.361651276120
3216 2 -1.200000000000 53.991845384280 17.812689409519 3.936085460200
3217 1 2.400000000000 50.135284999689 24.492447938089 25.190946945282
3218 1 2.400000000000 48.207004807393 23.379154849994 0.000000000000
3219 1 2.400000000000 52.063565191984 23.379154849994 0.000000000000
3220 1 2.400000000000 50.135284999689 0.000000000000 0.000000000000
3221 2 -1.200000000000 50.135284999689 24.492447938089 27.552598221402
3222 2 -1.200000000000 50.135284999689 22.265861761899 0.787217092040
3223 2 -1.200000000000 48.207004807393 25.605741026184 0.787217092040
3224 2 -1.200000000000 48.207004807393 23.379154849994 2.361651276120
3225 2 -1.200000000000 52.063565191984 25.605741026184 0.787217092040
3226 2 -1.200000000000 52.063565191984 23.379154849994 2.361651276120
3227 2 -1.200000000000 50.135284999689 0.000000000000 2.361651276120
3228 2 -1.200000000000 50.135284999689 24.492447938089 3.936085460200
3229 1 2.400000000000 57.848405768871 24.492447938089 25.190946945282
3230 1 2.400000000000 55.920125576576 23.379154849994 0.000000000000
3231 1 2.400000000000 59.776685961167 23.379154849994 0.000000000000
3232 1 2.400000000000 57.848405768871 0.000000000000 0.000000000000
3233 2 -1.200000000000 57.848405768871 24.492447938089 27.552598221402
3234 2 -1.200000000000 57.848405768871 22.265861761899 0.787217092040
3235 2 -1.200000000000 55.920125576576 25.605741026184 0.787217092040
3236 2 -1.200000000000 55.920125576576 23.379154849994 2.361651276120
3237 2 -1.200000000000 59.776685961167 25.605741026184 0.787217092040
3238 2 -1.200000000000 59.776685961167 23.379154849994 2.361651276120
3239 2 -1.200000000000 57.848405768871 0.000000000000 2.361651276120
3240 2 -1.200000000000 57.848405768871 24.492447938089 3.936085460200
3241 1 2.400000000000 119.553371922334 20.039275585709 0.000000000000
3242 1 2.400000000000 121.481652114630 21.152568673804 3.148868368160
3243 1 2.400000000000 117.625091730039 21.152568673804 3.148868368160
3244 1 2.400000000000 119.553371922334 17.812689409519 3.148868368160
3245 2 -1.200000000000 119.553371922334 20.039275585709 2.361651276120
3246 2 -1.200000000000 119.553371922334 22.265861761899 3.936085460200
3247 2 -1.200000000000 121.481652114630 18.925982497614 3.936085460200
3248 2 -1.200000000000 121.481652114630 21.152568673804 5.510519644280
3249 2 -1.200000000000 117.625091730039 18.925982497614 3.936085460200
3250 2 -1.200000000000 117.625091730039 21.152568673804 5.510519644280
3251 2 -1.200000000000 119.553371922334 17.812689409519 5.510519644280
3252 2 -1.200000000000 119.553371922334 20.039275585709 7.084953828360
3253 1 2.400000000000 119.553371922334 24.492447938089 3.148868368160
3254 1 2.400000000000 121.481652114630 25.605741026184 6.297736736320
3255 1 2.400000000000 117.625091730039 25.605741026184 6.297736736320
3256 1 2.400000000000 119.553371922334 22.265861761899 6.297736736320
3257 2 -1.200000000000 119.553371922334 24.492447938089 5.510519644280
3258 2 -1.200000000000 119.553371922334 0.000000000000 7.084953828360
3259 2 -1.200000000000 121.481652114630 23.379154849994 7.084953828360
3260 2 -1.200000000000 121.481652114630 25.605741026184 8.659388012441
3261 2 -1.200000000000 117.625091730039 23.379154849994 7.084953828360
3262 2 -1.200000000000 117.625091730039 25.605741026184 8.659388012441
3263 2 -1.200000000000 119.553371922334 22.265861761899 8.659388012441
3264 2 -1.200000000000 119.553371922334 24.492447938089 10.233822196521
3265 1 2.400000000000 111.840251153151 20.039275585709 0.000000000000
3266 1 2.400000000000 113.768531345447 21.152568673804 3.148868368160
3267 1 2.400000000000 109.911970960856 21.152568673804 3.148868368160
3268 1 2.400000000000 111.840251153151 17.812689409519 3.148868368160
3269 2 -1.200000000000 111.840251153151 20.039275585709 2.361651276120
3270 2 -1.200000000000 111.840251153151 22.265861761899 3.936085460200
3271 2 -1.200000000000 113.768531345447 18.925982497614 3.936085460200
3272 2 -1.200000000000 113.768531345447 21.152568673804 5.510519644280
3273 2 -1.200000000000 109.911970960856 18.925982497614 3.936085460200
3274 2 -1.200000000000 109.911970960856 21.152568673804 5.510519644280
3275 2 -1.200000000000 111.840251153151 17.812689409519 5.510519644280
3276 2 -1.200000000000 111.840251153151 20.039275585709 7.084953828360
3277 1 2.400000000000 111.840251153151 24.492447938089 3.148868368160
3278 1 2.400000000000 113.768531345447 25.605741026184 6.297736736320
3279 1 2.400000000000 109.911970960856 25.605741026184 6.297736736320
3280 1 2.400000000000 111.840251153151 22.265861761899 6.297736736320
3281 2 -1.200000000000 111.840251153151 24.492447938089 5.510519644280
3282 2 -1.200000000000 111.840251153151 0.000000000000 7.084953828360
3283 2 -1.200000000000 113.768531345447 23.379154849994 7.084953828360
3284 2 -1.200000000000 113.768531345447 25.605741026184 8.659388012441
3285 2 -1.200000000000 109.911970960856 23.379154849994 7.084953828360
3286 2 -1.200000000000 109.911970960856 25.605741026184 8.659388012441
3287 2 -1.200000000000 111.840251153151 22.265861761899 8.659388012441
3288 2 -1.200000000000 111.840251153151 24.492447938089 10.233822196521
3289 1 2.400000000000 115.696811537743 13.359517057139 0.000000000000
3290 1 2.400000000000 117.625091730039 14.472810145234 3.148868368160
3291 1 2.400000000000 113.768531345447 14.472810145234 3.148868368160
3292 1 2.400000000000 115.696811537743 11.132930880950 3.148868368160
3293 2 -1.200000000000 115.696811537743 13.359517057139 2.361651276120
3294 2 -1.200000000000 115.696811537743 15.586103233329 3.936085460200
3295 2 -1.200000000000 117.625091730039 12.246223969045 3.936085460200
3296 2 -1.200000000000 117.625091730039 14.472810145234 5.510519644280
3297 2 -1.200000000000 113.768531345447 12.246223969045 3.936085460200
3298 2 -1.200000000000 113.768531345447 14.472810145234 5.510519644280
3299 2 -1.200000000000 115.696811537743 11.132930880950 5.510519644280
3300 2 -1.200000000000 115.696811537743 13.359517057139 7.084953828360
3301 1 2.400000000000 115.696811537743 17.812689409519 3.148868368160
3302 1 2.400000000000 117.625091730039 18.925982497614 6.297736736320
3303 1 2.400000000000 113.768531345447 18.925982497614 6.297736736320
3304 1 2.400000000000 115.696811537743 15.586103233329 6.297736736320
3305 2 -1.200000000000 115.696811537743 17.812689409519 5.510519644280
3306 2 -1.200000000000 115.696811537743 20.039275585709 7.084953828360
3307 2 -1.200000000000 117.625091730039 16.699396321424 7.084953828360
3308 2 -1.200000000000 117.625091730039 18.925982497614 8.659388012441
3309 2 -1.200000000000 113.768531345447 16.699396321424 7.084953828360
3310 2 -1.200000000000 113.768531345447 18.925982497614 8.659388012441
3311 2 -1.200000000000 115.696811537743 15.586103233329 8.659388012441
3312 2 -1.200000000000 115.696811537743 17.812689409519 10.233822196521
3313 1 2.400000000000 115.696811537743 22.265861761899 6.297736736320
3314 1 2.400000000000 117.625091730039 23.379154849994 9.446605104481
3315 1 2.400000000000 113.768531345447 23.379154849994 9.446605104481
3316 1 2.400000000000 115.696811537743 20.039275585709 9.446605104481
3317 2 -1.200000000000 115.696811537743 22.265861761899 8.659388012441
3318 2 -1.200000000000 115.696811537743 24.492447938089 10.233822196521
3319 2 -1.200000000000 117.625091730039 21.152568673804 10.233822196521
3320 2 -1.200000000000 117.625091730039 23.379154849994 11.808256380601
3321 2 -1.200000000000 113.768531345447 21.152568673804 10.233822196521
3322 2 -1.200000000000 113.768531345447 23.379154849994 11.808256380601
3323 2 -1.200000000000 115.696811537743 20.039275585709 11.808256380601
3324 2 -1.200000000000 115.696811537743 22.265861761899 13.382690564681
3325 1 2.400000000000 119.553371922334 6.679758528570 0.000000000000
3326 1 2.400000000000 121.481652114630 7.793051616665 3.148868368160
3327 1 2.400000000000 117.625091730039 7.793051616665 3.148868368160
3328 1 2.400000000000 119.553371922334 4.453172352380 3.148868368160
3329 2 -1.200000000000 119.553371922334 6.679758528570 2.361651276120
3330 2 -1.200000000000 119.553371922334 8.906344704760 3.936085460200
3331 2 -1.200000000000 121.481652114630 5.566465440475 3.936085460200
3332 2 -1.200000000000 121.481652114630 7.793051616665 5.510519644280
3333 2 -1.200000000000 117.625091730039 5.566465440475 3.936085460200
3334 2 -1.200000000000 117.625091730039 7.793051616665 5.510519644280
3335 2 -1.200000000000 119.553371922334 4.453172352380 5.510519644280
3336 2 -1.200000000000 119.553371922334 6.679758528570 7.084953828360
3337 1 2.400000000000 119.553371922334 11.132930880950 3.148868368160
3338 1 2.400000000000 121.481652114630 12.246223969045 6.297736736320
3339 1 2.400000000000 117.625091730039 12.246223969045 6.297736736320
3340 1 2.400000000000 119.553371922334 8.906344704760 6.297736736320
3341 2 -1.200000000000 119.553371922334 11.132930880950 5.510519644280
3342 2 -1.200000000000 119.553371922334 13.359517057139 7.084953828360
3343 2 -1.200000000000 121.481652114630 10.019637792855 7.084953828360
3344 2 -1.200000000000 121.481652114630 12.246223969045 8.659388012441
3345 2 -1.200000000000 117.625091730039 10.019637792855 7.084953828360
3346 2 -1.200000000000 117.625091730039 12.246223969045 8.659388012441
3347 2 -1.200000000000 119.553371922334 8.906344704760 8.659388012441
3348 2 -1.200000000000 119.553371922334 11.132930880950 10.233822196521
3349 1 2.400000000000 119.553371922334 15.586103233329 6.297736736320
3350 1 2.400000000000 121.481652114630 16.699396321424 9.446605104481
3351 1 2.400000000000 117.625091730039 16.699396321424 9.446605104481
3352 1 2.400000000000 119.553371922334 13.359517057139 9.446605104481
3353 2 -1.200000000000 119.553371922334 15.586103233329 8.659388012441
3354 2 -1.200000000000 119.553371922334 17.812689409519 10.233822196521
3355 2 -1.200000000000 121.481652114630 14.472810145234 10.233822196521
3356 2 -1.200000000000 121.481652114630 16.699396321424 11.808256380601
3357 2 -1.200000000000 117.625091730039 14.472810145234 10.233822196521
3358 2 -1.200000000000 117.625091730039 16.699396321424 11.808256380601
3359 2 -1.200000000000 119.553371922334 13.359517057139 11.808256380601
3360 2 -1.200000000000 119.553371922334 15.586103233329 13.382690564681
3361 1 2.400000000000 119.553371922334 20.039275585709 9.446605104481
3362 1 2.400000000000 121.481652114630 21.152568673804 12.595473472641
3363 1 2.400000000000 117.625091730039 21.152568673804 12.595473472641
3364 1 2.400000000000 119.553371922334 17.812689409519 12.595473472641
3365 2 -1.200000000000 119.553371922334 20.039275585709 11.808256380601
3366 2 -1.200000000000 119.553371922334 22.265861761899 13.382690564681
3367 2 -1.200000000000 121.481652114630 18.925982497614 13.382690564681
3368 2 -1.200000000000 121.481652114630 21.152568673804 14.957124748761
3369 2 -1.200000000000 117.625091730039 18.925982497614 13.382690564681
3370 2 -1.200000000000 117.625091730039 21.152568673804 14.957124748761
3371 2 -1.200000000000 119.553371922334 17.812689409519 14.957124748761
3372 2 -1.200000000000 119.553371922334 20.039275585709 16.531558932841
3373 1 2.400000000000 119.553371922334 24.492447938089 12.595473472641
3374 1 2.400000000000 121.481652114630 25.605741026184 15.744341840801
3375 1 2.400000000000 117.625091730039 25.605741026184 15.744341840801
3376 1 2.400000000000 119.553371922334 22.265861761899 15.744341840801
3377 2 -1.200000000000 119.553371922334 24.492447938089 14.957124748761
3378 2 -1.200000000000 119.553371922334 0.000000000000 16.531558932841
3379 2 -1.200000000000 121.481652114630 23.379154849994 16.531558932841
3380 2 -1.200000000000 121.481652114630 25.605741026184 18.105993116921
3381 2 -1.200000000000 117.625091730039 23.379154849994 16.531558932841
3382 2 -1.200000000000 117.625091730039 25.605741026184 18.105993116921
3383 2 -1.200000000000 119.553371922334 22.265861761899 18.105993116921
3384 2 -1.200000000000 119.553371922334 24.492447938089 19.680427301001
3385 1 2.400000000000 104.127130383969 20.039275585709 0.000000000000
3386 1 2.400000000000 106.055410576264 21.152568673804 3.148868368160
3387 1 2.400000000000 102.198850191673 21.152568673804 3.148868368160
3388 1 2.400000000000 104.127130383969 17.812689409519 3.148868368160
3389 2 -1.200000000000 104.127130383969 20.039275585709 2.361651276120
3390 2 -1.200000000000 104.127130383969 22.265861761899 3.936085460200
3391 2 -1.200000000000 106.055410576264 18.925982497614 3.936085460200
3392 2 -1.200000000000 106.055410576264 21.152568673804 5.510519644280
3393 2 -1.200000000000 102.198850191673 18.925982497614 3.936085460200
3394 2 -1.200000000000 102.198850191673 21.152568673804 5.510519644280
3395 2 -1.200000000000 104.127130383969 17.812689409519 5.510519644280
3396 2 -1.200000000000 104.127130383969 20.039275585709 7.084953828360
3397 1 2.400000000000 104.127130383969 24.492447938089 3.148868368160
3398 1 2.400000000000 106.055410576264 25.605741026184 6.297736736320
3399 1 2.400000000000 102.198850191673 25.605741026184 6.297736736320
3400 1 2.400000000000 104.127130383969 22.265861761899 6.297736736320
3401 2 -1.200000000000 104.127130383969 24.492447938089 5.510519644280
3402 2 -1.200000000000 104.127130383969 0.000000000000 7.084953828360
3403 2 -1.200000000000 106.055410576264 23.379154849994 7.084953828360
3404 2 -1.200000000000 106.055410576264 25.605741026184 8.659388012441
3405 2 -1.200000000000 102.198850191673 23.379154849994 7.084953828360
3406 2 -1.200000000000 102.198850191673 25.605741026184 8.659388012441
3407 2 -1.200000000000 104.127130383969 22.265861761899 8.659388012441
3408 2 -1.200000000000 104.127130383969 24.492447938089 10.233822196521
3409 1 2.400000000000 107.983690768560 13.359517057139 0.000000000000
3410 1 2.400000000000 109.911970960856 14.472810145234 3.148868368160
3411 1 2.400000000000 106.055410576264 14.472810145234 3.148868368160
3412 1 2.400000000000 107.983690768560 11.132930880950 3.148868368160
3413 2 -1.200000000000 107.983690768560 13.359517057139 2.361651276120
3414 2 -1.200000000000 107.983690768560 15.586103233329 3.936085460200
3415 2 -1.200000000000 109.911970960856 12.246223969044 3.936085460200
3416 2 -1.200000000000 109.911970960856 14.472810145234 5.510519644280
3417 2 -1.200000000000 106.055410576264 12.246223969045 3.936085460200
3418 2 -1.200000000000 106.055410576264 14.472810145234 5.510519644280
3419 2 -1.200000000000 107.983690768560 11.132930880950 5.510519644280
3420 2 -1.200000000000 107.983690768560 13.359517057139 7.084953828360
3421 1 2.400000000000 107.983690768560 17.812689409519 3.148868368160
3422 1 2.400000000000 109.911970960856 18.925982497614 6.297736736320
3423 1 2.400000000000 106.055410576264 18.925982497614 6.297736736320
3424 1 2.400000000000 107.983690768560 15.586103233329 6.297736736320
3425 2 -1.200000000000 107.983690768560 17.812689409519 5.510519644280
3426 2 -1.200000000000 107.983690768560 20.039275585709 7.084953828360
3427 2 -1.200000000000 109.911970960856 16.699396321424 7.084953828360
3428 2 -1.200000000000 109.911970960856 18.925982497614 8.659388012441
3429 2 -1.200000000000 106.055410576264 16.699396321424 7.084953828360
3430 2 -1.200000000000 106.055410576264 18.925982497614 8.659388012441
3431 2 -1.200000000000 107.983690768560 15.586103233329 8.659388012441
3432 2 -1.200000000000 107.983690768560 17.812689409519 10.233822196521
3433 1 2.400000000000 107.983690768560 22.265861761899 6.297736736320
3434 1 2.400000000000 109.911970960856 23.379154849994 9.446605104481
3435 1 2.400000000000 106.055410576264 23.379154849994 9.446605104481
3436 1 2.400000000000 107.983690768560 20.039275585709 9.446605104481
3437 2 -1.200000000000 107.983690768560 22.265861761899 8.659388012441
3438 2 -1.200000000000 107.983690768560 24.492447938089 10.233822196521
3439 2 -1.200000000000 109.911970960856 21.152568673804 10.233822196521
3440 2 -1.200000000000 109.911970960856 23.379154849994 11.808256380601
3441 2 -1.200000000000 106.055410576264 21.152568673804 10.233822196521
3442 2 -1.200000000000 106.055410576264 23.379154849994 11.808256380601
3443 2 -1.200000000000 107.983690768560 20.039275585709 11.808256380601
3444 2 -1.200000000000 107.983690768560 22.265861761899 13.382690564681
3445 1 2.400000000000 111.840251153151 6.679758528570 0.000000000000
3446 1 2.400000000000 113.768531345447 7.793051616665 3.148868368160
3447 1 2.400000000000 109.911970960856 7.793051616665 3.148868368160
3448 1 2.400000000000 111.840251153151 4.453172352380 3.148868368160
3449 2 -1.200000000000 111.840251153151 6.679758528570 2.361651276120
3450 2 -1.200000000000 111.840251153151 8.906344704760 3.936085460200
3451 2 -1.200000000000 113.768531345447 5.566465440475 3.936085460200
3452 2 -1.200000000000 113.768531345447 7.793051616665 5.510519644280
3453 2 -1.200000000000 109.911970960856 5.566465440475 3.936085460200
3454 2 -1.200000000000 109.911970960856 7.793051616665 5.510519644280
3455 2 -1.200000000000 111.840251153151 4.453172352380 5.510519644280
3456 2 -1.200000000000 111.840251153151 6.679758528570 7.084953828360
3457 1 2.400000000000 111.840251153151 11.132930880950 3.148868368160
3458 1 2.400000000000 113.768531345447 12.246223969045 6.297736736320
3459 1 2.400000000000 109.911970960856 12.246223969045 6.297736736320
3460 1 2.400000000000 111.840251153151 8.906344704760 6.297736736320
3461 2 -1.200000000000 111.840251153151 11.132930880950 5.510519644280
3462 2 -1.200000000000 111.840251153151 13.359517057139 7.084953828360
3463 2 -1.200000000000 113.768531345447 10.019637792855 7.084953828360
3464 2 -1.200000000000 113.768531345447 12.246223969045 8.659388012441
3465 2 -1.200000000000 109.911970960856 10.019637792855 7.084953828360
3466 2 -1.200000000000 109.911970960856 12.246223969045 8.659388012441
3467 2 -1.200000000000 111.840251153151 8.906344704760 8.659388012441
3468 2 -1.200000000000 111.840251153151 11.132930880950 10.233822196521
3469 1 2.400000000000 111.840251153151 15.586103233329 6.297736736320
3470 1 2.400000000000 113.768531345447 16.699396321424 9.446605104481
3471 1 2.400000000000 109.911970960856 16.699396321424 9.446605104481
3472 1 2.400000000000 111.840251153151 13.359517057139 9.446605104481
3473 2 -1.200000000000 111.840251153151 15.586103233329 8.659388012441
3474 2 -1.200000000000 111.840251153151 17.812689409519 10.233822196521
3475 2 -1.200000000000 113.768531345447 14.472810145234 10.233822196521
3476 2 -1.200000000000 113.768531345447 16.699396321424 11.808256380601
3477 2 -1.200000000000 109.911970960856 14.472810145234 10.233822196521
3478 2 -1.200000000000 109.911970960856 16.699396321424 11.808256380601
3479 2 -1.200000000000 111.840251153151 13.359517057139 11.808256380601
3480 2 -1.200000000000 111.840251153151 15.586103233329 13.382690564681
3481 1 2.400000000000 111.840251153151 20.039275585709 9.446605104481
3482 1 2.400000000000 113.768531345447 21.152568673804 12.595473472641
3483 1 2.400000000000 109.911970960856 21.152568673804 12.595473472641
3484 1 2.400000000000 111.840251153151 17.812689409519 12.595473472641
3485 2 -1.200000000000 111.840251153151 20.039275585709 11.808256380601
3486 2 -1.200000000000 111.840251153151 22.265861761899 13.382690564681
3487 2 -1.200000000000 113.768531345447 18.925982497614 13.382690564681
3488 2 -1.200000000000 113.768531345447 21.152568673804 14.957124748761
3489 2 -1.200000000000 109.911970960856 18.925982497614 13.382690564681
3490 2 -1.200000000000 109.911970960856 21.152568673804 14.957124748761
3491 2 -1.200000000000 111.840251153151 17.812689409519 14.957124748761
3492 2 -1.200000000000 111.840251153151 20.039275585709 16.531558932841
3493 1 2.400000000000 111.840251153151 24.492447938089 12.595473472641
3494 1 2.400000000000 113.768531345447 25.605741026184 15.744341840801
3495 1 2.400000000000 109.911970960856 25.605741026184 15.744341840801
3496 1 2.400000000000 111.840251153151 22.265861761899 15.744341840801
3497 2 -1.200000000000 111.840251153151 24.492447938089 14.957124748761
3498 2 -1.200000000000 111.840251153151 0.000000000000 16.531558932841
3499 2 -1.200000000000 113.768531345447 23.379154849994 16.531558932841
3500 2 -1.200000000000 113.768531345447 25.605741026184 18.105993116921
3501 2 -1.200000000000 109.911970960856 23.379154849994 16.531558932841
3502 2 -1.200000000000 109.911970960856 25.605741026184 18.105993116921
3503 2 -1.200000000000 111.840251153151 22.265861761899 18.105993116921
3504 2 -1.200000000000 111.840251153151 24.492447938089 19.680427301001
3505 1 2.400000000000 115.696811537743 0.000000000000 0.000000000000
3506 1 2.400000000000 117.625091730039 1.113293088095 3.148868368160
3507 1 2.400000000000 113.768531345447 1.113293088095 3.148868368160
3508 1 2.400000000000 115.696811537743 24.492447938089 3.148868368160
3509 2 -1.200000000000 115.696811537743 0.000000000000 2.361651276120
3510 2 -1.200000000000 115.696811537743 2.226586176190 3.936085460200
3511 2 -1.200000000000 117.625091730039 25.605741026184 3.936085460200
3512 2 -1.200000000000 117.625091730039 1.113293088095 5.510519644280
3513 2 -1.200000000000 113.768531345447 25.605741026184 3.936085460200
3514 2 -1.200000000000 113.768531345447 1.113293088095 5.510519644280
3515 2 -1.200000000000 115.696811537743 24.492447938089 5.510519644280
3516 2 -1.200000000000 115.696811537743 0.000000000000 7.084953828360
3517 1 2.400000000000 115.696811537743 4.453172352380 3.148868368160
3518 1 2.400000000000 117.625091730039 5.566465440475 6.297736736320
3519 1 2.400000000000 113.768531345447 5.566465440475 6.297736736320
3520 1 2.400000000000 115.696811537743 2.226586176190 6.297736736320
3521 2 -1.200000000000 115.696811537743 4.453172352380 5.510519644280
3522 2 -1.200000000000 115.696811537743 6.679758528570 7.084953828360
3523 2 -1.200000000000 117.625091730039 3.339879264285 7.084953828360
3524 2 -1.200000000000 117.625091730039 5.566465440475 8.659388012441
3525 2 -1.200000000000 113.768531345447 3.339879264285 7.084953828360
3526 2 -1.200000000000 113.768531345447 5.566465440475 8.659388012441
3527 2 -1.200000000000 115.696811537743 2.226586176190 8.659388012441
3528 2 -1.200000000000 115.696811537743 4.453172352380 10.233822196521
3529 1 2.400000000000 115.696811537743 8.906344704760 6.297736736320
3530 1 2.400000000000 117.625091730039 10.019637792855 9.446605104481
3531 1 2.400000000000 113.768531345447 10.019637792855 9.446605104481
3532 1 2.400000000000 115.696811537743 6.679758528570 9.446605104481
3533 2 -1.200000000000 115.696811537743 8.906344704760 8.659388012441
3534 2 -1.200000000000 115.696811537743 11.132930880950 10.233822196521
3535 2 -1.200000000000 117.625091730039 7.793051616665 10.233822196521
3536 2 -1.200000000000 117.625091730039 10.019637792855 11.808256380601
3537 2 -1.200000000000 113.768531345447 7.793051616665 10.233822196521
3538 2 -1.200000000000 113.768531345447 10.019637792855 11.808256380601
3539 2 -1.200000000000 115.696811537743 6.679758528570 11.808256380601
3540 2 -1.200000000000 115.696811537743 8.906344704760 13.382690564681
3541 1 2.400000000000 115.696811537743 13.359517057139 9.446605104481
3542 1 2.400000000000 117.625091730039 14.472810145234 12.595473472641
3543 1 2.400000000000 113.768531345447 14.472810145234 12.595473472641
3544 1 2.400000000000 115.696811537743 11.132930880950 12.595473472641
3545 2 -1.200000000000 115.696811537743 13.359517057139 11.808256380601
3546 2 -1.200000000000 115.696811537743 15.586103233329 13.382690564681
3547 2 -1.200000000000 117.625091730039 12.246223969044 13.382690564681
3548 2 -1.200000000000 117.625091730039 14.472810145234 14.957124748761
3549 2 -1.200000000000 113.768531345447 12.246223969044 13.382690564681
3550 2 -1.200000000000 113.768531345447 14.472810145234 14.957124748761
3551 2 -1.200000000000 115.696811537743 11.132930880950 14.957124748761
3552 2 -1.200000000000 115.696811537743 13.359517057139 16.531558932841
3553 1 2.400000000000 115.696811537743 17.812689409519 12.595473472641
3554 1 2.400000000000 117.625091730039 18.925982497614 15.744341840801
3555 1 2.400000000000 113.768531345447 18.925982497614 15.744341840801
3556 1 2.400000000000 115.696811537743 15.586103233329 15.744341840801
3557 2 -1.200000000000 115.696811537743 17.812689409519 14.957124748761
3558 2 -1.200000000000 115.696811537743 20.039275585709 16.531558932841
3559 2 -1.200000000000 117.625091730039 16.699396321424 16.531558932841
3560 2 -1.200000000000 117.625091730039 18.925982497614 18.105993116921
3561 2 -1.200000000000 113.768531345447 16.699396321424 16.531558932841
3562 2 -1.200000000000 113.768531345447 18.925982497614 18.105993116921
3563 2 -1.200000000000 115.696811537743 15.586103233329 18.105993116921
3564 2 -1.200000000000 115.696811537743 17.812689409519 19.680427301001
3565 1 2.400000000000 115.696811537743 22.265861761899 15.744341840801
3566 1 2.400000000000 117.625091730039 23.379154849994 18.893210208961
3567 1 2.400000000000 113.768531345447 23.379154849994 18.893210208961
3568 1 2.400000000000 115.696811537743 20.039275585709 18.893210208961
3569 2 -1.200000000000 115.696811537743 22.265861761899 18.105993116921
3570 2 -1.200000000000 115.696811537743 24.492447938089 19.680427301001
3571 2 -1.200000000000 117.625091730039 21.152568673804 19.680427301001
3572 2 -1.200000000000 117.625091730039 23.379154849994 21.254861485081
3573 2 -1.200000000000 113.768531345447 21.152568673804 19.680427301001
3574 2 -1.200000000000 113.768531345447 23.379154849994 21.254861485081
3575 2 -1.200000000000 115.696811537743 20.039275585709 21.254861485081
3576 2 -1.200000000000 115.696811537743 22.265861761899 22.829295669162
3577 1 2.400000000000 119.553371922334 2.226586176190 6.297736736320
3578 1 2.400000000000 121.481652114630 3.339879264285 9.446605104481
3579 1 2.400000000000 117.625091730039 3.339879264285 9.446605104481
3580 1 2.400000000000 119.553371922334 0.000000000000 9.446605104481
3581 2 -1.200000000000 119.553371922334 2.226586176190 8.659388012441
3582 2 -1.200000000000 119.553371922334 4.453172352380 10.233822196521
3583 2 -1.200000000000 121.481652114630 1.113293088095 10.233822196521
3584 2 -1.200000000000 121.481652114630 3.339879264285 11.808256380601
3585 2 -1.200000000000 117.625091730039 1.113293088095 10.233822196521
3586 2 -1.200000000000 117.625091730039 3.339879264285 11.808256380601
3587 2 -1.200000000000 119.553371922334 0.000000000000 11.808256380601
3588 2 -1.200000000000 119.553371922334 2.226586176190 13.382690564681
3589 1 2.400000000000 119.553371922334 6.679758528570 9.446605104481
3590 1 2.400000000000 121.481652114630 7.793051616665 12.595473472641
3591 1 2.400000000000 117.625091730039 7.793051616665 12.595473472641
3592 1 2.400000000000 119.553371922334 4.453172352380 12.595473472641
3593 2 -1.200000000000 119.553371922334 6.679758528570 11.808256380601
3594 2 -1.200000000000 119.553371922334 8.906344704760 13.382690564681
3595 2 -1.200000000000 121.481652114630 5.566465440475 13.382690564681
3596 2 -1.200000000000 121.481652114630 7.793051616665 14.957124748761
3597 2 -1.200000000000 117.625091730039 5.566465440475 13.382690564681
3598 2 -1.200000000000 117.625091730039 7.793051616665 14.957124748761
3599 2 -1.200000000000 119.553371922334 4.453172352380 14.957124748761
3600 2 -1.200000000000 119.553371922334 6.679758528570 16.531558932841
3601 1 2.400000000000 119.553371922334 11.132930880950 12.595473472641
3602 1 2.400000000000 121.481652114630 12.246223969045 15.744341840801
3603 1 2.400000000000 117.625091730039 12.246223969045 15.744341840801
3604 1 2.400000000000 119.553371922334 8.906344704760 15.744341840801
3605 2 -1.200000000000 119.553371922334 11.132930880950 14.957124748761
3606 2 -1.200000000000 119.553371922334 13.359517057139 16.531558932841
3607 2 -1.200000000000 121.481652114630 10.019637792855 16.531558932841
3608 2 -1.200000000000 121.481652114630 12.246223969044 18.105993116921
3609 2 -1.200000000000 117.625091730039 10.019637792855 16.531558932841
3610 2 -1.200000000000 117.625091730039 12.246223969044 18.105993116921
3611 2 -1.200000000000 119.553371922334 8.906344704760 18.105993116921
3612 2 -1.200000000000 119.553371922334 11.132930880950 19.680427301001
3613 1 2.400000000000 119.553371922334 15.586103233329 15.744341840801
3614 1 2.400000000000 121.481652114630 16.699396321424 18.893210208961
3615 1 2.400000000000 117.625091730039 16.699396321424 18.893210208961
3616 1 2.400000000000 119.553371922334 13.359517057139 18.893210208961
3617 2 -1.200000000000 119.553371922334 15.586103233329 18.105993116921
3618 2 -1.200000000000 119.553371922334 17.812689409519 19.680427301001
3619 2 -1.200000000000 121.481652114630 14.472810145234 19.680427301001
3620 2 -1.200000000000 121.481652114630 16.699396321424 21.254861485081
3621 2 -1.200000000000 117.625091730039 14.472810145234 19.680427301001
3622 2 -1.200000000000 117.625091730039 16.699396321424 21.254861485081
3623 2 -1.200000000000 119.553371922334 13.359517057139 21.254861485081
3624 2 -1.200000000000 119.553371922334 15.586103233329 22.829295669162
3625 1 2.400000000000 119.553371922334 20.039275585709 18.893210208961
3626 1 2.400000000000 121.481652114630 21.152568673804 22.042078577122
3627 1 2.400000000000 117.625091730039 21.152568673804 22.042078577122
3628 1 2.400000000000 119.553371922334 17.812689409519 22.042078577122
3629 2 -1.200000000000 119.553371922334 20.039275585709 21.254861485081
3630 2 -1.200000000000 119.553371922334 22.265861761899 22.829295669162
3631 2 -1.200000000000 121.481652114630 18.925982497614 22.829295669162
3632 2 -1.200000000000 121.481652114630 21.152568673804 24.403729853242
3633 2 -1.200000000000 117.625091730039 18.925982497614 22.829295669162
3634 2 -1.200000000000 117.625091730039 21.152568673804 24.403729853242
3635 2 -1.200000000000 119.553371922334 17.812689409519 24.403729853242
3636 2 -1.200000000000 119.553371922334 20.039275585709 25.978164037322
3637 1 2.400000000000 119.553371922334 24.492447938089 22.042078577122
3638 1 2.400000000000 121.481652114630 25.605741026184 25.190946945282
3639 1 2.400000000000 117.625091730039 25.605741026184 25.190946945282
3640 1 2.400000000000 119.553371922334 22.265861761899 25.190946945282
3641 2 -1.200000000000 119.553371922334 24.492447938089 24.403729853242
3642 2 -1.200000000000 119.553371922334 0.000000000000 25.978164037322
3643 2 -1.200000000000 121.481652114630 23.379154849994 25.978164037322
3644 2 -1.200000000000 121.481652114630 25.605741026184 27.552598221402
3645 2 -1.200000000000 117.625091730039 23.379154849994 25.978164037322
3646 2 -1.200000000000 117.625091730039 25.605741026184 27.552598221402
3647 2 -1.200000000000 119.553371922334 22.265861761899 27.552598221402
3648 2 -1.200000000000 119.553371922334 24.492447938089 0.787217092040
3649 1 2.400000000000 96.414009614786 20.039275585709 0.000000000000
3650 1 2.400000000000 98.342289807081 21.152568673804 3.148868368160
3651 1 2.400000000000 94.485729422490 21.152568673804 3.148868368160
3652 1 2.400000000000 96.414009614786 17.812689409519 3.148868368160
3653 2 -1.200000000000 96.414009614786 20.039275585709 2.361651276120
3654 2 -1.200000000000 96.414009614786 22.265861761899 3.936085460200
3655 2 -1.200000000000 98.342289807081 18.925982497614 3.936085460200
3656 2 -1.200000000000 98.342289807081 21.152568673804 5.510519644280
3657 2 -1.200000000000 94.485729422490 18.925982497614 3.936085460200
3658 2 -1.200000000000 94.485729422490 21.152568673804 5.510519644280
3659 2 -1.200000000000 96.414009614786 17.812689409519 5.510519644280
3660 2 -1.200000000000 96.414009614786 20.039275585709 7.084953828360
3661 1 2.400000000000 96.414009614786 24.492447938089 3.148868368160
3662 1 2.400000000000 98.342289807081 25.605741026184 6.297736736320
3663 1 2.400000000000 94.485729422490 25.605741026184 6.297736736320
3664 1 2.400000000000 96.414009614786 22.265861761899 6.297736736320
3665 2 -1.200000000000 96.414009614786 24.492447938089 5.510519644280
3666 2 -1.200000000000 96.414009614786 0.000000000000 7.084953828360
3667 2 -1.200000000000 98.342289807081 23.379154849994 7.084953828360
3668 2 -1.200000000000 98.342289807081 25.605741026184 8.659388012441
3669 2 -1.200000000000 94.485729422490 23.379154849994 7.084953828360
3670 2 -1.200000000000 94.485729422490 25.605741026184 8.659388012441
3671 2 -1.200000000000 96.414009614786 22.265861761899 8.659388012441
3672 2 -1.200000000000 96.414009614786 24.492447938089 10.233822196521
3673 1 2.400000000000 100.270569999377 13.359517057139 0.000000000000
3674 1 2.400000000000 102.198850191673 14.472810145234 3.148868368160
3675 1 2.400000000000 98.342289807081 14.472810145234 3.148868368160
3676 1 2.400000000000 100.270569999377 11.132930880950 3.148868368160
3677 2 -1.200000000000 100.270569999377 13.359517057139 2.361651276120
3678 2 -1.200000000000 100.270569999377 15.586103233329 3.936085460200
3679 2 -1.200000000000 102.198850191673 12.246223969045 3.936085460200
3680 2 -1.200000000000 102.198850191673 14.472810145234 5.510519644280
3681 2 -1.200000000000 98.342289807081 12.246223969045 3.936085460200
3682 2 -1.200000000000 98.342289807081 14.472810145234 5.510519644280
3683 2 -1.200000000000 100.270569999377 11.132930880950 5.510519644280
3684 2 -1.200000000000 100.270569999377 13.359517057139 7.084953828360
3685 1 2.400000000000 100.270569999377 17.812689409519 3.148868368160
3686 1 2.400000000000 102.198850191673 18.925982497614 6.297736736320
3687 1 2.400000000000 98.342289807081 18.925982497614 6.297736736320
3688 1 2.400000000000 100.270569999377 15.586103233329 6.297736736320
3689 2 -1.200000000000 100.270569999377 17.812689409519 5.510519644280
3690 2 -1.200000000000 100.270569999377 20.039275585709 7.084953828360
3691 2 -1.200000000000 102.198850191673 16.699396321424 7.084953828360
3692 2 -1.200000000000 102.198850191673 18.925982497614 8.659388012441
3693 2 -1.200000000000 98.342289807081 16.699396321424 7.084953828360
3694 2 -1.200000000000 98.342289807081 18.925982497614 8.659388012441
3695 2 -1.200000000000 100.270569999377 15.586103233329 8.659388012441
3696 2 -1.200000000000 100.270569999377 17.812689409519 10.233822196521
3697 1 2.400000000000 100.270569999377 22.265861761899 6.297736736320
3698 1 2.400000000000 102.198850191673 23.379154849994 9.446605104481
3699 1 2.400000000000 98.342289807081 23.379154849994 9.446605104481
3700 1 2.400000000000 100.270569999377 20.039275585709 9.446605104481
3701 2 -1.200000000000 100.270569999377 22.265861761899 8.659388012441
3702 2 -1.200000000000 100.270569999377 24.492447938089 10.233822196521
3703 2 -1.200000000000 102.198850191673 21.152568673804 10.233822196521
3704 2 -1.200000000000 102.198850191673 23.379154849994 11.808256380601
3705 2 -1.200000000000 98.342289807081 21.152568673804 10.233822196521
3706 2 -1.200000000000 98.342289807081 23.379154849994 11.808256380601
3707 2 -1.200000000000 100.270569999377 20.039275585709 11.808256380601
3708 2 -1.200000000000 100.270569999377 22.265861761899 13.382690564681
3709 1 2.400000000000 104.127130383969 6.679758528570 0.000000000000
3710 1 2.400000000000 106.055410576264 7.793051616665 3.148868368160
3711 1 2.400000000000 102.198850191673 7.793051616665 3.148868368160
3712 1 2.400000000000 104.127130383969 4.453172352380 3.148868368160
3713 2 -1.200000000000 104.127130383969 6.679758528570 2.361651276120
3714 2 -1.200000000000 104.127130383969 8.906344704760 3.936085460200
3715 2 -1.200000000000 106.055410576264 5.566465440475 3.936085460200
3716 2 -1.200000000000 106.055410576264 7.793051616665 5.510519644280
3717 2 -1.200000000000 102.198850191673 5.566465440475 3.936085460200
3718 2 -1.200000000000 102.198850191673 7.793051616665 5.510519644280
3719 2 -1.200000000000 104.127130383969 4.453172352380 5.510519644280
3720 2 -1.200000000000 104.127130383969 6.679758528570 7.084953828360
3721 1 2.400000000000 104.127130383969 11.132930880950 3.148868368160
3722 1 2.400000000000 106.055410576264 12.246223969045 6.297736736320
3723 1 2.400000000000 102.198850191673 12.246223969044 6.297736736320
3724 1 2.400000000000 104.127130383969 8.906344704760 6.297736736320
3725 2 -1.200000000000 104.127130383969 11.132930880950 5.510519644280
3726 2 -1.200000000000 104.127130383969 13.359517057139 7.084953828360
3727 2 -1.200000000000 106.055410576264 10.019637792855 7.084953828360
3728 2 -1.200000000000 106.055410576264 12.246223969045 8.659388012441
3729 2 -1.200000000000 102.198850191673 10.019637792855 7.084953828360
3730 2 -1.200000000000 102.198850191673 12.246223969045 8.659388012441
3731 2 -1.200000000000 104.127130383969 8.906344704760 8.659388012441
3732 2 -1.200000000000 104.127130383969 11.132930880950 10.233822196521
3733 1 2.400000000000 104.127130383969 15.586103233329 6.297736736320
3734 1 2.400000000000 106.055410576264 16.699396321424 9.446605104481
3735 1 2.400000000000 102.198850191673 16.699396321424 9.446605104481
3736 1 2.400000000000 104.127130383969 13.359517057139 9.446605104481
3737 2 -1.200000000000 104.127130383969 15.586103233329 8.659388012441
3738 2 -1.200000000000 104.127130383969 17.812689409519 10.233822196521
3739 2 -1.200000000000 106.055410576264 14.472810145234 10.233822196521
3740 2 -1.200000000000 106.055410576264 16.699396321424 11.808256380601
3741 2 -1.200000000000 102.198850191673 14.472810145234 10.233822196521
3742 2 -1.200000000000 102.198850191673 16.699396321424 11.808256380601
3743 2 -1.200000000000 104.127130383969 13.359517057139 11.808256380601
3744 2 -1.200000000000 104.127130383969 15.586103233329 13.382690564681
3745 1 2.400000000000 104.127130383969 20.039275585709 9.446605104481
3746 1 2.400000000000 106.055410576264 21.152568673804 12.595473472641
3747 1 2.400000000000 102.198850191673 21.152568673804 12.595473472641
3748 1 2.400000000000 104.127130383969 17.812689409519 12.595473472641
3749 2 -1.200000000000 104.127130383969 20.039275585709 11.808256380601
3750 2 -1.200000000000 104.127130383969 22.265861761899 13.382690564681
3751 2 -1.200000000000 106.055410576264 18.925982497614 13.382690564681
3752 2 -1.200000000000 106.055410576264 21.152568673804 14.957124748761
3753 2 -1.200000000000 102.198850191673 18.925982497614 13.382690564681
3754 2 -1.200000000000 102.198850191673 21.152568673804 14.957124748761
3755 2 -1.200000000000 104.127130383969 17.812689409519 14.957124748761
3756 2 -1.200000000000 104.127130383969 20.039275585709 16.531558932841
3757 1 2.400000000000 104.127130383969 24.492447938089 12.595473472641
3758 1 2.400000000000 106.055410576264 25.605741026184 15.744341840801
3759 1 2.400000000000 102.198850191673 25.605741026184 15.744341840801
3760 1 2.400000000000 104.127130383969 22.265861761899 15.744341840801
3761 2 -1.200000000000 104.127130383969 24.492447938089 14.957124748761
3762 2 -1.200000000000 104.127130383969 0.000000000000 16.531558932841
3763 2 -1.200000000000 106.055410576264 23.379154849994 16.531558932841
3764 2 -1.200000000000 106.055410576264 25.605741026184 18.105993116921
3765 2 -1.200000000000 102.198850191673 23.379154849994 16.531558932841
3766 2 -1.200000000000 102.198850191673 25.605741026184 18.105993116921
3767 2 -1.200000000000 104.127130383969 22.265861761899 18.105993116921
3768 2 -1.200000000000 104.127130383969 24.492447938089 19.680427301001
3769 1 2.400000000000 107.983690768560 0.000000000000 0.000000000000
3770 1 2.400000000000 109.911970960856 1.113293088095 3.148868368160
3771 1 2.400000000000 106.055410576264 1.113293088095 3.148868368160
3772 1 2.400000000000 107.983690768560 24.492447938089 3.148868368160
3773 2 -1.200000000000 107.983690768560 0.000000000000 2.361651276120
3774 2 -1.200000000000 107.983690768560 2.226586176190 3.936085460200
3775 2 -1.200000000000 109.911970960856 25.605741026184 3.936085460200
3776 2 -1.200000000000 109.911970960856 1.113293088095 5.510519644280
3777 2 -1.200000000000 106.055410576264 25.605741026184 3.936085460200
3778 2 -1.200000000000 106.055410576264 1.113293088095 5.510519644280
3779 2 -1.200000000000 107.983690768560 24.492447938089 5.510519644280
3780 2 -1.200000000000 107.983690768560 0.000000000000 7.084953828360
3781 1 2.400000000000 107.983690768560 4.453172352380 3.148868368160
3782 1 2.400000000000 109.911970960856 5.566465440475 6.297736736320
3783 1 2.400000000000 106.055410576264 5.566465440475 6.297736736320
3784 1 2.400000000000 107.983690768560 2.226586176190 6.297736736320
3785 2 -1.200000000000 107.983690768560 4.453172352380 5.510519644280
3786 2 -1.200000000000 107.983690768560 6.679758528570 7.084953828360
3787 2 -1.200000000000 109.911970960856 3.339879264285 7.084953828360
3788 2 -1.200000000000 109.911970960856 5.566465440475 8.659388012441
3789 2 -1.200000000000 106.055410576264 3.339879264285 7.084953828360
3790 2 -1.200000000000 106.055410576264 5.566465440475 8.659388012441
3791 2 -1.200000000000 107.983690768560 2.226586176190 8.659388012441
3792 2 -1.200000000000 107.983690768560 4.453172352380 10.233822196521
3793 1 2.400000000000 107.983690768560 8.906344704760 6.297736736320
3794 1 2.400000000000 109.911970960856 10.019637792855 9.446605104481
3795 1 2.400000000000 106.055410576264 10.019637792855 9.446605104481
3796 1 2.400000000000 107.983690768560 6.679758528570 9.446605104481
3797 2 -1.200000000000 107.983690768560 8.906344704760 8.659388012441
3798 2 -1.200000000000 107.983690768560 11.132930880950 10.233822196521
3799 2 -1.200000000000 109.911970960856 7.793051616665 10.233822196521
3800 2 -1.200000000000 109.911970960856 10.019637792855 11.808256380601
3801 2 -1.200000000000 106.055410576264 7.793051616665 10.233822196521
3802 2 -1.200000000000 106.055410576264 10.019637792855 11.808256380601
3803 2 -1.200000000000 107.983690768560 6.679758528570 11.808256380601
3804 2 -1.200000000000 107.983690768560 8.906344704760 13.382690564681
3805 1 2.400000000000 107.983690768560 13.359517057139 9.446605104481
3806 1 2.400000000000 109.911970960856 14.472810145234 12.595473472641
3807 1 2.400000000000 106.055410576264 14.472810145234 12.595473472641
3808 1 2.400000000000 107.983690768560 11.132930880950 12.595473472641
3809 2 -1.200000000000 107.983690768560 13.359517057139 11.808256380601
3810 2 -1.200000000000 107.983690768560 15.586103233329 13.382690564681
3811 2 -1.200000000000 109.911970960856 12.246223969044 13.382690564681
3812 2 -1.200000000000 109.911970960856 14.472810145234 14.957124748761
3813 2 -1.200000000000 106.055410576264 12.246223969044 13.382690564681
3814 2 -1.200000000000 106.055410576264 14.472810145234 14.957124748761
3815 2 -1.200000000000 107.983690768560 11.132930880950 14.957124748761
3816 2 -1.200000000000 107.983690768560 13.359517057139 16.531558932841
3817 1 2.400000000000 107.983690768560 17.812689409519 12.595473472641
3818 1 2.400000000000 109.911970960856 18.925982497614 15.744341840801
3819 1 2.400000000000 106.055410576264 18.925982497614 15.744341840801
3820 1 2.400000000000 107.983690768560 15.586103233329 15.744341840801
3821 2 -1.200000000000 107.983690768560 17.812689409519 14.957124748761
3822 2 -1.200000000000 107.983690768560 20.039275585709 16.531558932841
3823 2 -1.200000000000 109.911970960856 16.699396321424 16.531558932841
3824 2 -1.200000000000 109.911970960856 18.925982497614 18.105993116921
3825 2 -1.200000000000 106.055410576264 16.699396321424 16.531558932841
3826 2 -1.200000000000 106.055410576264 18.925982497614 18.105993116921
3827 2 -1.200000000000 107.983690768560 15.586103233329 18.105993116921
3828 2 -1.200000000000 107.983690768560 17.812689409519 19.680427301001
3829 1 2.400000000000 107.983690768560 22.265861761899 15.744341840801
3830 1 2.400000000000 109.911970960856 23.379154849994 18.893210208961
3831 1 2.400000000000 106.055410576264 23.379154849994 18.893210208961
3832 1 2.400000000000 107.983690768560 20.039275585709 18.893210208961
3833 2 -1.200000000000 107.983690768560 22.265861761899 18.105993116921
3834 2 -1.200000000000 107.983690768560 24.492447938089 19.680427301001
3835 2 -1.200000000000 109.911970960856 21.152568673804 19.680427301001
3836 2 -1.200000000000 109.911970960856 23.379154849994 21.254861485081
3837 2 -1.200000000000 106.055410576264 21.152568673804 19.680427301001
3838 2 -1.200000000000 106.055410576264 23.379154849994 21.254861485081
3839 2 -1.200000000000 107.983690768560 20.039275585709 21.254861485081
3840 2 -1.200000000000 107.983690768560 22.265861761899 22.829295669162
3841 1 2.400000000000 111.840251153151 2.226586176190 6.297736736320
3842 1 2.400000000000 113.768531345447 3.339879264285 9.446605104481
3843 1 2.400000000000 109.911970960856 3.339879264285 9.446605104481
3844 1 2.400000000000 111.840251153151 0.000000000000 9.446605104481
3845 2 -1.200000000000 111.840251153151 2.226586176190 8.659388012441
3846 2 -1.200000000000 111.840251153151 4.453172352380 10.233822196521
3847 2 -1.200000000000 113.768531345447 1.113293088095 10.233822196521
3848 2 -1.200000000000 113.768531345447 3.339879264285 11.808256380601
3849 2 -1.200000000000 109.911970960856 1.113293088095 10.233822196521
3850 2 -1.200000000000 109.911970960856 3.339879264285 11.808256380601
3851 2 -1.200000000000 111.840251153151 0.000000000000 11.808256380601
3852 2 -1.200000000000 111.840251153151 2.226586176190 13.382690564681
3853 1 2.400000000000 111.840251153151 6.679758528570 9.446605104481
3854 1 2.400000000000 113.768531345447 7.793051616665 12.595473472641
3855 1 2.400000000000 109.911970960856 7.793051616665 12.595473472641
3856 1 2.400000000000 111.840251153151 4.453172352380 12.595473472641
3857 2 -1.200000000000 111.840251153151 6.679758528570 11.808256380601
3858 2 -1.200000000000 111.840251153151 8.906344704760 13.382690564681
3859 2 -1.200000000000 113.768531345447 5.566465440475 13.382690564681
3860 2 -1.200000000000 113.768531345447 7.793051616665 14.957124748761
3861 2 -1.200000000000 109.911970960856 5.566465440475 13.382690564681
3862 2 -1.200000000000 109.911970960856 7.793051616665 14.957124748761
3863 2 -1.200000000000 111.840251153151 4.453172352380 14.957124748761
3864 2 -1.200000000000 111.840251153151 6.679758528570 16.531558932841
3865 1 2.400000000000 111.840251153151 11.132930880950 12.595473472641
3866 1 2.400000000000 113.768531345447 12.246223969045 15.744341840801
3867 1 2.400000000000 109.911970960856 12.246223969044 15.744341840801
3868 1 2.400000000000 111.840251153151 8.906344704760 15.744341840801
3869 2 -1.200000000000 111.840251153151 11.132930880950 14.957124748761
3870 2 -1.200000000000 111.840251153151 13.359517057139 16.531558932841
3871 2 -1.200000000000 113.768531345447 10.019637792855 16.531558932841
3872 2 -1.200000000000 113.768531345447 12.246223969044 18.105993116921
3873 2 -1.200000000000 109.911970960856 10.019637792855 16.531558932841
3874 2 -1.200000000000 109.911970960856 12.246223969044 18.105993116921
3875 2 -1.200000000000 111.840251153151 8.906344704760 18.105993116921
3876 2 -1.200000000000 111.840251153151 11.132930880950 19.680427301001
3877 1 2.400000000000 111.840251153151 15.586103233329 15.744341840801
3878 1 2.400000000000 113.768531345447 16.699396321424 18.893210208961
3879 1 2.400000000000 109.911970960856 16.699396321424 18.893210208961
3880 1 2.400000000000 111.840251153151 13.359517057139 18.893210208961
3881 2 -1.200000000000 111.840251153151 15.586103233329 18.105993116921
3882 2 -1.200000000000 111.840251153151 17.812689409519 19.680427301001
3883 2 -1.200000000000 113.768531345447 14.472810145234 19.680427301001
3884 2 -1.200000000000 113.768531345447 16.699396321424 21.254861485081
3885 2 -1.200000000000 109.911970960856 14.472810145234 19.680427301001
3886 2 -1.200000000000 109.911970960856 16.699396321424 21.254861485081
3887 2 -1.200000000000 111.840251153151 13.359517057139 21.254861485081
3888 2 -1.200000000000 111.840251153151 15.586103233329 22.829295669162
3889 1 2.400000000000 111.840251153151 20.039275585709 18.893210208961
3890 1 2.400000000000 113.768531345447 21.152568673804 22.042078577122
3891 1 2.400000000000 109.911970960856 21.152568673804 22.042078577122
3892 1 2.400000000000 111.840251153151 17.812689409519 22.042078577122
3893 2 -1.200000000000 111.840251153151 20.039275585709 21.254861485081
3894 2 -1.200000000000 111.840251153151 22.265861761899 22.829295669162
3895 2 -1.200000000000 113.768531345447 18.925982497614 22.829295669162
3896 2 -1.200000000000 113.768531345447 21.152568673804 24.403729853242
3897 2 -1.200000000000 109.911970960856 18.925982497614 22.829295669162
3898 2 -1.200000000000 109.911970960856 21.152568673804 24.403729853242
3899 2 -1.200000000000 111.840251153151 17.812689409519 24.403729853242
3900 2 -1.200000000000 111.840251153151 20.039275585709 25.978164037322
3901 1 2.400000000000 111.840251153151 24.492447938089 22.042078577122
3902 1 2.400000000000 113.768531345447 25.605741026184 25.190946945282
3903 1 2.400000000000 109.911970960856 25.605741026184 25.190946945282
3904 1 2.400000000000 111.840251153151 22.265861761899 25.190946945282
3905 2 -1.200000000000 111.840251153151 24.492447938089 24.403729853242
3906 2 -1.200000000000 111.840251153151 0.000000000000 25.978164037322
3907 2 -1.200000000000 113.768531345447 23.379154849994 25.978164037322
3908 2 -1.200000000000 113.768531345447 25.605741026184 27.552598221402
3909 2 -1.200000000000 109.911970960856 23.379154849994 25.978164037322
3910 2 -1.200000000000 109.911970960856 25.605741026184 27.552598221402
3911 2 -1.200000000000 111.840251153151 22.265861761899 27.552598221402
3912 2 -1.200000000000 111.840251153151 24.492447938089 0.787217092040
3913 1 2.400000000000 115.696811537743 0.000000000000 9.446605104481
3914 1 2.400000000000 117.625091730039 1.113293088095 12.595473472641
3915 1 2.400000000000 113.768531345447 1.113293088095 12.595473472641
3916 1 2.400000000000 115.696811537743 24.492447938089 12.595473472641
3917 2 -1.200000000000 115.696811537743 0.000000000000 11.808256380601
3918 2 -1.200000000000 115.696811537743 2.226586176190 13.382690564681
3919 2 -1.200000000000 117.625091730039 25.605741026184 13.382690564681
3920 2 -1.200000000000 117.625091730039 1.113293088095 14.957124748761
3921 2 -1.200000000000 113.768531345447 25.605741026184 13.382690564681
3922 2 -1.200000000000 113.768531345447 1.113293088095 14.957124748761
3923 2 -1.200000000000 115.696811537743 24.492447938089 14.957124748761
3924 2 -1.200000000000 115.696811537743 0.000000000000 16.531558932841
3925 1 2.400000000000 115.696811537743 4.453172352380 12.595473472641
3926 1 2.400000000000 117.625091730039 5.566465440475 15.744341840801
3927 1 2.400000000000 113.768531345447 5.566465440475 15.744341840801
3928 1 2.400000000000 115.696811537743 2.226586176190 15.744341840801
3929 2 -1.200000000000 115.696811537743 4.453172352380 14.957124748761
3930 2 -1.200000000000 115.696811537743 6.679758528570 16.531558932841
3931 2 -1.200000000000 117.625091730039 3.339879264285 16.531558932841
3932 2 -1.200000000000 117.625091730039 5.566465440475 18.105993116921
3933 2 -1.200000000000 113.768531345447 3.339879264285 16.531558932841
3934 2 -1.200000000000 113.768531345447 5.566465440475 18.105993116921
3935 2 -1.200000000000 115.696811537743 2.226586176190 18.105993116921
3936 2 -1.200000000000 115.696811537743 4.453172352380 19.680427301001
3937 1 2.400000000000 115.696811537743 8.906344704760 15.744341840801
3938 1 2.400000000000 117.625091730039 10.019637792855 18.893210208961
3939 1 2.400000000000 113.768531345447 10.019637792855 18.893210208961
3940 1 2.400000000000 115.696811537743 6.679758528570 18.893210208961
3941 2 -1.200000000000 115.696811537743 8.906344704760 18.105993116921
3942 2 -1.200000000000 115.696811537743 11.132930880950 19.680427301001
3943 2 -1.200000000000 117.625091730039 7.793051616665 19.680427301001
3944 2 -1.200000000000 117.625091730039 10.019637792855 21.254861485081
3945 2 -1.200000000000 113.768531345447 7.793051616665 19.680427301001
3946 2 -1.200000000000 113.768531345447 10.019637792855 21.254861485081
3947 2 -1.200000000000 115.696811537743 6.679758528570 21.254861485081
3948 2 -1.200000000000 115.696811537743 8.906344704760 22.829295669162
3949 1 2.400000000000 115.696811537743 13.359517057139 18.893210208961
3950 1 2.400000000000 117.625091730039 14.472810145234 22.042078577122
3951 1 2.400000000000 113.768531345447 14.472810145234 22.042078577122
3952 1 2.400000000000 115.696811537743 11.132930880950 22.042078577122
3953 2 -1.200000000000 115.696811537743 13.359517057139 21.254861485081
3954 2 -1.200000000000 115.696811537743 15.586103233329 22.829295669162
3955 2 -1.200000000000 117.625091730039 12.246223969044 22.829295669162
3956 2 -1.200000000000 117.625091730039 14.472810145234 24.403729853242
3957 2 -1.200000000000 113.768531345447 12.246223969044 22.829295669162
3958 2 -1.200000000000 113.768531345447 14.472810145234 24.403729853242
3959 2 -1.200000000000 115.696811537743 11.132930880950 24.403729853242
3960 2 -1.200000000000 115.696811537743 13.359517057139 25.978164037322
3961 1 2.400000000000 115.696811537743 17.812689409519 22.042078577122
3962 1 2.400000000000 117.625091730039 18.925982497614 25.190946945282
3963 1 2.400000000000 113.768531345447 18.925982497614 25.190946945282
3964 1 2.400000000000 115.696811537743 15.586103233329 25.190946945282
3965 2 -1.200000000000 115.696811537743 17.812689409519 24.403729853242
3966 2 -1.200000000000 115.696811537743 20.039275585709 25.978164037322
3967 2 -1.200000000000 117.625091730039 16.699396321424 25.978164037322
3968 2 -1.200000000000 117.625091730039 18.925982497614 27.552598221402
3969 2 -1.200000000000 113.768531345447 16.699396321424 25.978164037322
3970 2 -1.200000000000 113.768531345447 18.925982497614 27.552598221402
3971 2 -1.200000000000 115.696811537743 15.586103233329 27.552598221402
3972 2 -1.200000000000 115.696811537743 17.812689409519 0.787217092040
3973 1 2.400000000000 115.696811537743 22.265861761899 25.190946945282
3974 1 2.400000000000 117.625091730039 23.379154849994 0.000000000000
3975 1 2.400000000000 113.768531345447 23.379154849994 0.000000000000
3976 1 2.400000000000 115.696811537743 20.039275585709 0.000000000000
3977 2 -1.200000000000 115.696811537743 22.265861761899 27.552598221402
3978 2 -1.200000000000 115.696811537743 24.492447938089 0.787217092040
3979 2 -1.200000000000 117.625091730039 21.152568673804 0.787217092040
3980 2 -1.200000000000 117.625091730039 23.379154849994 2.361651276120
3981 2 -1.200000000000 113.768531345447 21.152568673804 0.787217092040
3982 2 -1.200000000000 113.768531345447 23.379154849994 2.361651276120
3983 2 -1.200000000000 115.696811537743 20.039275585709 2.361651276120
3984 2 -1.200000000000 115.696811537743 22.265861761899 3.936085460200
3985 1 2.400000000000 119.553371922334 2.226586176190 15.744341840801
3986 1 2.400000000000 121.481652114630 3.339879264285 18.893210208961
3987 1 2.400000000000 117.625091730039 3.339879264285 18.893210208961
3988 1 2.400000000000 119.553371922334 0.000000000000 18.893210208961
3989 2 -1.200000000000 119.553371922334 2.226586176190 18.105993116921
3990 2 -1.200000000000 119.553371922334 4.453172352380 19.680427301001
3991 2 -1.200000000000 121.481652114630 1.113293088095 19.680427301001
3992 2 -1.200000000000 121.481652114630 3.339879264285 21.254861485081
3993 2 -1.200000000000 117.625091730039 1.113293088095 19.680427301001
3994 2 -1.200000000000 117.625091730039 3.339879264285 21.254861485081
3995 2 -1.200000000000 119.553371922334 0.000000000000 21.254861485081
3996 2 -1.200000000000 119.553371922334 2.226586176190 22.829295669162
3997 1 2.400000000000 119.553371922334 6.679758528570 18.893210208961
3998 1 2.400000000000 121.481652114630 7.793051616665 22.042078577122
3999 1 2.400000000000 117.625091730039 7.793051616665 22.042078577122
4000 1 2.400000000000 119.553371922334 4.453172352380 22.042078577122
4001 2 -1.200000000000 119.553371922334 6.679758528570 21.254861485081
4002 2 -1.200000000000 119.553371922334 8.906344704760 22.829295669162
4003 2 -1.200000000000 121.481652114630 5.566465440475 22.829295669162
4004 2 -1.200000000000 121.481652114630 7.793051616665 24.403729853242
4005 2 -1.200000000000 117.625091730039 5.566465440475 22.829295669162
4006 2 -1.200000000000 117.625091730039 7.793051616665 24.403729853242
4007 2 -1.200000000000 119.553371922334 4.453172352380 24.403729853242
4008 2 -1.200000000000 119.553371922334 6.679758528570 25.978164037322
4009 1 2.400000000000 119.553371922334 11.132930880950 22.042078577122
4010 1 2.400000000000 121.481652114630 12.246223969045 25.190946945282
4011 1 2.400000000000 117.625091730039 12.246223969044 25.190946945282
4012 1 2.400000000000 119.553371922334 8.906344704760 25.190946945282
4013 2 -1.200000000000 119.553371922334 11.132930880950 24.403729853242
4014 2 -1.200000000000 119.553371922334 13.359517057139 25.978164037322
4015 2 -1.200000000000 121.481652114630 10.019637792855 25.978164037322
4016 2 -1.200000000000 121.481652114630 12.246223969044 27.552598221402
4017 2 -1.200000000000 117.625091730039 10.019637792855 25.978164037322
4018 2 -1.200000000000 117.625091730039 12.246223969044 27.552598221402
4019 2 -1.200000000000 119.553371922334 8.906344704760 27.552598221402
4020 2 -1.200000000000 119.553371922334 11.132930880950 0.787217092040
4021 1 2.400000000000 119.553371922334 15.586103233329 25.190946945282
4022 1 2.400000000000 121.481652114630 16.699396321424 0.000000000000
4023 1 2.400000000000 117.625091730039 16.699396321424 0.000000000000
4024 1 2.400000000000 119.553371922334 13.359517057139 0.000000000000
4025 2 -1.200000000000 119.553371922334 15.586103233329 27.552598221402
4026 2 -1.200000000000 119.553371922334 17.812689409519 0.787217092040
4027 2 -1.200000000000 121.481652114630 14.472810145234 0.787217092040
4028 2 -1.200000000000 121.481652114630 16.699396321424 2.361651276120
4029 2 -1.200000000000 117.625091730039 14.472810145234 0.787217092040
4030 2 -1.200000000000 117.625091730039 16.699396321424 2.361651276120
4031 2 -1.200000000000 119.553371922334 13.359517057139 2.361651276120
4032 2 -1.200000000000 119.553371922334 15.586103233329 3.936085460200
4033 1 2.400000000000 88.700888845603 20.039275585709 0.000000000000
4034 1 2.400000000000 90.629169037899 21.152568673804 3.148868368160
4035 1 2.400000000000 86.772608653307 21.152568673804 3.148868368160
4036 1 2.400000000000 88.700888845603 17.812689409519 3.148868368160
4037 2 -1.200000000000 88.700888845603 20.039275585709 2.361651276120
4038 2 -1.200000000000 88.700888845603 22.265861761899 3.936085460200
4039 2 -1.200000000000 90.629169037899 18.925982497614 3.936085460200
4040 2 -1.200000000000 90.629169037899 21.152568673804 5.510519644280
4041 2 -1.200000000000 86.772608653307 18.925982497614 3.936085460200
4042 2 -1.200000000000 86.772608653307 21.152568673804 5.510519644280
4043 2 -1.200000000000 88.700888845603 17.812689409519 5.510519644280
4044 2 -1.200000000000 88.700888845603 20.039275585709 7.084953828360
4045 1 2.400000000000 88.700888845603 24.492447938089 3.148868368160
4046 1 2.400000000000 90.629169037899 25.605741026184 6.297736736320
4047 1 2.400000000000 86.772608653307 25.605741026184 6.297736736320
4048 1 2.400000000000 88.700888845603 22.265861761899 6.297736736320
4049 2 -1.200000000000 88.700888845603 24.492447938089 5.510519644280
4050 2 -1.200000000000 88.700888845603 0.000000000000 7.084953828360
4051 2 -1.200000000000 90.629169037899 23.379154849994 7.084953828360
4052 2 -1.200000000000 90.629169037899 25.605741026184 8.659388012441
4053 2 -1.200000000000 86.772608653307 23.379154849994 7.084953828360
4054 2 -1.200000000000 86.772608653307 25.605741026184 8.659388012441
4055 2 -1.200000000000 88.700888845603 22.265861761899 8.659388012441
4056 2 -1.200000000000 88.700888845603 24.492447938089 10.233822196521
4057 1 2.400000000000 92.557449230194 13.359517057139 0.000000000000
4058 1 2.400000000000 94.485729422490 14.472810145234 3.148868368160
4059 1 2.400000000000 90.629169037899 14.472810145234 3.148868368160
4060 1 2.400000000000 92.557449230194 11.132930880950 3.148868368160
4061 2 -1.200000000000 92.557449230194 13.359517057139 2.361651276120
4062 2 -1.200000000000 92.557449230194 15.586103233329 3.936085460200
4063 2 -1.200000000000 94.485729422490 12.246223969045 3.936085460200
4064 2 -1.200000000000 94.485729422490 14.472810145234 5.510519644280
4065 2 -1.200000000000 90.629169037899 12.246223969045 3.936085460200
4066 2 -1.200000000000 90.629169037899 14.472810145234 5.510519644280
4067 2 -1.200000000000 92.557449230194 11.132930880950 5.510519644280
4068 2 -1.200000000000 92.557449230194 13.359517057139 7.084953828360
4069 1 2.400000000000 92.557449230194 17.812689409519 3.148868368160
4070 1 2.400000000000 94.485729422490 18.925982497614 6.297736736320
4071 1 2.400000000000 90.629169037899 18.925982497614 6.297736736320
4072 1 2.400000000000 92.557449230194 15.586103233329 6.297736736320
4073 2 -1.200000000000 92.557449230194 17.812689409519 5.510519644280
4074 2 -1.200000000000 92.557449230194 20.039275585709 7.084953828360
4075 2 -1.200000000000 94.485729422490 16.699396321424 7.084953828360
4076 2 -1.200000000000 94.485729422490 18.925982497614 8.659388012441
4077 2 -1.200000000000 90.629169037899 16.699396321424 7.084953828360
4078 2 -1.200000000000 90.629169037899 18.925982497614 8.659388012441
4079 2 -1.200000000000 92.557449230194 15.586103233329 8.659388012441
4080 2 -1.200000000000 92.557449230194 17.812689409519 10.233822196521
4081 1 2.400000000000 92.557449230194 22.265861761899 6.297736736320
4082 1 2.400000000000 94.485729422490 23.379154849994 9.446605104481
4083 1 2.400000000000 90.629169037899 23.379154849994 9.446605104481
4084 1 2.400000000000 92.557449230194 20.039275585709 9.446605104481
4085 2 -1.200000000000 92.557449230194 22.265861761899 8.659388012441
4086 2 -1.200000000000 92.557449230194 24.492447938089 10.233822196521
4087 2 -1.200000000000 94.485729422490 21.152568673804 10.233822196521
4088 2 -1.200000000000 94.485729422490 23.379154849994 11.808256380601
4089 2 -1.200000000000 90.629169037899 21.152568673804 10.233822196521
4090 2 -1.200000000000 90.629169037899 23.379154849994 11.808256380601
4091 2 -1.200000000000 92.557449230194 20.039275585709 11.808256380601
4092 2 -1.200000000000 92.557449230194 22.265861761899 13.382690564681
4093 1 2.400000000000 96.414009614786 6.679758528570 0.000000000000
4094 1 2.400000000000 98.342289807081 7.793051616665 3.148868368160
4095 1 2.400000000000 94.485729422490 7.793051616665 3.148868368160
4096 1 2.400000000000 96.414009614786 4.453172352380 3.148868368160
4097 2 -1.200000000000 96.414009614786 6.679758528570 2.361651276120
4098 2 -1.200000000000 96.414009614786 8.906344704760 3.936085460200
4099 2 -1.200000000000 98.342289807081 5.566465440475 3.936085460200
4100 2 -1.200000000000 98.342289807081 7.793051616665 5.510519644280
4101 2 -1.200000000000 94.485729422490 5.566465440475 3.936085460200
4102 2 -1.200000000000 94.485729422490 7.793051616665 5.510519644280
4103 2 -1.200000000000 96.414009614786 4.453172352380 5.510519644280
4104 2 -1.200000000000 96.414009614786 6.679758528570 7.084953828360
4105 1 2.400000000000 96.414009614786 11.132930880950 3.148868368160
4106 1 2.400000000000 98.342289807081 12.246223969045 6.297736736320
4107 1 2.400000000000 94.485729422490 12.246223969045 6.297736736320
4108 1 2.400000000000 96.414009614786 8.906344704760 6.297736736320
4109 2 -1.200000000000 96.414009614786 11.132930880950 5.510519644280
4110 2 -1.200000000000 96.414009614786 13.359517057139 7.084953828360
4111 2 -1.200000000000 98.342289807081 10.019637792855 7.084953828360
4112 2 -1.200000000000 98.342289807081 12.246223969045 8.659388012441
4113 2 -1.200000000000 94.485729422490 10.019637792855 7.084953828360
4114 2 -1.200000000000 94.485729422490 12.246223969045 8.659388012441
4115 2 -1.200000000000 96.414009614786 8.906344704760 8.659388012441
4116 2 -1.200000000000 96.414009614786 11.132930880950 10.233822196521
4117 1 2.400000000000 96.414009614786 15.586103233329 6.297736736320
4118 1 2.400000000000 98.342289807081 16.699396321424 9.446605104481
4119 1 2.400000000000 94.485729422490 16.699396321424 9.446605104481
4120 1 2.400000000000 96.414009614786 13.359517057139 9.446605104481
4121 2 -1.200000000000 96.414009614786 15.586103233329 8.659388012441
4122 2 -1.200000000000 96.414009614786 17.812689409519 10.233822196521
4123 2 -1.200000000000 98.342289807081 14.472810145234 10.233822196521
4124 2 -1.200000000000 98.342289807081 16.699396321424 11.808256380601
4125 2 -1.200000000000 94.485729422490 14.472810145234 10.233822196521
4126 2 -1.200000000000 94.485729422490 16.699396321424 11.808256380601
4127 2 -1.200000000000 96.414009614786 13.359517057139 11.808256380601
4128 2 -1.200000000000 96.414009614786 15.586103233329 13.382690564681
4129 1 2.400000000000 96.414009614786 20.039275585709 9.446605104481
4130 1 2.400000000000 98.342289807081 21.152568673804 12.595473472641
4131 1 2.400000000000 94.485729422490 21.152568673804 12.595473472641
4132 1 2.400000000000 96.414009614786 17.812689409519 12.595473472641
4133 2 -1.200000000000 96.414009614786 20.039275585709 11.808256380601
4134 2 -1.200000000000 96.414009614786 22.265861761899 13.382690564681
4135 2 -1.200000000000 98.342289807081 18.925982497614 13.382690564681
4136 2 -1.200000000000 98.342289807081 21.152568673804 14.957124748761
4137 2 -1.200000000000 94.485729422490 18.925982497614 13.382690564681
4138 2 -1.200000000000 94.485729422490 21.152568673804 14.957124748761
4139 2 -1.200000000000 96.414009614786 17.812689409519 14.957124748761
4140 2 -1.200000000000 96.414009614786 20.039275585709 16.531558932841
4141 1 2.400000000000 96.414009614786 24.492447938089 12.595473472641
4142 1 2.400000000000 98.342289807081 25.605741026184 15.744341840801
4143 1 2.400000000000 94.485729422490 25.605741026184 15.744341840801
4144 1 2.400000000000 96.414009614786 22.265861761899 15.744341840801
4145 2 -1.200000000000 96.414009614786 24.492447938089 14.957124748761
4146 2 -1.200000000000 96.414009614786 0.000000000000 16.531558932841
4147 2 -1.200000000000 98.342289807081 23.379154849994 16.531558932841
4148 2 -1.200000000000 98.342289807081 25.605741026184 18.105993116921
4149 2 -1.200000000000 94.485729422490 23.379154849994 16.531558932841
4150 2 -1.200000000000 94.485729422490 25.605741026184 18.105993116921
4151 2 -1.200000000000 96.414009614786 22.265861761899 18.105993116921
4152 2 -1.200000000000 96.414009614786 24.492447938089 19.680427301001
4153 1 2.400000000000 100.270569999377 0.000000000000 0.000000000000
4154 1 2.400000000000 102.198850191673 1.113293088095 3.148868368160
4155 1 2.400000000000 98.342289807081 1.113293088095 3.148868368160
4156 1 2.400000000000 100.270569999377 24.492447938089 3.148868368160
4157 2 -1.200000000000 100.270569999377 0.000000000000 2.361651276120
4158 2 -1.200000000000 100.270569999377 2.226586176190 3.936085460200
4159 2 -1.200000000000 102.198850191673 25.605741026184 3.936085460200
4160 2 -1.200000000000 102.198850191673 1.113293088095 5.510519644280
4161 2 -1.200000000000 98.342289807081 25.605741026184 3.936085460200
4162 2 -1.200000000000 98.342289807081 1.113293088095 5.510519644280
4163 2 -1.200000000000 100.270569999377 24.492447938089 5.510519644280
4164 2 -1.200000000000 100.270569999377 0.000000000000 7.084953828360
4165 1 2.400000000000 100.270569999377 4.453172352380 3.148868368160
4166 1 2.400000000000 102.198850191673 5.566465440475 6.297736736320
4167 1 2.400000000000 98.342289807081 5.566465440475 6.297736736320
4168 1 2.400000000000 100.270569999377 2.226586176190 6.297736736320
4169 2 -1.200000000000 100.270569999377 4.453172352380 5.510519644280
4170 2 -1.200000000000 100.270569999377 6.679758528570 7.084953828360
4171 2 -1.200000000000 102.198850191673 3.339879264285 7.084953828360
4172 2 -1.200000000000 102.198850191673 5.566465440475 8.659388012441
4173 2 -1.200000000000 98.342289807081 3.339879264285 7.084953828360
4174 2 -1.200000000000 98.342289807081 5.566465440475 8.659388012441
4175 2 -1.200000000000 100.270569999377 2.226586176190 8.659388012441
4176 2 -1.200000000000 100.270569999377 4.453172352380 10.233822196521
4177 1 2.400000000000 100.270569999377 8.906344704760 6.297736736320
4178 1 2.400000000000 102.198850191673 10.019637792855 9.446605104481
4179 1 2.400000000000 98.342289807081 10.019637792855 9.446605104481
4180 1 2.400000000000 100.270569999377 6.679758528570 9.446605104481
4181 2 -1.200000000000 100.270569999377 8.906344704760 8.659388012441
4182 2 -1.200000000000 100.270569999377 11.132930880950 10.233822196521
4183 2 -1.200000000000 102.198850191673 7.793051616665 10.233822196521
4184 2 -1.200000000000 102.198850191673 10.019637792855 11.808256380601
4185 2 -1.200000000000 98.342289807081 7.793051616665 10.233822196521
4186 2 -1.200000000000 98.342289807081 10.019637792855 11.808256380601
4187 2 -1.200000000000 100.270569999377 6.679758528570 11.808256380601
4188 2 -1.200000000000 100.270569999377 8.906344704760 13.382690564681
4189 1 2.400000000000 100.270569999377 13.359517057139 9.446605104481
4190 1 2.400000000000 102.198850191673 14.472810145234 12.595473472641
4191 1 2.400000000000 98.342289807081 14.472810145234 12.595473472641
4192 1 2.400000000000 100.270569999377 11.132930880950 12.595473472641
4193 2 -1.200000000000 100.270569999377 13.359517057139 11.808256380601
4194 2 -1.200000000000 100.270569999377 15.586103233329 13.382690564681
4195 2 -1.200000000000 102.198850191673 12.246223969045 13.382690564681
4196 2 -1.200000000000 102.198850191673 14.472810145234 14.957124748761
4197 2 -1.200000000000 98.342289807081 12.246223969044 13.382690564681
4198 2 -1.200000000000 98.342289807081 14.472810145234 14.957124748761
4199 2 -1.200000000000 100.270569999377 11.132930880950 14.957124748761
4200 2 -1.200000000000 100.270569999377 13.359517057139 16.531558932841
4201 1 2.400000000000 100.270569999377 17.812689409519 12.595473472641
4202 1 2.400000000000 102.198850191673 18.925982497614 15.744341840801
4203 1 2.400000000000 98.342289807081 18.925982497614 15.744341840801
4204 1 2.400000000000 100.270569999377 15.586103233329 15.744341840801
4205 2 -1.200000000000 100.270569999377 17.812689409519 14.957124748761
4206 2 -1.200000000000 100.270569999377 20.039275585709 16.531558932841
4207 2 -1.200000000000 102.198850191673 16.699396321424 16.531558932841
4208 2 -1.200000000000 102.198850191673 18.925982497614 18.105993116921
4209 2 -1.200000000000 98.342289807081 16.699396321424 16.531558932841
4210 2 -1.200000000000 98.342289807081 18.925982497614 18.105993116921
4211 2 -1.200000000000 100.270569999377 15.586103233329 18.105993116921
4212 2 -1.200000000000 100.270569999377 17.812689409519 19.680427301001
4213 1 2.400000000000 100.270569999377 22.265861761899 15.744341840801
4214 1 2.400000000000 102.198850191673 23.379154849994 18.893210208961
4215 1 2.400000000000 98.342289807081 23.379154849994 18.893210208961
4216 1 2.400000000000 100.270569999377 20.039275585709 18.893210208961
4217 2 -1.200000000000 100.270569999377 22.265861761899 18.105993116921
4218 2 -1.200000000000 100.270569999377 24.492447938089 19.680427301001
4219 2 -1.200000000000 102.198850191673 21.152568673804 19.680427301001
4220 2 -1.200000000000 102.198850191673 23.379154849994 21.254861485081
4221 2 -1.200000000000 98.342289807081 21.152568673804 19.680427301001
4222 2 -1.200000000000 98.342289807081 23.379154849994 21.254861485081
4223 2 -1.200000000000 100.270569999377 20.039275585709 21.254861485081
4224 2 -1.200000000000 100.270569999377 22.265861761899 22.829295669162
4225 1 2.400000000000 104.127130383969 2.226586176190 6.297736736320
4226 1 2.400000000000 106.055410576264 3.339879264285 9.446605104481
4227 1 2.400000000000 102.198850191673 3.339879264285 9.446605104481
4228 1 2.400000000000 104.127130383969 0.000000000000 9.446605104481
4229 2 -1.200000000000 104.127130383969 2.226586176190 8.659388012441
4230 2 -1.200000000000 104.127130383969 4.453172352380 10.233822196521
4231 2 -1.200000000000 106.055410576264 1.113293088095 10.233822196521
4232 2 -1.200000000000 106.055410576264 3.339879264285 11.808256380601
4233 2 -1.200000000000 102.198850191673 1.113293088095 10.233822196521
4234 2 -1.200000000000 102.198850191673 3.339879264285 11.808256380601
4235 2 -1.200000000000 104.127130383969 0.000000000000 11.808256380601
4236 2 -1.200000000000 104.127130383969 2.226586176190 13.382690564681
4237 1 2.400000000000 104.127130383969 6.679758528570 9.446605104481
4238 1 2.400000000000 106.055410576264 7.793051616665 12.595473472641
4239 1 2.400000000000 102.198850191673 7.793051616665 12.595473472641
4240 1 2.400000000000 104.127130383969 4.453172352380 12.595473472641
4241 2 -1.200000000000 104.127130383969 6.679758528570 11.808256380601
4242 2 -1.200000000000 104.127130383969 8.906344704760 13.382690564681
4243 2 -1.200000000000 106.055410576264 5.566465440475 13.382690564681
4244 2 -1.200000000000 106.055410576264 7.793051616665 14.957124748761
4245 2 -1.200000000000 102.198850191673 5.566465440475 13.382690564681
4246 2 -1.200000000000 102.198850191673 7.793051616665 14.957124748761
4247 2 -1.200000000000 104.127130383969 4.453172352380 14.957124748761
4248 2 -1.200000000000 104.127130383969 6.679758528570 16.531558932841
4249 1 2.400000000000 104.127130383969 11.132930880950 12.595473472641
4250 1 2.400000000000 106.055410576264 12.246223969045 15.744341840801
4251 1 2.400000000000 102.198850191673 12.246223969045 15.744341840801
4252 1 2.400000000000 104.127130383969 8.906344704760 15.744341840801
4253 2 -1.200000000000 104.127130383969 11.132930880950 14.957124748761
4254 2 -1.200000000000 104.127130383969 13.359517057139 16.531558932841
4255 2 -1.200000000000 106.055410576264 10.019637792855 16.531558932841
4256 2 -1.200000000000 106.055410576264 12.246223969045 18.105993116921
4257 2 -1.200000000000 102.198850191673 10.019637792855 16.531558932841
4258 2 -1.200000000000 102.198850191673 12.246223969044 18.105993116921
4259 2 -1.200000000000 104.127130383969 8.906344704760 18.105993116921
4260 2 -1.200000000000 104.127130383969 11.132930880950 19.680427301001
4261 1 2.400000000000 104.127130383969 15.586103233329 15.744341840801
4262 1 2.400000000000 106.055410576264 16.699396321424 18.893210208961
4263 1 2.400000000000 102.198850191673 16.699396321424 18.893210208961
4264 1 2.400000000000 104.127130383969 13.359517057139 18.893210208961
4265 2 -1.200000000000 104.127130383969 15.586103233329 18.105993116921
4266 2 -1.200000000000 104.127130383969 17.812689409519 19.680427301001
4267 2 -1.200000000000 106.055410576264 14.472810145234 19.680427301001
4268 2 -1.200000000000 106.055410576264 16.699396321424 21.254861485081
4269 2 -1.200000000000 102.198850191673 14.472810145234 19.680427301001
4270 2 -1.200000000000 102.198850191673 16.699396321424 21.254861485081
4271 2 -1.200000000000 104.127130383969 13.359517057139 21.254861485081
4272 2 -1.200000000000 104.127130383969 15.586103233329 22.829295669162
4273 1 2.400000000000 104.127130383969 20.039275585709 18.893210208961
4274 1 2.400000000000 106.055410576264 21.152568673804 22.042078577122
4275 1 2.400000000000 102.198850191673 21.152568673804 22.042078577122
4276 1 2.400000000000 104.127130383969 17.812689409519 22.042078577122
4277 2 -1.200000000000 104.127130383969 20.039275585709 21.254861485081
4278 2 -1.200000000000 104.127130383969 22.265861761899 22.829295669162
4279 2 -1.200000000000 106.055410576264 18.925982497614 22.829295669162
4280 2 -1.200000000000 106.055410576264 21.152568673804 24.403729853242
4281 2 -1.200000000000 102.198850191673 18.925982497614 22.829295669162
4282 2 -1.200000000000 102.198850191673 21.152568673804 24.403729853242
4283 2 -1.200000000000 104.127130383969 17.812689409519 24.403729853242
4284 2 -1.200000000000 104.127130383969 20.039275585709 25.978164037322
4285 1 2.400000000000 104.127130383969 24.492447938089 22.042078577122
4286 1 2.400000000000 106.055410576264 25.605741026184 25.190946945282
4287 1 2.400000000000 102.198850191673 25.605741026184 25.190946945282
4288 1 2.400000000000 104.127130383969 22.265861761899 25.190946945282
4289 2 -1.200000000000 104.127130383969 24.492447938089 24.403729853242
4290 2 -1.200000000000 104.127130383969 0.000000000000 25.978164037322
4291 2 -1.200000000000 106.055410576264 23.379154849994 25.978164037322
4292 2 -1.200000000000 106.055410576264 25.605741026184 27.552598221402
4293 2 -1.200000000000 102.198850191673 23.379154849994 25.978164037322
4294 2 -1.200000000000 102.198850191673 25.605741026184 27.552598221402
4295 2 -1.200000000000 104.127130383969 22.265861761899 27.552598221402
4296 2 -1.200000000000 104.127130383969 24.492447938089 0.787217092040
4297 1 2.400000000000 107.983690768560 0.000000000000 9.446605104481
4298 1 2.400000000000 109.911970960856 1.113293088095 12.595473472641
4299 1 2.400000000000 106.055410576264 1.113293088095 12.595473472641
4300 1 2.400000000000 107.983690768560 24.492447938089 12.595473472641
4301 2 -1.200000000000 107.983690768560 0.000000000000 11.808256380601
4302 2 -1.200000000000 107.983690768560 2.226586176190 13.382690564681
4303 2 -1.200000000000 109.911970960856 25.605741026184 13.382690564681
4304 2 -1.200000000000 109.911970960856 1.113293088095 14.957124748761
4305 2 -1.200000000000 106.055410576264 25.605741026184 13.382690564681
4306 2 -1.200000000000 106.055410576264 1.113293088095 14.957124748761
4307 2 -1.200000000000 107.983690768560 24.492447938089 14.957124748761
4308 2 -1.200000000000 107.983690768560 0.000000000000 16.531558932841
4309 1 2.400000000000 107.983690768560 4.453172352380 12.595473472641
4310 1 2.400000000000 109.911970960856 5.566465440475 15.744341840801
4311 1 2.400000000000 106.055410576264 5.566465440475 15.744341840801
4312 1 2.400000000000 107.983690768560 2.226586176190 15.744341840801
4313 2 -1.200000000000 107.983690768560 4.453172352380 14.957124748761
4314 2 -1.200000000000 107.983690768560 6.679758528570 16.531558932841
4315 2 -1.200000000000 109.911970960856 3.339879264285 16.531558932841
4316 2 -1.200000000000 109.911970960856 5.566465440475 18.105993116921
4317 2 -1.200000000000 106.055410576264 3.339879264285 16.531558932841
4318 2 -1.200000000000 106.055410576264 5.566465440475 18.105993116921
4319 2 -1.200000000000 107.983690768560 2.226586176190 18.105993116921
4320 2 -1.200000000000 107.983690768560 4.453172352380 19.680427301001
4321 1 2.400000000000 107.983690768560 8.906344704760 15.744341840801
4322 1 2.400000000000 109.911970960856 10.019637792855 18.893210208961
4323 1 2.400000000000 106.055410576264 10.019637792855 18.893210208961
4324 1 2.400000000000 107.983690768560 6.679758528570 18.893210208961
4325 2 -1.200000000000 107.983690768560 8.906344704760 18.105993116921
4326 2 -1.200000000000 107.983690768560 11.132930880950 19.680427301001
4327 2 -1.200000000000 109.911970960856 7.793051616665 19.680427301001
4328 2 -1.200000000000 109.911970960856 10.019637792855 21.254861485081
4329 2 -1.200000000000 106.055410576264 7.793051616665 19.680427301001
4330 2 -1.200000000000 106.055410576264 10.019637792855 21.254861485081
4331 2 -1.200000000000 107.983690768560 6.679758528570 21.254861485081
4332 2 -1.200000000000 107.983690768560 8.906344704760 22.829295669162
4333 1 2.400000000000 107.983690768560 13.359517057139 18.893210208961
4334 1 2.400000000000 109.911970960856 14.472810145234 22.042078577122
4335 1 2.400000000000 106.055410576264 14.472810145234 22.042078577122
4336 1 2.400000000000 107.983690768560 11.132930880950 22.042078577122
4337 2 -1.200000000000 107.983690768560 13.359517057139 21.254861485081
4338 2 -1.200000000000 107.983690768560 15.586103233329 22.829295669162
4339 2 -1.200000000000 109.911970960856 12.246223969045 22.829295669162
4340 2 -1.200000000000 109.911970960856 14.472810145234 24.403729853242
4341 2 -1.200000000000 106.055410576264 12.246223969044 22.829295669162
4342 2 -1.200000000000 106.055410576264 14.472810145234 24.403729853242
4343 2 -1.200000000000 107.983690768560 11.132930880950 24.403729853242
4344 2 -1.200000000000 107.983690768560 13.359517057139 25.978164037322
4345 1 2.400000000000 107.983690768560 17.812689409519 22.042078577122
4346 1 2.400000000000 109.911970960856 18.925982497614 25.190946945282
4347 1 2.400000000000 106.055410576264 18.925982497614 25.190946945282
4348 1 2.400000000000 107.983690768560 15.586103233329 25.190946945282
4349 2 -1.200000000000 107.983690768560 17.812689409519 24.403729853242
4350 2 -1.200000000000 107.983690768560 20.039275585709 25.978164037322
4351 2 -1.200000000000 109.911970960856 16.699396321424 25.978164037322
4352 2 -1.200000000000 109.911970960856 18.925982497614 27.552598221402
4353 2 -1.200000000000 106.055410576264 16.699396321424 25.978164037322
4354 2 -1.200000000000 106.055410576264 18.925982497614 27.552598221402
4355 2 -1.200000000000 107.983690768560 15.586103233329 27.552598221402
4356 2 -1.200000000000 107.983690768560 17.812689409519 0.787217092040
4357 1 2.400000000000 107.983690768560 22.265861761899 25.190946945282
4358 1 2.400000000000 109.911970960856 23.379154849994 0.000000000000
4359 1 2.400000000000 106.055410576264 23.379154849994 0.000000000000
4360 1 2.400000000000 107.983690768560 20.039275585709 0.000000000000
4361 2 -1.200000000000 107.983690768560 22.265861761899 27.552598221402
4362 2 -1.200000000000 107.983690768560 24.492447938089 0.787217092040
4363 2 -1.200000000000 109.911970960856 21.152568673804 0.787217092040
4364 2 -1.200000000000 109.911970960856 23.379154849994 2.361651276120
4365 2 -1.200000000000 106.055410576264 21.152568673804 0.787217092040
4366 2 -1.200000000000 106.055410576264 23.379154849994 2.361651276120
4367 2 -1.200000000000 107.983690768560 20.039275585709 2.361651276120
4368 2 -1.200000000000 107.983690768560 22.265861761899 3.936085460200
4369 1 2.400000000000 111.840251153151 2.226586176190 15.744341840801
4370 1 2.400000000000 113.768531345447 3.339879264285 18.893210208961
4371 1 2.400000000000 109.911970960856 3.339879264285 18.893210208961
4372 1 2.400000000000 111.840251153151 0.000000000000 18.893210208961
4373 2 -1.200000000000 111.840251153151 2.226586176190 18.105993116921
4374 2 -1.200000000000 111.840251153151 4.453172352380 19.680427301001
4375 2 -1.200000000000 113.768531345447 1.113293088095 19.680427301001
4376 2 -1.200000000000 113.768531345447 3.339879264285 21.254861485081
4377 2 -1.200000000000 109.911970960856 1.113293088095 19.680427301001
4378 2 -1.200000000000 109.911970960856 3.339879264285 21.254861485081
4379 2 -1.200000000000 111.840251153151 0.000000000000 21.254861485081
4380 2 -1.200000000000 111.840251153151 2.226586176190 22.829295669162
4381 1 2.400000000000 111.840251153151 6.679758528570 18.893210208961
4382 1 2.400000000000 113.768531345447 7.793051616665 22.042078577122
4383 1 2.400000000000 109.911970960856 7.793051616665 22.042078577122
4384 1 2.400000000000 111.840251153151 4.453172352380 22.042078577122
4385 2 -1.200000000000 111.840251153151 6.679758528570 21.254861485081
4386 2 -1.200000000000 111.840251153151 8.906344704760 22.829295669162
4387 2 -1.200000000000 113.768531345447 5.566465440475 22.829295669162
4388 2 -1.200000000000 113.768531345447 7.793051616665 24.403729853242
4389 2 -1.200000000000 109.911970960856 5.566465440475 22.829295669162
4390 2 -1.200000000000 109.911970960856 7.793051616665 24.403729853242
4391 2 -1.200000000000 111.840251153151 4.453172352380 24.403729853242
4392 2 -1.200000000000 111.840251153151 6.679758528570 25.978164037322
4393 1 2.400000000000 111.840251153151 11.132930880950 22.042078577122
4394 1 2.400000000000 113.768531345447 12.246223969045 25.190946945282
4395 1 2.400000000000 109.911970960856 12.246223969045 25.190946945282
4396 1 2.400000000000 111.840251153151 8.906344704760 25.190946945282
4397 2 -1.200000000000 111.840251153151 11.132930880950 24.403729853242
4398 2 -1.200000000000 111.840251153151 13.359517057139 25.978164037322
4399 2 -1.200000000000 113.768531345447 10.019637792855 25.978164037322
4400 2 -1.200000000000 113.768531345447 12.246223969045 27.552598221402
4401 2 -1.200000000000 109.911970960856 10.019637792855 25.978164037322
4402 2 -1.200000000000 109.911970960856 12.246223969044 27.552598221402
4403 2 -1.200000000000 111.840251153151 8.906344704760 27.552598221402
4404 2 -1.200000000000 111.840251153151 11.132930880950 0.787217092040
4405 1 2.400000000000 111.840251153151 15.586103233329 25.190946945282
4406 1 2.400000000000 113.768531345447 16.699396321424 0.000000000000
4407 1 2.400000000000 109.911970960856 16.699396321424 0.000000000000
4408 1 2.400000000000 111.840251153151 13.359517057139 0.000000000000
4409 2 -1.200000000000 111.840251153151 15.586103233329 27.552598221402
4410 2 -1.200000000000 111.840251153151 17.812689409519 0.787217092040
4411 2 -1.200000000000 113.768531345447 14.472810145234 0.787217092040
4412 2 -1.200000000000 113.768531345447 16.699396321424 2.361651276120
4413 2 -1.200000000000 109.911970960856 14.472810145234 0.787217092040
4414 2 -1.200000000000 109.911970960856 16.699396321424 2.361651276120
4415 2 -1.200000000000 111.840251153151 13.359517057139 2.361651276120
4416 2 -1.200000000000 111.840251153151 15.586103233329 3.936085460200
4417 1 2.400000000000 115.696811537743 0.000000000000 18.893210208961
4418 1 2.400000000000 117.625091730039 1.113293088095 22.042078577122
4419 1 2.400000000000 113.768531345447 1.113293088095 22.042078577122
4420 1 2.400000000000 115.696811537743 24.492447938089 22.042078577122
4421 2 -1.200000000000 115.696811537743 0.000000000000 21.254861485081
4422 2 -1.200000000000 115.696811537743 2.226586176190 22.829295669162
4423 2 -1.200000000000 117.625091730039 25.605741026184 22.829295669162
4424 2 -1.200000000000 117.625091730039 1.113293088095 24.403729853242
4425 2 -1.200000000000 113.768531345447 25.605741026184 22.829295669162
4426 2 -1.200000000000 113.768531345447 1.113293088095 24.403729853242
4427 2 -1.200000000000 115.696811537743 24.492447938089 24.403729853242
4428 2 -1.200000000000 115.696811537743 0.000000000000 25.978164037322
4429 1 2.400000000000 115.696811537743 4.453172352380 22.042078577122
4430 1 2.400000000000 117.625091730039 5.566465440475 25.190946945282
4431 1 2.400000000000 113.768531345447 5.566465440475 25.190946945282
4432 1 2.400000000000 115.696811537743 2.226586176190 25.190946945282
4433 2 -1.200000000000 115.696811537743 4.453172352380 24.403729853242
4434 2 -1.200000000000 115.696811537743 6.679758528570 25.978164037322
4435 2 -1.200000000000 117.625091730039 3.339879264285 25.978164037322
4436 2 -1.200000000000 117.625091730039 5.566465440475 27.552598221402
4437 2 -1.200000000000 113.768531345447 3.339879264285 25.978164037322
4438 2 -1.200000000000 113.768531345447 5.566465440475 27.552598221402
4439 2 -1.200000000000 115.696811537743 2.226586176190 27.552598221402
4440 2 -1.200000000000 115.696811537743 4.453172352380 0.787217092040
4441 1 2.400000000000 115.696811537743 8.906344704760 25.190946945282
4442 1 2.400000000000 117.625091730039 10.019637792855 0.000000000000
4443 1 2.400000000000 113.768531345447 10.019637792855 0.000000000000
4444 1 2.400000000000 115.696811537743 6.679758528570 0.000000000000
4445 2 -1.200000000000 115.696811537743 8.906344704760 27.552598221402
4446 2 -1.200000000000 115.696811537743 11.132930880950 0.787217092040
4447 2 -1.200000000000 117.625091730039 7.793051616665 0.787217092040
4448 2 -1.200000000000 117.625091730039 10.019637792855 2.361651276120
4449 2 -1.200000000000 113.768531345447 7.793051616665 0.787217092040
4450 2 -1.200000000000 113.768531345447 10.019637792855 2.361651276120
4451 2 -1.200000000000 115.696811537743 6.679758528570 2.361651276120
4452 2 -1.200000000000 115.696811537743 8.906344704760 3.936085460200
4453 1 2.400000000000 119.553371922334 2.226586176190 25.190946945282
4454 1 2.400000000000 121.481652114630 3.339879264285 0.000000000000
4455 1 2.400000000000 117.625091730039 3.339879264285 0.000000000000
4456 1 2.400000000000 119.553371922334 0.000000000000 0.000000000000
4457 2 -1.200000000000 119.553371922334 2.226586176190 27.552598221402
4458 2 -1.200000000000 119.553371922334 4.453172352380 0.787217092040
4459 2 -1.200000000000 121.481652114630 1.113293088095 0.787217092040
4460 2 -1.200000000000 121.481652114630 3.339879264285 2.361651276120
4461 2 -1.200000000000 117.625091730039 1.113293088095 0.787217092040
4462 2 -1.200000000000 117.625091730039 3.339879264285 2.361651276120
4463 2 -1.200000000000 119.553371922334 0.000000000000 2.361651276120
4464 2 -1.200000000000 119.553371922334 2.226586176190 3.936085460200
4465 1 2.400000000000 80.987768076420 20.039275585709 0.000000000000
4466 1 2.400000000000 82.916048268716 21.152568673804 3.148868368160
4467 1 2.400000000000 79.059487884124 21.152568673804 3.148868368160
4468 1 2.400000000000 80.987768076420 17.812689409519 3.148868368160
4469 2 -1.200000000000 80.987768076420 20.039275585709 2.361651276120
4470 2 -1.200000000000 80.987768076420 22.265861761899 3.936085460200
4471 2 -1.200000000000 82.916048268716 18.925982497614 3.936085460200
4472 2 -1.200000000000 82.916048268716 21.152568673804 5.510519644280
4473 2 -1.200000000000 79.059487884124 18.925982497614 3.936085460200
4474 2 -1.200000000000 79.059487884124 21.152568673804 5.510519644280
4475 2 -1.200000000000 80.987768076420 17.812689409519 5.510519644280
4476 2 -1.200000000000 80.987768076420 20.039275585709 7.084953828360
4477 1 2.400000000000 80.987768076420 24.492447938089 3.148868368160
4478 1 2.400000000000 82.916048268716 25.605741026184 6.297736736320
4479 1 2.400000000000 79.059487884124 25.605741026184 6.297736736320
4480 1 2.400000000000 80.987768076420 22.265861761899 6.297736736320
4481 2 -1.200000000000 80.987768076420 24.492447938089 5.510519644280
4482 2 -1.200000000000 80.987768076420 0.000000000000 7.084953828360
4483 2 -1.200000000000 82.916048268716 23.379154849994 7.084953828360
4484 2 -1.200000000000 82.916048268716 25.605741026184 8.659388012441
4485 2 -1.200000000000 79.059487884124 23.379154849994 7.084953828360
4486 2 -1.200000000000 79.059487884124 25.605741026184 8.659388012441
4487 2 -1.200000000000 80.987768076420 22.265861761899 8.659388012441
4488 2 -1.200000000000 80.987768076420 24.492447938089 10.233822196521
4489 1 2.400000000000 84.844328461011 13.359517057139 0.000000000000
4490 1 2.400000000000 86.772608653307 14.472810145234 3.148868368160
4491 1 2.400000000000 82.916048268716 14.472810145234 3.148868368160
4492 1 2.400000000000 84.844328461011 11.132930880950 3.148868368160
4493 2 -1.200000000000 84.844328461011 13.359517057139 2.361651276120
4494 2 -1.200000000000 84.844328461011 15.586103233329 3.936085460200
4495 2 -1.200000000000 86.772608653307 12.246223969045 3.936085460200
4496 2 -1.200000000000 86.772608653307 14.472810145234 5.510519644280
4497 2 -1.200000000000 82.916048268716 12.246223969045 3.936085460200
4498 2 -1.200000000000 82.916048268716 14.472810145234 5.510519644280
4499 2 -1.200000000000 84.844328461011 11.132930880950 5.510519644280
4500 2 -1.200000000000 84.844328461011 13.359517057139 7.084953828360
4501 1 2.400000000000 84.844328461011 17.812689409519 3.148868368160
4502 1 2.400000000000 86.772608653307 18.925982497614 6.297736736320
4503 1 2.400000000000 82.916048268716 18.925982497614 6.297736736320
4504 1 2.400000000000 84.844328461011 15.586103233329 6.297736736320
4505 2 -1.200000000000 84.844328461011 17.812689409519 5.510519644280
4506 2 -1.200000000000 84.844328461011 20.039275585709 7.084953828360
4507 2 -1.200000000000 86.772608653307 16.699396321424 7.084953828360
4508 2 -1.200000000000 86.772608653307 18.925982497614 8.659388012441
4509 2 -1.200000000000 82.916048268716 16.699396321424 7.084953828360
4510 2 -1.200000000000 82.916048268716 18.925982497614 8.659388012441
4511 2 -1.200000000000 84.844328461011 15.586103233329 8.659388012441
4512 2 -1.200000000000 84.844328461011 17.812689409519 10.233822196521
4513 1 2.400000000000 84.844328461011 22.265861761899 6.297736736320
4514 1 2.400000000000 86.772608653307 23.379154849994 9.446605104481
4515 1 2.400000000000 82.916048268716 23.379154849994 9.446605104481
4516 1 2.400000000000 84.844328461011 20.039275585709 9.446605104481
4517 2 -1.200000000000 84.844328461011 22.265861761899 8.659388012441
4518 2 -1.200000000000 84.844328461011 24.492447938089 10.233822196521
4519 2 -1.200000000000 86.772608653307 21.152568673804 10.233822196521
4520 2 -1.200000000000 86.772608653307 23.379154849994 11.808256380601
4521 2 -1.200000000000 82.916048268716 21.152568673804 10.233822196521
4522 2 -1.200000000000 82.916048268716 23.379154849994 11.808256380601
4523 2 -1.200000000000 84.844328461011 20.039275585709 11.808256380601
4524 2 -1.200000000000 84.844328461011 22.265861761899 13.382690564681
4525 1 2.400000000000 88.700888845603 6.679758528570 0.000000000000
4526 1 2.400000000000 90.629169037899 7.793051616665 3.148868368160
4527 1 2.400000000000 86.772608653307 7.793051616665 3.148868368160
4528 1 2.400000000000 88.700888845603 4.453172352380 3.148868368160
4529 2 -1.200000000000 88.700888845603 6.679758528570 2.361651276120
4530 2 -1.200000000000 88.700888845603 8.906344704760 3.936085460200
4531 2 -1.200000000000 90.629169037899 5.566465440475 3.936085460200
4532 2 -1.200000000000 90.629169037899 7.793051616665 5.510519644280
4533 2 -1.200000000000 86.772608653307 5.566465440475 3.936085460200
4534 2 -1.200000000000 86.772608653307 7.793051616665 5.510519644280
4535 2 -1.200000000000 88.700888845603 4.453172352380 5.510519644280
4536 2 -1.200000000000 88.700888845603 6.679758528570 7.084953828360
4537 1 2.400000000000 88.700888845603 11.132930880950 3.148868368160
4538 1 2.400000000000 90.629169037899 12.246223969045 6.297736736320
4539 1 2.400000000000 86.772608653307 12.246223969045 6.297736736320
4540 1 2.400000000000 88.700888845603 8.906344704760 6.297736736320
4541 2 -1.200000000000 88.700888845603 11.132930880950 5.510519644280
4542 2 -1.200000000000 88.700888845603 13.359517057139 7.084953828360
4543 2 -1.200000000000 90.629169037899 10.019637792855 7.084953828360
4544 2 -1.200000000000 90.629169037899 12.246223969045 8.659388012441
4545 2 -1.200000000000 86.772608653307 10.019637792855 7.084953828360
4546 2 -1.200000000000 86.772608653307 12.246223969045 8.659388012441
4547 2 -1.200000000000 88.700888845603 8.906344704760 8.659388012441
4548 2 -1.200000000000 88.700888845603 11.132930880950 10.233822196521
4549 1 2.400000000000 88.700888845603 15.586103233329 6.297736736320
4550 1 2.400000000000 90.629169037899 16.699396321424 9.446605104481
4551 1 2.400000000000 86.772608653307 16.699396321424 9.446605104481
4552 1 2.400000000000 88.700888845603 13.359517057139 9.446605104481
4553 2 -1.200000000000 88.700888845603 15.586103233329 8.659388012441
4554 2 -1.200000000000 88.700888845603 17.812689409519 10.233822196521
4555 2 -1.200000000000 90.629169037899 14.472810145234 10.233822196521
4556 2 -1.200000000000 90.629169037899 16.699396321424 11.808256380601
4557 2 -1.200000000000 86.772608653307 14.472810145234 10.233822196521
4558 2 -1.200000000000 86.772608653307 16.699396321424 11.808256380601
4559 2 -1.200000000000 88.700888845603 13.359517057139 11.808256380601
4560 2 -1.200000000000 88.700888845603 15.586103233329 13.382690564681
4561 1 2.400000000000 88.700888845603 20.039275585709 9.446605104481
4562 1 2.400000000000 90.629169037899 21.152568673804 12.595473472641
4563 1 2.400000000000 86.772608653307 21.152568673804 12.595473472641
4564 1 2.400000000000 88.700888845603 17.812689409519 12.595473472641
4565 2 -1.200000000000 88.700888845603 20.039275585709 11.808256380601
4566 2 -1.200000000000 88.700888845603 22.265861761899 13.382690564681
4567 2 -1.200000000000 90.629169037899 18.925982497614 13.382690564681
4568 2 -1.200000000000 90.629169037899 21.152568673804 14.957124748761
4569 2 -1.200000000000 86.772608653307 18.925982497614 13.382690564681
4570 2 -1.200000000000 86.772608653307 21.152568673804 14.957124748761
4571 2 -1.200000000000 88.700888845603 17.812689409519 14.957124748761
4572 2 -1.200000000000 88.700888845603 20.039275585709 16.531558932841
4573 1 2.400000000000 88.700888845603 24.492447938089 12.595473472641
4574 1 2.400000000000 90.629169037899 25.605741026184 15.744341840801
4575 1 2.400000000000 86.772608653307 25.605741026184 15.744341840801
4576 1 2.400000000000 88.700888845603 22.265861761899 15.744341840801
4577 2 -1.200000000000 88.700888845603 24.492447938089 14.957124748761
4578 2 -1.200000000000 88.700888845603 0.000000000000 16.531558932841
4579 2 -1.200000000000 90.629169037899 23.379154849994 16.531558932841
4580 2 -1.200000000000 90.629169037899 25.605741026184 18.105993116921
4581 2 -1.200000000000 86.772608653307 23.379154849994 16.531558932841
4582 2 -1.200000000000 86.772608653307 25.605741026184 18.105993116921
4583 2 -1.200000000000 88.700888845603 22.265861761899 18.105993116921
4584 2 -1.200000000000 88.700888845603 24.492447938089 19.680427301001
4585 1 2.400000000000 92.557449230194 0.000000000000 0.000000000000
4586 1 2.400000000000 94.485729422490 1.113293088095 3.148868368160
4587 1 2.400000000000 90.629169037899 1.113293088095 3.148868368160
4588 1 2.400000000000 92.557449230194 24.492447938089 3.148868368160
4589 2 -1.200000000000 92.557449230194 0.000000000000 2.361651276120
4590 2 -1.200000000000 92.557449230194 2.226586176190 3.936085460200
4591 2 -1.200000000000 94.485729422490 25.605741026184 3.936085460200
4592 2 -1.200000000000 94.485729422490 1.113293088095 5.510519644280
4593 2 -1.200000000000 90.629169037899 25.605741026184 3.936085460200
4594 2 -1.200000000000 90.629169037899 1.113293088095 5.510519644280
4595 2 -1.200000000000 92.557449230194 24.492447938089 5.510519644280
4596 2 -1.200000000000 92.557449230194 0.000000000000 7.084953828360
4597 1 2.400000000000 92.557449230194 4.453172352380 3.148868368160
4598 1 2.400000000000 94.485729422490 5.566465440475 6.297736736320
4599 1 2.400000000000 90.629169037899 5.566465440475 6.297736736320
4600 1 2.400000000000 92.557449230194 2.226586176190 6.297736736320
4601 2 -1.200000000000 92.557449230194 4.453172352380 5.510519644280
4602 2 -1.200000000000 92.557449230194 6.679758528570 7.084953828360
4603 2 -1.200000000000 94.485729422490 3.339879264285 7.084953828360
4604 2 -1.200000000000 94.485729422490 5.566465440475 8.659388012441
4605 2 -1.200000000000 90.629169037899 3.339879264285 7.084953828360
4606 2 -1.200000000000 90.629169037899 5.566465440475 8.659388012441
4607 2 -1.200000000000 92.557449230194 2.226586176190 8.659388012441
4608 2 -1.200000000000 92.557449230194 4.453172352380 10.233822196521
4609 1 2.400000000000 92.557449230194 8.906344704760 6.297736736320
4610 1 2.400000000000 94.485729422490 10.019637792855 9.446605104481
4611 1 2.400000000000 90.629169037899 10.019637792855 9.446605104481
4612 1 2.400000000000 92.557449230194 6.679758528570 9.446605104481
4613 2 -1.200000000000 92.557449230194 8.906344704760 8.659388012441
4614 2 -1.200000000000 92.557449230194 11.132930880950 10.233822196521
4615 2 -1.200000000000 94.485729422490 7.793051616665 10.233822196521
4616 2 -1.200000000000 94.485729422490 10.019637792855 11.808256380601
4617 2 -1.200000000000 90.629169037899 7.793051616665 10.233822196521
4618 2 -1.200000000000 90.629169037899 10.019637792855 11.808256380601
4619 2 -1.200000000000 92.557449230194 6.679758528570 11.808256380601
4620 2 -1.200000000000 92.557449230194 8.906344704760 13.382690564681
4621 1 2.400000000000 92.557449230194 13.359517057139 9.446605104481
4622 1 2.400000000000 94.485729422490 14.472810145234 12.595473472641
4623 1 2.400000000000 90.629169037899 14.472810145234 12.595473472641
4624 1 2.400000000000 92.557449230194 11.132930880950 12.595473472641
4625 2 -1.200000000000 92.557449230194 13.359517057139 11.808256380601
4626 2 -1.200000000000 92.557449230194 15.586103233329 13.382690564681
4627 2 -1.200000000000 94.485729422490 12.246223969044 13.382690564681
4628 2 -1.200000000000 94.485729422490 14.472810145234 14.957124748761
4629 2 -1.200000000000 90.629169037899 12.246223969044 13.382690564681
4630 2 -1.200000000000 90.629169037899 14.472810145234 14.957124748761
4631 2 -1.200000000000 92.557449230194 11.132930880950 14.957124748761
4632 2 -1.200000000000 92.557449230194 13.359517057139 16.531558932841
4633 1 2.400000000000 92.557449230194 17.812689409519 12.595473472641
4634 1 2.400000000000 94.485729422490 18.925982497614 15.744341840801
4635 1 2.400000000000 90.629169037899 18.925982497614 15.744341840801
4636 1 2.400000000000 92.557449230194 15.586103233329 15.744341840801
4637 2 -1.200000000000 92.557449230194 17.812689409519 14.957124748761
4638 2 -1.200000000000 92.557449230194 20.039275585709 16.531558932841
4639 2 -1.200000000000 94.485729422490 16.699396321424 16.531558932841
4640 2 -1.200000000000 94.485729422490 18.925982497614 18.105993116921
4641 2 -1.200000000000 90.629169037899 16.699396321424 16.531558932841
4642 2 -1.200000000000 90.629169037899 18.925982497614 18.105993116921
4643 2 -1.200000000000 92.557449230194 15.586103233329 18.105993116921
4644 2 -1.200000000000 92.557449230194 17.812689409519 19.680427301001
4645 1 2.400000000000 92.557449230194 22.265861761899 15.744341840801
4646 1 2.400000000000 94.485729422490 23.379154849994 18.893210208961
4647 1 2.400000000000 90.629169037899 23.379154849994 18.893210208961
4648 1 2.400000000000 92.557449230194 20.039275585709 18.893210208961
4649 2 -1.200000000000 92.557449230194 22.265861761899 18.105993116921
4650 2 -1.200000000000 92.557449230194 24.492447938089 19.680427301001
4651 2 -1.200000000000 94.485729422490 21.152568673804 19.680427301001
4652 2 -1.200000000000 94.485729422490 23.379154849994 21.254861485081
4653 2 -1.200000000000 90.629169037899 21.152568673804 19.680427301001
4654 2 -1.200000000000 90.629169037899 23.379154849994 21.254861485081
4655 2 -1.200000000000 92.557449230194 20.039275585709 21.254861485081
4656 2 -1.200000000000 92.557449230194 22.265861761899 22.829295669162
4657 1 2.400000000000 96.414009614786 2.226586176190 6.297736736320
4658 1 2.400000000000 98.342289807081 3.339879264285 9.446605104481
4659 1 2.400000000000 94.485729422490 3.339879264285 9.446605104481
4660 1 2.400000000000 96.414009614786 0.000000000000 9.446605104481
4661 2 -1.200000000000 96.414009614786 2.226586176190 8.659388012441
4662 2 -1.200000000000 96.414009614786 4.453172352380 10.233822196521
4663 2 -1.200000000000 98.342289807081 1.113293088095 10.233822196521
4664 2 -1.200000000000 98.342289807081 3.339879264285 11.808256380601
4665 2 -1.200000000000 94.485729422490 1.113293088095 10.233822196521
4666 2 -1.200000000000 94.485729422490 3.339879264285 11.808256380601
4667 2 -1.200000000000 96.414009614786 0.000000000000 11.808256380601
4668 2 -1.200000000000 96.414009614786 2.226586176190 13.382690564681
4669 1 2.400000000000 96.414009614786 6.679758528570 9.446605104481
4670 1 2.400000000000 98.342289807081 7.793051616665 12.595473472641
4671 1 2.400000000000 94.485729422490 7.793051616665 12.595473472641
4672 1 2.400000000000 96.414009614786 4.453172352380 12.595473472641
4673 2 -1.200000000000 96.414009614786 6.679758528570 11.808256380601
4674 2 -1.200000000000 96.414009614786 8.906344704760 13.382690564681
4675 2 -1.200000000000 98.342289807081 5.566465440475 13.382690564681
4676 2 -1.200000000000 98.342289807081 7.793051616665 14.957124748761
4677 2 -1.200000000000 94.485729422490 5.566465440475 13.382690564681
4678 2 -1.200000000000 94.485729422490 7.793051616665 14.957124748761
4679 2 -1.200000000000 96.414009614786 4.453172352380 14.957124748761
4680 2 -1.200000000000 96.414009614786 6.679758528570 16.531558932841
4681 1 2.400000000000 96.414009614786 11.132930880950 12.595473472641
4682 1 2.400000000000 98.342289807081 12.246223969044 15.744341840801
4683 1 2.400000000000 94.485729422490 12.246223969044 15.744341840801
4684 1 2.400000000000 96.414009614786 8.906344704760 15.744341840801
4685 2 -1.200000000000 96.414009614786 11.132930880950 14.957124748761
4686 2 -1.200000000000 96.414009614786 13.359517057139 16.531558932841
4687 2 -1.200000000000 98.342289807081 10.019637792855 16.531558932841
4688 2 -1.200000000000 98.342289807081 12.246223969044 18.105993116921
4689 2 -1.200000000000 94.485729422490 10.019637792855 16.531558932841
4690 2 -1.200000000000 94.485729422490 12.246223969044 18.105993116921
4691 2 -1.200000000000 96.414009614786 8.906344704760 18.105993116921
4692 2 -1.200000000000 96.414009614786 11.132930880950 19.680427301001
4693 1 2.400000000000 96.414009614786 15.586103233329 15.744341840801
4694 1 2.400000000000 98.342289807081 16.699396321424 18.893210208961
4695 1 2.400000000000 94.485729422490 16.699396321424 18.893210208961
4696 1 2.400000000000 96.414009614786 13.359517057139 18.893210208961
4697 2 -1.200000000000 96.414009614786 15.586103233329 18.105993116921
4698 2 -1.200000000000 96.414009614786 17.812689409519 19.680427301001
4699 2 -1.200000000000 98.342289807081 14.472810145234 19.680427301001
4700 2 -1.200000000000 98.342289807081 16.699396321424 21.254861485081
4701 2 -1.200000000000 94.485729422490 14.472810145234 19.680427301001
4702 2 -1.200000000000 94.485729422490 16.699396321424 21.254861485081
4703 2 -1.200000000000 96.414009614786 13.359517057139 21.254861485081
4704 2 -1.200000000000 96.414009614786 15.586103233329 22.829295669162
4705 1 2.400000000000 96.414009614786 20.039275585709 18.893210208961
4706 1 2.400000000000 98.342289807081 21.152568673804 22.042078577122
4707 1 2.400000000000 94.485729422490 21.152568673804 22.042078577122
4708 1 2.400000000000 96.414009614786 17.812689409519 22.042078577122
4709 2 -1.200000000000 96.414009614786 20.039275585709 21.254861485081
4710 2 -1.200000000000 96.414009614786 22.265861761899 22.829295669162
4711 2 -1.200000000000 98.342289807081 18.925982497614 22.829295669162
4712 2 -1.200000000000 98.342289807081 21.152568673804 24.403729853242
4713 2 -1.200000000000 94.485729422490 18.925982497614 22.829295669162
4714 2 -1.200000000000 94.485729422490 21.152568673804 24.403729853242
4715 2 -1.200000000000 96.414009614786 17.812689409519 24.403729853242
4716 2 -1.200000000000 96.414009614786 20.039275585709 25.978164037322
4717 1 2.400000000000 96.414009614786 24.492447938089 22.042078577122
4718 1 2.400000000000 98.342289807081 25.605741026184 25.190946945282
4719 1 2.400000000000 94.485729422490 25.605741026184 25.190946945282
4720 1 2.400000000000 96.414009614786 22.265861761899 25.190946945282
4721 2 -1.200000000000 96.414009614786 24.492447938089 24.403729853242
4722 2 -1.200000000000 96.414009614786 0.000000000000 25.978164037322
4723 2 -1.200000000000 98.342289807081 23.379154849994 25.978164037322
4724 2 -1.200000000000 98.342289807081 25.605741026184 27.552598221402
4725 2 -1.200000000000 94.485729422490 23.379154849994 25.978164037322
4726 2 -1.200000000000 94.485729422490 25.605741026184 27.552598221402
4727 2 -1.200000000000 96.414009614786 22.265861761899 27.552598221402
4728 2 -1.200000000000 96.414009614786 24.492447938089 0.787217092040
4729 1 2.400000000000 100.270569999377 0.000000000000 9.446605104481
4730 1 2.400000000000 102.198850191673 1.113293088095 12.595473472641
4731 1 2.400000000000 98.342289807081 1.113293088095 12.595473472641
4732 1 2.400000000000 100.270569999377 24.492447938089 12.595473472641
4733 2 -1.200000000000 100.270569999377 0.000000000000 11.808256380601
4734 2 -1.200000000000 100.270569999377 2.226586176190 13.382690564681
4735 2 -1.200000000000 102.198850191673 25.605741026184 13.382690564681
4736 2 -1.200000000000 102.198850191673 1.113293088095 14.957124748761
4737 2 -1.200000000000 98.342289807081 25.605741026184 13.382690564681
4738 2 -1.200000000000 98.342289807081 1.113293088095 14.957124748761
4739 2 -1.200000000000 100.270569999377 24.492447938089 14.957124748761
4740 2 -1.200000000000 100.270569999377 0.000000000000 16.531558932841
4741 1 2.400000000000 100.270569999377 4.453172352380 12.595473472641
4742 1 2.400000000000 102.198850191673 5.566465440475 15.744341840801
4743 1 2.400000000000 98.342289807081 5.566465440475 15.744341840801
4744 1 2.400000000000 100.270569999377 2.226586176190 15.744341840801
4745 2 -1.200000000000 100.270569999377 4.453172352380 14.957124748761
4746 2 -1.200000000000 100.270569999377 6.679758528570 16.531558932841
4747 2 -1.200000000000 102.198850191673 3.339879264285 16.531558932841
4748 2 -1.200000000000 102.198850191673 5.566465440475 18.105993116921
4749 2 -1.200000000000 98.342289807081 3.339879264285 16.531558932841
4750 2 -1.200000000000 98.342289807081 5.566465440475 18.105993116921
4751 2 -1.200000000000 100.270569999377 2.226586176190 18.105993116921
4752 2 -1.200000000000 100.270569999377 4.453172352380 19.680427301001
4753 1 2.400000000000 100.270569999377 8.906344704760 15.744341840801
4754 1 2.400000000000 102.198850191673 10.019637792855 18.893210208961
4755 1 2.400000000000 98.342289807081 10.019637792855 18.893210208961
4756 1 2.400000000000 100.270569999377 6.679758528570 18.893210208961
4757 2 -1.200000000000 100.270569999377 8.906344704760 18.105993116921
4758 2 -1.200000000000 100.270569999377 11.132930880950 19.680427301001
4759 2 -1.200000000000 102.198850191673 7.793051616665 19.680427301001
4760 2 -1.200000000000 102.198850191673 10.019637792855 21.254861485081
4761 2 -1.200000000000 98.342289807081 7.793051616665 19.680427301001
4762 2 -1.200000000000 98.342289807081 10.019637792855 21.254861485081
4763 2 -1.200000000000 100.270569999377 6.679758528570 21.254861485081
4764 2 -1.200000000000 100.270569999377 8.906344704760 22.829295669162
4765 1 2.400000000000 100.270569999377 13.359517057139 18.893210208961
4766 1 2.400000000000 102.198850191673 14.472810145234 22.042078577122
4767 1 2.400000000000 98.342289807081 14.472810145234 22.042078577122
4768 1 2.400000000000 100.270569999377 11.132930880950 22.042078577122
4769 2 -1.200000000000 100.270569999377 13.359517057139 21.254861485081
4770 2 -1.200000000000 100.270569999377 15.586103233329 22.829295669162
4771 2 -1.200000000000 102.198850191673 12.246223969045 22.829295669162
4772 2 -1.200000000000 102.198850191673 14.472810145234 24.403729853242
4773 2 -1.200000000000 98.342289807081 12.246223969044 22.829295669162
4774 2 -1.200000000000 98.342289807081 14.472810145234 24.403729853242
4775 2 -1.200000000000 100.270569999377 11.132930880950 24.403729853242
4776 2 -1.200000000000 100.270569999377 13.359517057139 25.978164037322
4777 1 2.400000000000 100.270569999377 17.812689409519 22.042078577122
4778 1 2.400000000000 102.198850191673 18.925982497614 25.190946945282
4779 1 2.400000000000 98.342289807081 18.925982497614 25.190946945282
4780 1 2.400000000000 100.270569999377 15.586103233329 25.190946945282
4781 2 -1.200000000000 100.270569999377 17.812689409519 24.403729853242
4782 2 -1.200000000000 100.270569999377 20.039275585709 25.978164037322
4783 2 -1.200000000000 102.198850191673 16.699396321424 25.978164037322
4784 2 -1.200000000000 102.198850191673 18.925982497614 27.552598221402
4785 2 -1.200000000000 98.342289807081 16.699396321424 25.978164037322
4786 2 -1.200000000000 98.342289807081 18.925982497614 27.552598221402
4787 2 -1.200000000000 100.270569999377 15.586103233329 27.552598221402
4788 2 -1.200000000000 100.270569999377 17.812689409519 0.787217092040
4789 1 2.400000000000 100.270569999377 22.265861761899 25.190946945282
4790 1 2.400000000000 102.198850191673 23.379154849994 0.000000000000
4791 1 2.400000000000 98.342289807081 23.379154849994 0.000000000000
4792 1 2.400000000000 100.270569999377 20.039275585709 0.000000000000
4793 2 -1.200000000000 100.270569999377 22.265861761899 27.552598221402
4794 2 -1.200000000000 100.270569999377 24.492447938089 0.787217092040
4795 2 -1.200000000000 102.198850191673 21.152568673804 0.787217092040
4796 2 -1.200000000000 102.198850191673 23.379154849994 2.361651276120
4797 2 -1.200000000000 98.342289807081 21.152568673804 0.787217092040
4798 2 -1.200000000000 98.342289807081 23.379154849994 2.361651276120
4799 2 -1.200000000000 100.270569999377 20.039275585709 2.361651276120
4800 2 -1.200000000000 100.270569999377 22.265861761899 3.936085460200
4801 1 2.400000000000 104.127130383969 2.226586176190 15.744341840801
4802 1 2.400000000000 106.055410576264 3.339879264285 18.893210208961
4803 1 2.400000000000 102.198850191673 3.339879264285 18.893210208961
4804 1 2.400000000000 104.127130383969 0.000000000000 18.893210208961
4805 2 -1.200000000000 104.127130383969 2.226586176190 18.105993116921
4806 2 -1.200000000000 104.127130383969 4.453172352380 19.680427301001
4807 2 -1.200000000000 106.055410576264 1.113293088095 19.680427301001
4808 2 -1.200000000000 106.055410576264 3.339879264285 21.254861485081
4809 2 -1.200000000000 102.198850191673 1.113293088095 19.680427301001
4810 2 -1.200000000000 102.198850191673 3.339879264285 21.254861485081
4811 2 -1.200000000000 104.127130383969 0.000000000000 21.254861485081
4812 2 -1.200000000000 104.127130383969 2.226586176190 22.829295669162
4813 1 2.400000000000 104.127130383969 6.679758528570 18.893210208961
4814 1 2.400000000000 106.055410576264 7.793051616665 22.042078577122
4815 1 2.400000000000 102.198850191673 7.793051616665 22.042078577122
4816 1 2.400000000000 104.127130383969 4.453172352380 22.042078577122
4817 2 -1.200000000000 104.127130383969 6.679758528570 21.254861485081
4818 2 -1.200000000000 104.127130383969 8.906344704760 22.829295669162
4819 2 -1.200000000000 106.055410576264 5.566465440475 22.829295669162
4820 2 -1.200000000000 106.055410576264 7.793051616665 24.403729853242
4821 2 -1.200000000000 102.198850191673 5.566465440475 22.829295669162
4822 2 -1.200000000000 102.198850191673 7.793051616665 24.403729853242
4823 2 -1.200000000000 104.127130383969 4.453172352380 24.403729853242
4824 2 -1.200000000000 104.127130383969 6.679758528570 25.978164037322
4825 1 2.400000000000 104.127130383969 11.132930880950 22.042078577122
4826 1 2.400000000000 106.055410576264 12.246223969045 25.190946945282
4827 1 2.400000000000 102.198850191673 12.246223969045 25.190946945282
4828 1 2.400000000000 104.127130383969 8.906344704760 25.190946945282
4829 2 -1.200000000000 104.127130383969 11.132930880950 24.403729853242
4830 2 -1.200000000000 104.127130383969 13.359517057139 25.978164037322
4831 2 -1.200000000000 106.055410576264 10.019637792855 25.978164037322
4832 2 -1.200000000000 106.055410576264 12.246223969045 27.552598221402
4833 2 -1.200000000000 102.198850191673 10.019637792855 25.978164037322
4834 2 -1.200000000000 102.198850191673 12.246223969044 27.552598221402
4835 2 -1.200000000000 104.127130383969 8.906344704760 27.552598221402
4836 2 -1.200000000000 104.127130383969 11.132930880950 0.787217092040
4837 1 2.400000000000 104.127130383969 15.586103233329 25.190946945282
4838 1 2.400000000000 106.055410576264 16.699396321424 0.000000000000
4839 1 2.400000000000 102.198850191673 16.699396321424 0.000000000000
4840 1 2.400000000000 104.127130383969 13.359517057139 0.000000000000
4841 2 -1.200000000000 104.127130383969 15.586103233329 27.552598221402
4842 2 -1.200000000000 104.127130383969 17.812689409519 0.787217092040
4843 2 -1.200000000000 106.055410576264 14.472810145234 0.787217092040
4844 2 -1.200000000000 106.055410576264 16.699396321424 2.361651276120
4845 2 -1.200000000000 102.198850191673 14.472810145234 0.787217092040
4846 2 -1.200000000000 102.198850191673 16.699396321424 2.361651276120
4847 2 -1.200000000000 104.127130383969 13.359517057139 2.361651276120
4848 2 -1.200000000000 104.127130383969 15.586103233329 3.936085460200
4849 1 2.400000000000 107.983690768560 0.000000000000 18.893210208961
4850 1 2.400000000000 109.911970960856 1.113293088095 22.042078577122
4851 1 2.400000000000 106.055410576264 1.113293088095 22.042078577122
4852 1 2.400000000000 107.983690768560 24.492447938089 22.042078577122
4853 2 -1.200000000000 107.983690768560 0.000000000000 21.254861485081
4854 2 -1.200000000000 107.983690768560 2.226586176190 22.829295669162
4855 2 -1.200000000000 109.911970960856 25.605741026184 22.829295669162
4856 2 -1.200000000000 109.911970960856 1.113293088095 24.403729853242
4857 2 -1.200000000000 106.055410576264 25.605741026184 22.829295669162
4858 2 -1.200000000000 106.055410576264 1.113293088095 24.403729853242
4859 2 -1.200000000000 107.983690768560 24.492447938089 24.403729853242
4860 2 -1.200000000000 107.983690768560 0.000000000000 25.978164037322
4861 1 2.400000000000 107.983690768560 4.453172352380 22.042078577122
4862 1 2.400000000000 109.911970960856 5.566465440475 25.190946945282
4863 1 2.400000000000 106.055410576264 5.566465440475 25.190946945282
4864 1 2.400000000000 107.983690768560 2.226586176190 25.190946945282
4865 2 -1.200000000000 107.983690768560 4.453172352380 24.403729853242
4866 2 -1.200000000000 107.983690768560 6.679758528570 25.978164037322
4867 2 -1.200000000000 109.911970960856 3.339879264285 25.978164037322
4868 2 -1.200000000000 109.911970960856 5.566465440475 27.552598221402
4869 2 -1.200000000000 106.055410576264 3.339879264285 25.978164037322
4870 2 -1.200000000000 106.055410576264 5.566465440475 27.552598221402
4871 2 -1.200000000000 107.983690768560 2.226586176190 27.552598221402
4872 2 -1.200000000000 107.983690768560 4.453172352380 0.787217092040
4873 1 2.400000000000 107.983690768560 8.906344704760 25.190946945282
4874 1 2.400000000000 109.911970960856 10.019637792855 0.000000000000
4875 1 2.400000000000 106.055410576264 10.019637792855 0.000000000000
4876 1 2.400000000000 107.983690768560 6.679758528570 0.000000000000
4877 2 -1.200000000000 107.983690768560 8.906344704760 27.552598221402
4878 2 -1.200000000000 107.983690768560 11.132930880950 0.787217092040
4879 2 -1.200000000000 109.911970960856 7.793051616665 0.787217092040
4880 2 -1.200000000000 109.911970960856 10.019637792855 2.361651276120
4881 2 -1.200000000000 106.055410576264 7.793051616665 0.787217092040
4882 2 -1.200000000000 106.055410576264 10.019637792855 2.361651276120
4883 2 -1.200000000000 107.983690768560 6.679758528570 2.361651276120
4884 2 -1.200000000000 107.983690768560 8.906344704760 3.936085460200
4885 1 2.400000000000 111.840251153151 2.226586176190 25.190946945282
4886 1 2.400000000000 113.768531345447 3.339879264285 0.000000000000
4887 1 2.400000000000 109.911970960856 3.339879264285 0.000000000000
4888 1 2.400000000000 111.840251153151 0.000000000000 0.000000000000
4889 2 -1.200000000000 111.840251153151 2.226586176190 27.552598221402
4890 2 -1.200000000000 111.840251153151 4.453172352380 0.787217092040
4891 2 -1.200000000000 113.768531345447 1.113293088095 0.787217092040
4892 2 -1.200000000000 113.768531345447 3.339879264285 2.361651276120
4893 2 -1.200000000000 109.911970960856 1.113293088095 0.787217092040
4894 2 -1.200000000000 109.911970960856 3.339879264285 2.361651276120
4895 2 -1.200000000000 111.840251153151 0.000000000000 2.361651276120
4896 2 -1.200000000000 111.840251153151 2.226586176190 3.936085460200
4897 1 2.400000000000 73.274647307237 20.039275585709 0.000000000000
4898 1 2.400000000000 75.202927499533 21.152568673804 3.148868368160
4899 1 2.400000000000 71.346367114941 21.152568673804 3.148868368160
4900 1 2.400000000000 73.274647307237 17.812689409519 3.148868368160
4901 2 -1.200000000000 73.274647307237 20.039275585709 2.361651276120
4902 2 -1.200000000000 73.274647307237 22.265861761899 3.936085460200
4903 2 -1.200000000000 75.202927499533 18.925982497614 3.936085460200
4904 2 -1.200000000000 75.202927499533 21.152568673804 5.510519644280
4905 2 -1.200000000000 71.346367114941 18.925982497614 3.936085460200
4906 2 -1.200000000000 71.346367114941 21.152568673804 5.510519644280
4907 2 -1.200000000000 73.274647307237 17.812689409519 5.510519644280
4908 2 -1.200000000000 73.274647307237 20.039275585709 7.084953828360
4909 1 2.400000000000 73.274647307237 24.492447938089 3.148868368160
4910 1 2.400000000000 75.202927499533 25.605741026184 6.297736736320
4911 1 2.400000000000 71.346367114941 25.605741026184 6.297736736320
4912 1 2.400000000000 73.274647307237 22.265861761899 6.297736736320
4913 2 -1.200000000000 73.274647307237 24.492447938089 5.510519644280
4914 2 -1.200000000000 73.274647307237 0.000000000000 7.084953828360
4915 2 -1.200000000000 75.202927499533 23.379154849994 7.084953828360
4916 2 -1.200000000000 75.202927499533 25.605741026184 8.659388012441
4917 2 -1.200000000000 71.346367114941 23.379154849994 7.084953828360
4918 2 -1.200000000000 71.346367114941 25.605741026184 8.659388012441
4919 2 -1.200000000000 73.274647307237 22.265861761899 8.659388012441
4920 2 -1.200000000000 73.274647307237 24.492447938089 10.233822196521
4921 1 2.400000000000 77.131207691829 13.359517057139 0.000000000000
4922 1 2.400000000000 79.059487884124 14.472810145234 3.148868368160
4923 1 2.400000000000 75.202927499533 14.472810145234 3.148868368160
4924 1 2.400000000000 77.131207691829 11.132930880950 3.148868368160
4925 2 -1.200000000000 77.131207691829 13.359517057139 2.361651276120
4926 2 -1.200000000000 77.131207691829 15.586103233329 3.936085460200
4927 2 -1.200000000000 79.059487884124 12.246223969045 3.936085460200
4928 2 -1.200000000000 79.059487884124 14.472810145234 5.510519644280
4929 2 -1.200000000000 75.202927499533 12.246223969045 3.936085460200
4930 2 -1.200000000000 75.202927499533 14.472810145234 5.510519644280
4931 2 -1.200000000000 77.131207691829 11.132930880950 5.510519644280
4932 2 -1.200000000000 77.131207691829 13.359517057139 7.084953828360
4933 1 2.400000000000 77.131207691829 17.812689409519 3.148868368160
4934 1 2.400000000000 79.059487884124 18.925982497614 6.297736736320
4935 1 2.400000000000 75.202927499533 18.925982497614 6.297736736320
4936 1 2.400000000000 77.131207691829 15.586103233329 6.297736736320
4937 2 -1.200000000000 77.131207691829 17.812689409519 5.510519644280
4938 2 -1.200000000000 77.131207691829 20.039275585709 7.084953828360
4939 2 -1.200000000000 79.059487884124 16.699396321424 7.084953828360
4940 2 -1.200000000000 79.059487884124 18.925982497614 8.659388012441
4941 2 -1.200000000000 75.202927499533 16.699396321424 7.084953828360
4942 2 -1.200000000000 75.202927499533 18.925982497614 8.659388012441
4943 2 -1.200000000000 77.131207691829 15.586103233329 8.659388012441
4944 2 -1.200000000000 77.131207691829 17.812689409519 10.233822196521
4945 1 2.400000000000 77.131207691829 22.265861761899 6.297736736320
4946 1 2.400000000000 79.059487884124 23.379154849994 9.446605104481
4947 1 2.400000000000 75.202927499533 23.379154849994 9.446605104481
4948 1 2.400000000000 77.131207691829 20.039275585709 9.446605104481
4949 2 -1.200000000000 77.131207691829 22.265861761899 8.659388012441
4950 2 -1.200000000000 77.131207691829 24.492447938089 10.233822196521
4951 2 -1.200000000000 79.059487884124 21.152568673804 10.233822196521
4952 2 -1.200000000000 79.059487884124 23.379154849994 11.808256380601
4953 2 -1.200000000000 75.202927499533 21.152568673804 10.233822196521
4954 2 -1.200000000000 75.202927499533 23.379154849994 11.808256380601
4955 2 -1.200000000000 77.131207691829 20.039275585709 11.808256380601
4956 2 -1.200000000000 77.131207691829 22.265861761899 13.382690564681
4957 1 2.400000000000 80.987768076420 6.679758528570 0.000000000000
4958 1 2.400000000000 82.916048268716 7.793051616665 3.148868368160
4959 1 2.400000000000 79.059487884124 7.793051616665 3.148868368160
4960 1 2.400000000000 80.987768076420 4.453172352380 3.148868368160
4961 2 -1.200000000000 80.987768076420 6.679758528570 2.361651276120
4962 2 -1.200000000000 80.987768076420 8.906344704760 3.936085460200
4963 2 -1.200000000000 82.916048268716 5.566465440475 3.936085460200
4964 2 -1.200000000000 82.916048268716 7.793051616665 5.510519644280
4965 2 -1.200000000000 79.059487884124 5.566465440475 3.936085460200
4966 2 -1.200000000000 79.059487884124 7.793051616665 5.510519644280
4967 2 -1.200000000000 80.987768076420 4.453172352380 5.510519644280
4968 2 -1.200000000000 80.987768076420 6.679758528570 7.084953828360
4969 1 2.400000000000 80.987768076420 11.132930880950 3.148868368160
4970 1 2.400000000000 82.916048268716 12.246223969045 6.297736736320
4971 1 2.400000000000 79.059487884124 12.246223969045 6.297736736320
4972 1 2.400000000000 80.987768076420 8.906344704760 6.297736736320
4973 2 -1.200000000000 80.987768076420 11.132930880950 5.510519644280
4974 2 -1.200000000000 80.987768076420 13.359517057139 7.084953828360
4975 2 -1.200000000000 82.916048268716 10.019637792855 7.084953828360
4976 2 -1.200000000000 82.916048268716 12.246223969045 8.659388012441
4977 2 -1.200000000000 79.059487884124 10.019637792855 7.084953828360
4978 2 -1.200000000000 79.059487884124 12.246223969045 8.659388012441
4979 2 -1.200000000000 80.987768076420 8.906344704760 8.659388012441
4980 2 -1.200000000000 80.987768076420 11.132930880950 10.233822196521
4981 1 2.400000000000 80.987768076420 15.586103233329 6.297736736320
4982 1 2.400000000000 82.916048268716 16.699396321424 9.446605104481
4983 1 2.400000000000 79.059487884124 16.699396321424 9.446605104481
4984 1 2.400000000000 80.987768076420 13.359517057139 9.446605104481
4985 2 -1.200000000000 80.987768076420 15.586103233329 8.659388012441
4986 2 -1.200000000000 80.987768076420 17.812689409519 10.233822196521
4987 2 -1.200000000000 82.916048268716 14.472810145234 10.233822196521
4988 2 -1.200000000000 82.916048268716 16.699396321424 11.808256380601
4989 2 -1.200000000000 79.059487884124 14.472810145234 10.233822196521
4990 2 -1.200000000000 79.059487884124 16.699396321424 11.808256380601
4991 2 -1.200000000000 80.987768076420 13.359517057139 11.808256380601
4992 2 -1.200000000000 80.987768076420 15.586103233329 13.382690564681
4993 1 2.400000000000 80.987768076420 20.039275585709 9.446605104481
4994 1 2.400000000000 82.916048268716 21.152568673804 12.595473472641
4995 1 2.400000000000 79.059487884124 21.152568673804 12.595473472641
4996 1 2.400000000000 80.987768076420 17.812689409519 12.595473472641
4997 2 -1.200000000000 80.987768076420 20.039275585709 11.808256380601
4998 2 -1.200000000000 80.987768076420 22.265861761899 13.382690564681
4999 2 -1.200000000000 82.916048268716 18.925982497614 13.382690564681
5000 2 -1.200000000000 82.916048268716 21.152568673804 14.957124748761
5001 2 -1.200000000000 79.059487884124 18.925982497614 13.382690564681
5002 2 -1.200000000000 79.059487884124 21.152568673804 14.957124748761
5003 2 -1.200000000000 80.987768076420 17.812689409519 14.957124748761
5004 2 -1.200000000000 80.987768076420 20.039275585709 16.531558932841
5005 1 2.400000000000 80.987768076420 24.492447938089 12.595473472641
5006 1 2.400000000000 82.916048268716 25.605741026184 15.744341840801
5007 1 2.400000000000 79.059487884124 25.605741026184 15.744341840801
5008 1 2.400000000000 80.987768076420 22.265861761899 15.744341840801
5009 2 -1.200000000000 80.987768076420 24.492447938089 14.957124748761
5010 2 -1.200000000000 80.987768076420 0.000000000000 16.531558932841
5011 2 -1.200000000000 82.916048268716 23.379154849994 16.531558932841
5012 2 -1.200000000000 82.916048268716 25.605741026184 18.105993116921
5013 2 -1.200000000000 79.059487884124 23.379154849994 16.531558932841
5014 2 -1.200000000000 79.059487884124 25.605741026184 18.105993116921
5015 2 -1.200000000000 80.987768076420 22.265861761899 18.105993116921
5016 2 -1.200000000000 80.987768076420 24.492447938089 19.680427301001
5017 1 2.400000000000 84.844328461011 0.000000000000 0.000000000000
5018 1 2.400000000000 86.772608653307 1.113293088095 3.148868368160
5019 1 2.400000000000 82.916048268716 1.113293088095 3.148868368160
5020 1 2.400000000000 84.844328461011 24.492447938089 3.148868368160
5021 2 -1.200000000000 84.844328461011 0.000000000000 2.361651276120
5022 2 -1.200000000000 84.844328461011 2.226586176190 3.936085460200
5023 2 -1.200000000000 86.772608653307 25.605741026184 3.936085460200
5024 2 -1.200000000000 86.772608653307 1.113293088095 5.510519644280
5025 2 -1.200000000000 82.916048268716 25.605741026184 3.936085460200
5026 2 -1.200000000000 82.916048268716 1.113293088095 5.510519644280
5027 2 -1.200000000000 84.844328461011 24.492447938089 5.510519644280
5028 2 -1.200000000000 84.844328461011 0.000000000000 7.084953828360
5029 1 2.400000000000 84.844328461011 4.453172352380 3.148868368160
5030 1 2.400000000000 86.772608653307 5.566465440475 6.297736736320
5031 1 2.400000000000 82.916048268716 5.566465440475 6.297736736320
5032 1 2.400000000000 84.844328461011 2.226586176190 6.297736736320
5033 2 -1.200000000000 84.844328461011 4.453172352380 5.510519644280
5034 2 -1.200000000000 84.844328461011 6.679758528570 7.084953828360
5035 2 -1.200000000000 86.772608653307 3.339879264285 7.084953828360
5036 2 -1.200000000000 86.772608653307 5.566465440475 8.659388012441
5037 2 -1.200000000000 82.916048268716 3.339879264285 7.084953828360
5038 2 -1.200000000000 82.916048268716 5.566465440475 8.659388012441
5039 2 -1.200000000000 84.844328461011 2.226586176190 8.659388012441
5040 2 -1.200000000000 84.844328461011 4.453172352380 10.233822196521
5041 1 2.400000000000 84.844328461011 8.906344704760 6.297736736320
5042 1 2.400000000000 86.772608653307 10.019637792855 9.446605104481
5043 1 2.400000000000 82.916048268716 10.019637792855 9.446605104481
5044 1 2.400000000000 84.844328461011 6.679758528570 9.446605104481
5045 2 -1.200000000000 84.844328461011 8.906344704760 8.659388012441
5046 2 -1.200000000000 84.844328461011 11.132930880950 10.233822196521
5047 2 -1.200000000000 86.772608653307 7.793051616665 10.233822196521
5048 2 -1.200000000000 86.772608653307 10.019637792855 11.808256380601
5049 2 -1.200000000000 82.916048268716 7.793051616665 10.233822196521
5050 2 -1.200000000000 82.916048268716 10.019637792855 11.808256380601
5051 2 -1.200000000000 84.844328461011 6.679758528570 11.808256380601
5052 2 -1.200000000000 84.844328461011 8.906344704760 13.382690564681
5053 1 2.400000000000 84.844328461011 13.359517057139 9.446605104481
5054 1 2.400000000000 86.772608653307 14.472810145234 12.595473472641
5055 1 2.400000000000 82.916048268716 14.472810145234 12.595473472641
5056 1 2.400000000000 84.844328461011 11.132930880950 12.595473472641
5057 2 -1.200000000000 84.844328461011 13.359517057139 11.808256380601
5058 2 -1.200000000000 84.844328461011 15.586103233329 13.382690564681
5059 2 -1.200000000000 86.772608653307 12.246223969044 13.382690564681
5060 2 -1.200000000000 86.772608653307 14.472810145234 14.957124748761
5061 2 -1.200000000000 82.916048268716 12.246223969044 13.382690564681
5062 2 -1.200000000000 82.916048268716 14.472810145234 14.957124748761
5063 2 -1.200000000000 84.844328461011 11.132930880950 14.957124748761
5064 2 -1.200000000000 84.844328461011 13.359517057139 16.531558932841
5065 1 2.400000000000 84.844328461011 17.812689409519 12.595473472641
5066 1 2.400000000000 86.772608653307 18.925982497614 15.744341840801
5067 1 2.400000000000 82.916048268716 18.925982497614 15.744341840801
5068 1 2.400000000000 84.844328461011 15.586103233329 15.744341840801
5069 2 -1.200000000000 84.844328461011 17.812689409519 14.957124748761
5070 2 -1.200000000000 84.844328461011 20.039275585709 16.531558932841
5071 2 -1.200000000000 86.772608653307 16.699396321424 16.531558932841
5072 2 -1.200000000000 86.772608653307 18.925982497614 18.105993116921
5073 2 -1.200000000000 82.916048268716 16.699396321424 16.531558932841
5074 2 -1.200000000000 82.916048268716 18.925982497614 18.105993116921
5075 2 -1.200000000000 84.844328461011 15.586103233329 18.105993116921
5076 2 -1.200000000000 84.844328461011 17.812689409519 19.680427301001
5077 1 2.400000000000 84.844328461011 22.265861761899 15.744341840801
5078 1 2.400000000000 86.772608653307 23.379154849994 18.893210208961
5079 1 2.400000000000 82.916048268716 23.379154849994 18.893210208961
5080 1 2.400000000000 84.844328461011 20.039275585709 18.893210208961
5081 2 -1.200000000000 84.844328461011 22.265861761899 18.105993116921
5082 2 -1.200000000000 84.844328461011 24.492447938089 19.680427301001
5083 2 -1.200000000000 86.772608653307 21.152568673804 19.680427301001
5084 2 -1.200000000000 86.772608653307 23.379154849994 21.254861485081
5085 2 -1.200000000000 82.916048268716 21.152568673804 19.680427301001
5086 2 -1.200000000000 82.916048268716 23.379154849994 21.254861485081
5087 2 -1.200000000000 84.844328461011 20.039275585709 21.254861485081
5088 2 -1.200000000000 84.844328461011 22.265861761899 22.829295669162
5089 1 2.400000000000 88.700888845603 2.226586176190 6.297736736320
5090 1 2.400000000000 90.629169037899 3.339879264285 9.446605104481
5091 1 2.400000000000 86.772608653307 3.339879264285 9.446605104481
5092 1 2.400000000000 88.700888845603 0.000000000000 9.446605104481
5093 2 -1.200000000000 88.700888845603 2.226586176190 8.659388012441
5094 2 -1.200000000000 88.700888845603 4.453172352380 10.233822196521
5095 2 -1.200000000000 90.629169037899 1.113293088095 10.233822196521
5096 2 -1.200000000000 90.629169037899 3.339879264285 11.808256380601
5097 2 -1.200000000000 86.772608653307 1.113293088095 10.233822196521
5098 2 -1.200000000000 86.772608653307 3.339879264285 11.808256380601
5099 2 -1.200000000000 88.700888845603 0.000000000000 11.808256380601
5100 2 -1.200000000000 88.700888845603 2.226586176190 13.382690564681
5101 1 2.400000000000 88.700888845603 6.679758528570 9.446605104481
5102 1 2.400000000000 90.629169037899 7.793051616665 12.595473472641
5103 1 2.400000000000 86.772608653307 7.793051616665 12.595473472641
5104 1 2.400000000000 88.700888845603 4.453172352380 12.595473472641
5105 2 -1.200000000000 88.700888845603 6.679758528570 11.808256380601
5106 2 -1.200000000000 88.700888845603 8.906344704760 13.382690564681
5107 2 -1.200000000000 90.629169037899 5.566465440475 13.382690564681
5108 2 -1.200000000000 90.629169037899 7.793051616665 14.957124748761
5109 2 -1.200000000000 86.772608653307 5.566465440475 13.382690564681
5110 2 -1.200000000000 86.772608653307 7.793051616665 14.957124748761
5111 2 -1.200000000000 88.700888845603 4.453172352380 14.957124748761
5112 2 -1.200000000000 88.700888845603 6.679758528570 16.531558932841
5113 1 2.400000000000 88.700888845603 11.132930880950 12.595473472641
5114 1 2.400000000000 90.629169037899 12.246223969044 15.744341840801
5115 1 2.400000000000 86.772608653307 12.246223969044 15.744341840801
5116 1 2.400000000000 88.700888845603 8.906344704760 15.744341840801
5117 2 -1.200000000000 88.700888845603 11.132930880950 14.957124748761
5118 2 -1.200000000000 88.700888845603 13.359517057139 16.531558932841
5119 2 -1.200000000000 90.629169037899 10.019637792855 16.531558932841
5120 2 -1.200000000000 90.629169037899 12.246223969044 18.105993116921
5121 2 -1.200000000000 86.772608653307 10.019637792855 16.531558932841
5122 2 -1.200000000000 86.772608653307 12.246223969044 18.105993116921
5123 2 -1.200000000000 88.700888845603 8.906344704760 18.105993116921
5124 2 -1.200000000000 88.700888845603 11.132930880950 19.680427301001
5125 1 2.400000000000 88.700888845603 15.586103233329 15.744341840801
5126 1 2.400000000000 90.629169037899 16.699396321424 18.893210208961
5127 1 2.400000000000 86.772608653307 16.699396321424 18.893210208961
5128 1 2.400000000000 88.700888845603 13.359517057139 18.893210208961
5129 2 -1.200000000000 88.700888845603 15.586103233329 18.105993116921
5130 2 -1.200000000000 88.700888845603 17.812689409519 19.680427301001
5131 2 -1.200000000000 90.629169037899 14.472810145234 19.680427301001
5132 2 -1.200000000000 90.629169037899 16.699396321424 21.254861485081
5133 2 -1.200000000000 86.772608653307 14.472810145234 19.680427301001
5134 2 -1.200000000000 86.772608653307 16.699396321424 21.254861485081
5135 2 -1.200000000000 88.700888845603 13.359517057139 21.254861485081
5136 2 -1.200000000000 88.700888845603 15.586103233329 22.829295669162
5137 1 2.400000000000 88.700888845603 20.039275585709 18.893210208961
5138 1 2.400000000000 90.629169037899 21.152568673804 22.042078577122
5139 1 2.400000000000 86.772608653307 21.152568673804 22.042078577122
5140 1 2.400000000000 88.700888845603 17.812689409519 22.042078577122
5141 2 -1.200000000000 88.700888845603 20.039275585709 21.254861485081
5142 2 -1.200000000000 88.700888845603 22.265861761899 22.829295669162
5143 2 -1.200000000000 90.629169037899 18.925982497614 22.829295669162
5144 2 -1.200000000000 90.629169037899 21.152568673804 24.403729853242
5145 2 -1.200000000000 86.772608653307 18.925982497614 22.829295669162
5146 2 -1.200000000000 86.772608653307 21.152568673804 24.403729853242
5147 2 -1.200000000000 88.700888845603 17.812689409519 24.403729853242
5148 2 -1.200000000000 88.700888845603 20.039275585709 25.978164037322
5149 1 2.400000000000 88.700888845603 24.492447938089 22.042078577122
5150 1 2.400000000000 90.629169037899 25.605741026184 25.190946945282
5151 1 2.400000000000 86.772608653307 25.605741026184 25.190946945282
5152 1 2.400000000000 88.700888845603 22.265861761899 25.190946945282
5153 2 -1.200000000000 88.700888845603 24.492447938089 24.403729853242
5154 2 -1.200000000000 88.700888845603 0.000000000000 25.978164037322
5155 2 -1.200000000000 90.629169037899 23.379154849994 25.978164037322
5156 2 -1.200000000000 90.629169037899 25.605741026184 27.552598221402
5157 2 -1.200000000000 86.772608653307 23.379154849994 25.978164037322
5158 2 -1.200000000000 86.772608653307 25.605741026184 27.552598221402
5159 2 -1.200000000000 88.700888845603 22.265861761899 27.552598221402
5160 2 -1.200000000000 88.700888845603 24.492447938089 0.787217092040
5161 1 2.400000000000 92.557449230194 0.000000000000 9.446605104481
5162 1 2.400000000000 94.485729422490 1.113293088095 12.595473472641
5163 1 2.400000000000 90.629169037899 1.113293088095 12.595473472641
5164 1 2.400000000000 92.557449230194 24.492447938089 12.595473472641
5165 2 -1.200000000000 92.557449230194 0.000000000000 11.808256380601
5166 2 -1.200000000000 92.557449230194 2.226586176190 13.382690564681
5167 2 -1.200000000000 94.485729422490 25.605741026184 13.382690564681
5168 2 -1.200000000000 94.485729422490 1.113293088095 14.957124748761
5169 2 -1.200000000000 90.629169037899 25.605741026184 13.382690564681
5170 2 -1.200000000000 90.629169037899 1.113293088095 14.957124748761
5171 2 -1.200000000000 92.557449230194 24.492447938089 14.957124748761
5172 2 -1.200000000000 92.557449230194 0.000000000000 16.531558932841
5173 1 2.400000000000 92.557449230194 4.453172352380 12.595473472641
5174 1 2.400000000000 94.485729422490 5.566465440475 15.744341840801
5175 1 2.400000000000 90.629169037899 5.566465440475 15.744341840801
5176 1 2.400000000000 92.557449230194 2.226586176190 15.744341840801
5177 2 -1.200000000000 92.557449230194 4.453172352380 14.957124748761
5178 2 -1.200000000000 92.557449230194 6.679758528570 16.531558932841
5179 2 -1.200000000000 94.485729422490 3.339879264285 16.531558932841
5180 2 -1.200000000000 94.485729422490 5.566465440475 18.105993116921
5181 2 -1.200000000000 90.629169037899 3.339879264285 16.531558932841
5182 2 -1.200000000000 90.629169037899 5.566465440475 18.105993116921
5183 2 -1.200000000000 92.557449230194 2.226586176190 18.105993116921
5184 2 -1.200000000000 92.557449230194 4.453172352380 19.680427301001
5185 1 2.400000000000 92.557449230194 8.906344704760 15.744341840801
5186 1 2.400000000000 94.485729422490 10.019637792855 18.893210208961
5187 1 2.400000000000 90.629169037899 10.019637792855 18.893210208961
5188 1 2.400000000000 92.557449230194 6.679758528570 18.893210208961
5189 2 -1.200000000000 92.557449230194 8.906344704760 18.105993116921
5190 2 -1.200000000000 92.557449230194 11.132930880950 19.680427301001
5191 2 -1.200000000000 94.485729422490 7.793051616665 19.680427301001
5192 2 -1.200000000000 94.485729422490 10.019637792855 21.254861485081
5193 2 -1.200000000000 90.629169037899 7.793051616665 19.680427301001
5194 2 -1.200000000000 90.629169037899 10.019637792855 21.254861485081
5195 2 -1.200000000000 92.557449230194 6.679758528570 21.254861485081
5196 2 -1.200000000000 92.557449230194 8.906344704760 22.829295669162
5197 1 2.400000000000 92.557449230194 13.359517057139 18.893210208961
5198 1 2.400000000000 94.485729422490 14.472810145234 22.042078577122
5199 1 2.400000000000 90.629169037899 14.472810145234 22.042078577122
5200 1 2.400000000000 92.557449230194 11.132930880950 22.042078577122
5201 2 -1.200000000000 92.557449230194 13.359517057139 21.254861485081
5202 2 -1.200000000000 92.557449230194 15.586103233329 22.829295669162
5203 2 -1.200000000000 94.485729422490 12.246223969044 22.829295669162
5204 2 -1.200000000000 94.485729422490 14.472810145234 24.403729853242
5205 2 -1.200000000000 90.629169037899 12.246223969044 22.829295669162
5206 2 -1.200000000000 90.629169037899 14.472810145234 24.403729853242
5207 2 -1.200000000000 92.557449230194 11.132930880950 24.403729853242
5208 2 -1.200000000000 92.557449230194 13.359517057139 25.978164037322
5209 1 2.400000000000 92.557449230194 17.812689409519 22.042078577122
5210 1 2.400000000000 94.485729422490 18.925982497614 25.190946945282
5211 1 2.400000000000 90.629169037899 18.925982497614 25.190946945282
5212 1 2.400000000000 92.557449230194 15.586103233329 25.190946945282
5213 2 -1.200000000000 92.557449230194 17.812689409519 24.403729853242
5214 2 -1.200000000000 92.557449230194 20.039275585709 25.978164037322
5215 2 -1.200000000000 94.485729422490 16.699396321424 25.978164037322
5216 2 -1.200000000000 94.485729422490 18.925982497614 27.552598221402
5217 2 -1.200000000000 90.629169037899 16.699396321424 25.978164037322
5218 2 -1.200000000000 90.629169037899 18.925982497614 27.552598221402
5219 2 -1.200000000000 92.557449230194 15.586103233329 27.552598221402
5220 2 -1.200000000000 92.557449230194 17.812689409519 0.787217092040
5221 1 2.400000000000 92.557449230194 22.265861761899 25.190946945282
5222 1 2.400000000000 94.485729422490 23.379154849994 0.000000000000
5223 1 2.400000000000 90.629169037899 23.379154849994 0.000000000000
5224 1 2.400000000000 92.557449230194 20.039275585709 0.000000000000
5225 2 -1.200000000000 92.557449230194 22.265861761899 27.552598221402
5226 2 -1.200000000000 92.557449230194 24.492447938089 0.787217092040
5227 2 -1.200000000000 94.485729422490 21.152568673804 0.787217092040
5228 2 -1.200000000000 94.485729422490 23.379154849994 2.361651276120
5229 2 -1.200000000000 90.629169037899 21.152568673804 0.787217092040
5230 2 -1.200000000000 90.629169037899 23.379154849994 2.361651276120
5231 2 -1.200000000000 92.557449230194 20.039275585709 2.361651276120
5232 2 -1.200000000000 92.557449230194 22.265861761899 3.936085460200
5233 1 2.400000000000 96.414009614786 2.226586176190 15.744341840801
5234 1 2.400000000000 98.342289807081 3.339879264285 18.893210208961
5235 1 2.400000000000 94.485729422490 3.339879264285 18.893210208961
5236 1 2.400000000000 96.414009614786 0.000000000000 18.893210208961
5237 2 -1.200000000000 96.414009614786 2.226586176190 18.105993116921
5238 2 -1.200000000000 96.414009614786 4.453172352380 19.680427301001
5239 2 -1.200000000000 98.342289807081 1.113293088095 19.680427301001
5240 2 -1.200000000000 98.342289807081 3.339879264285 21.254861485081
5241 2 -1.200000000000 94.485729422490 1.113293088095 19.680427301001
5242 2 -1.200000000000 94.485729422490 3.339879264285 21.254861485081
5243 2 -1.200000000000 96.414009614786 0.000000000000 21.254861485081
5244 2 -1.200000000000 96.414009614786 2.226586176190 22.829295669162
5245 1 2.400000000000 96.414009614786 6.679758528570 18.893210208961
5246 1 2.400000000000 98.342289807081 7.793051616665 22.042078577122
5247 1 2.400000000000 94.485729422490 7.793051616665 22.042078577122
5248 1 2.400000000000 96.414009614786 4.453172352380 22.042078577122
5249 2 -1.200000000000 96.414009614786 6.679758528570 21.254861485081
5250 2 -1.200000000000 96.414009614786 8.906344704760 22.829295669162
5251 2 -1.200000000000 98.342289807081 5.566465440475 22.829295669162
5252 2 -1.200000000000 98.342289807081 7.793051616665 24.403729853242
5253 2 -1.200000000000 94.485729422490 5.566465440475 22.829295669162
5254 2 -1.200000000000 94.485729422490 7.793051616665 24.403729853242
5255 2 -1.200000000000 96.414009614786 4.453172352380 24.403729853242
5256 2 -1.200000000000 96.414009614786 6.679758528570 25.978164037322
5257 1 2.400000000000 96.414009614786 11.132930880950 22.042078577122
5258 1 2.400000000000 98.342289807081 12.246223969045 25.190946945282
5259 1 2.400000000000 94.485729422490 12.246223969045 25.190946945282
5260 1 2.400000000000 96.414009614786 8.906344704760 25.190946945282
5261 2 -1.200000000000 96.414009614786 11.132930880950 24.403729853242
5262 2 -1.200000000000 96.414009614786 13.359517057139 25.978164037322
5263 2 -1.200000000000 98.342289807081 10.019637792855 25.978164037322
5264 2 -1.200000000000 98.342289807081 12.246223969044 27.552598221402
5265 2 -1.200000000000 94.485729422490 10.019637792855 25.978164037322
5266 2 -1.200000000000 94.485729422490 12.246223969044 27.552598221402
5267 2 -1.200000000000 96.414009614786 8.906344704760 27.552598221402
5268 2 -1.200000000000 96.414009614786 11.132930880950 0.787217092040
5269 1 2.400000000000 96.414009614786 15.586103233329 25.190946945282
5270 1 2.400000000000 98.342289807081 16.699396321424 0.000000000000
5271 1 2.400000000000 94.485729422490 16.699396321424 0.000000000000
5272 1 2.400000000000 96.414009614786 13.359517057139 0.000000000000
5273 2 -1.200000000000 96.414009614786 15.586103233329 27.552598221402
5274 2 -1.200000000000 96.414009614786 17.812689409519 0.787217092040
5275 2 -1.200000000000 98.342289807081 14.472810145234 0.787217092040
5276 2 -1.200000000000 98.342289807081 16.699396321424 2.361651276120
5277 2 -1.200000000000 94.485729422490 14.472810145234 0.787217092040
5278 2 -1.200000000000 94.485729422490 16.699396321424 2.361651276120
5279 2 -1.200000000000 96.414009614786 13.359517057139 2.361651276120
5280 2 -1.200000000000 96.414009614786 15.586103233329 3.936085460200
5281 1 2.400000000000 100.270569999377 0.000000000000 18.893210208961
5282 1 2.400000000000 102.198850191673 1.113293088095 22.042078577122
5283 1 2.400000000000 98.342289807081 1.113293088095 22.042078577122
5284 1 2.400000000000 100.270569999377 24.492447938089 22.042078577122
5285 2 -1.200000000000 100.270569999377 0.000000000000 21.254861485081
5286 2 -1.200000000000 100.270569999377 2.226586176190 22.829295669162
5287 2 -1.200000000000 102.198850191673 25.605741026184 22.829295669162
5288 2 -1.200000000000 102.198850191673 1.113293088095 24.403729853242
5289 2 -1.200000000000 98.342289807081 25.605741026184 22.829295669162
5290 2 -1.200000000000 98.342289807081 1.113293088095 24.403729853242
5291 2 -1.200000000000 100.270569999377 24.492447938089 24.403729853242
5292 2 -1.200000000000 100.270569999377 0.000000000000 25.978164037322
5293 1 2.400000000000 100.270569999377 4.453172352380 22.042078577122
5294 1 2.400000000000 102.198850191673 5.566465440475 25.190946945282
5295 1 2.400000000000 98.342289807081 5.566465440475 25.190946945282
5296 1 2.400000000000 100.270569999377 2.226586176190 25.190946945282
5297 2 -1.200000000000 100.270569999377 4.453172352380 24.403729853242
5298 2 -1.200000000000 100.270569999377 6.679758528570 25.978164037322
5299 2 -1.200000000000 102.198850191673 3.339879264285 25.978164037322
5300 2 -1.200000000000 102.198850191673 5.566465440475 27.552598221402
5301 2 -1.200000000000 98.342289807081 3.339879264285 25.978164037322
5302 2 -1.200000000000 98.342289807081 5.566465440475 27.552598221402
5303 2 -1.200000000000 100.270569999377 2.226586176190 27.552598221402
5304 2 -1.200000000000 100.270569999377 4.453172352380 0.787217092040
5305 1 2.400000000000 100.270569999377 8.906344704760 25.190946945282
5306 1 2.400000000000 102.198850191673 10.019637792855 0.000000000000
5307 1 2.400000000000 98.342289807081 10.019637792855 0.000000000000
5308 1 2.400000000000 100.270569999377 6.679758528570 0.000000000000
5309 2 -1.200000000000 100.270569999377 8.906344704760 27.552598221402
5310 2 -1.200000000000 100.270569999377 11.132930880950 0.787217092040
5311 2 -1.200000000000 102.198850191673 7.793051616665 0.787217092040
5312 2 -1.200000000000 102.198850191673 10.019637792855 2.361651276120
5313 2 -1.200000000000 98.342289807081 7.793051616665 0.787217092040
5314 2 -1.200000000000 98.342289807081 10.019637792855 2.361651276120
5315 2 -1.200000000000 100.270569999377 6.679758528570 2.361651276120
5316 2 -1.200000000000 100.270569999377 8.906344704760 3.936085460200
5317 1 2.400000000000 104.127130383969 2.226586176190 25.190946945282
5318 1 2.400000000000 106.055410576264 3.339879264285 0.000000000000
5319 1 2.400000000000 102.198850191673 3.339879264285 0.000000000000
5320 1 2.400000000000 104.127130383969 0.000000000000 0.000000000000
5321 2 -1.200000000000 104.127130383969 2.226586176190 27.552598221402
5322 2 -1.200000000000 104.127130383969 4.453172352380 0.787217092040
5323 2 -1.200000000000 106.055410576264 1.113293088095 0.787217092040
5324 2 -1.200000000000 106.055410576264 3.339879264285 2.361651276120
5325 2 -1.200000000000 102.198850191673 1.113293088095 0.787217092040
5326 2 -1.200000000000 102.198850191673 3.339879264285 2.361651276120
5327 2 -1.200000000000 104.127130383969 0.000000000000 2.361651276120
5328 2 -1.200000000000 104.127130383969 2.226586176190 3.936085460200
5329 1 2.400000000000 65.561526538054 20.039275585709 0.000000000000
5330 1 2.400000000000 67.489806730350 21.152568673804 3.148868368160
5331 1 2.400000000000 63.633246345759 21.152568673804 3.148868368160
5332 1 2.400000000000 65.561526538054 17.812689409519 3.148868368160
5333 2 -1.200000000000 65.561526538054 20.039275585709 2.361651276120
5334 2 -1.200000000000 65.561526538054 22.265861761899 3.936085460200
5335 2 -1.200000000000 67.489806730350 18.925982497614 3.936085460200
5336 2 -1.200000000000 67.489806730350 21.152568673804 5.510519644280
5337 2 -1.200000000000 63.633246345759 18.925982497614 3.936085460200
5338 2 -1.200000000000 63.633246345759 21.152568673804 5.510519644280
5339 2 -1.200000000000 65.561526538054 17.812689409519 5.510519644280
5340 2 -1.200000000000 65.561526538054 20.039275585709 7.084953828360
5341 1 2.400000000000 65.561526538054 24.492447938089 3.148868368160
5342 1 2.400000000000 67.489806730350 25.605741026184 6.297736736320
5343 1 2.400000000000 63.633246345759 25.605741026184 6.297736736320
5344 1 2.400000000000 65.561526538054 22.265861761899 6.297736736320
5345 2 -1.200000000000 65.561526538054 24.492447938089 5.510519644280
5346 2 -1.200000000000 65.561526538054 0.000000000000 7.084953828360
5347 2 -1.200000000000 67.489806730350 23.379154849994 7.084953828360
5348 2 -1.200000000000 67.489806730350 25.605741026184 8.659388012441
5349 2 -1.200000000000 63.633246345759 23.379154849994 7.084953828360
5350 2 -1.200000000000 63.633246345759 25.605741026184 8.659388012441
5351 2 -1.200000000000 65.561526538054 22.265861761899 8.659388012441
5352 2 -1.200000000000 65.561526538054 24.492447938089 10.233822196521
5353 1 2.400000000000 69.418086922646 13.359517057139 0.000000000000
5354 1 2.400000000000 71.346367114941 14.472810145234 3.148868368160
5355 1 2.400000000000 67.489806730350 14.472810145234 3.148868368160
5356 1 2.400000000000 69.418086922646 11.132930880950 3.148868368160
5357 2 -1.200000000000 69.418086922646 13.359517057139 2.361651276120
5358 2 -1.200000000000 69.418086922646 15.586103233329 3.936085460200
5359 2 -1.200000000000 71.346367114941 12.246223969045 3.936085460200
5360 2 -1.200000000000 71.346367114941 14.472810145234 5.510519644280
5361 2 -1.200000000000 67.489806730350 12.246223969045 3.936085460200
5362 2 -1.200000000000 67.489806730350 14.472810145234 5.510519644280
5363 2 -1.200000000000 69.418086922646 11.132930880950 5.510519644280
5364 2 -1.200000000000 69.418086922646 13.359517057139 7.084953828360
5365 1 2.400000000000 69.418086922646 17.812689409519 3.148868368160
5366 1 2.400000000000 71.346367114941 18.925982497614 6.297736736320
5367 1 2.400000000000 67.489806730350 18.925982497614 6.297736736320
5368 1 2.400000000000 69.418086922646 15.586103233329 6.297736736320
5369 2 -1.200000000000 69.418086922646 17.812689409519 5.510519644280
5370 2 -1.200000000000 69.418086922646 20.039275585709 7.084953828360
5371 2 -1.200000000000 71.346367114941 16.699396321424 7.084953828360
5372 2 -1.200000000000 71.346367114941 18.925982497614 8.659388012441
5373 2 -1.200000000000 67.489806730350 16.699396321424 7.084953828360
5374 2 -1.200000000000 67.489806730350 18.925982497614 8.659388012441
5375 2 -1.200000000000 69.418086922646 15.586103233329 8.659388012441
5376 2 -1.200000000000 69.418086922646 17.812689409519 10.233822196521
5377 1 2.400000000000 69.418086922646 22.265861761899 6.297736736320
5378 1 2.400000000000 71.346367114941 23.379154849994 9.446605104481
5379 1 2.400000000000 67.489806730350 23.379154849994 9.446605104481
5380 1 2.400000000000 69.418086922646 20.039275585709 9.446605104481
5381 2 -1.200000000000 69.418086922646 22.265861761899 8.659388012441
5382 2 -1.200000000000 69.418086922646 24.492447938089 10.233822196521
5383 2 -1.200000000000 71.346367114941 21.152568673804 10.233822196521
5384 2 -1.200000000000 71.346367114941 23.379154849994 11.808256380601
5385 2 -1.200000000000 67.489806730350 21.152568673804 10.233822196521
5386 2 -1.200000000000 67.489806730350 23.379154849994 11.808256380601
5387 2 -1.200000000000 69.418086922646 20.039275585709 11.808256380601
5388 2 -1.200000000000 69.418086922646 22.265861761899 13.382690564681
5389 1 2.400000000000 73.274647307237 6.679758528570 0.000000000000
5390 1 2.400000000000 75.202927499533 7.793051616665 3.148868368160
5391 1 2.400000000000 71.346367114941 7.793051616665 3.148868368160
5392 1 2.400000000000 73.274647307237 4.453172352380 3.148868368160
5393 2 -1.200000000000 73.274647307237 6.679758528570 2.361651276120
5394 2 -1.200000000000 73.274647307237 8.906344704760 3.936085460200
5395 2 -1.200000000000 75.202927499533 5.566465440475 3.936085460200
5396 2 -1.200000000000 75.202927499533 7.793051616665 5.510519644280
5397 2 -1.200000000000 71.346367114941 5.566465440475 3.936085460200
5398 2 -1.200000000000 71.346367114941 7.793051616665 5.510519644280
5399 2 -1.200000000000 73.274647307237 4.453172352380 5.510519644280
5400 2 -1.200000000000 73.274647307237 6.679758528570 7.084953828360
5401 1 2.400000000000 73.274647307237 11.132930880950 3.148868368160
5402 1 2.400000000000 75.202927499533 12.246223969045 6.297736736320
5403 1 2.400000000000 71.346367114941 12.246223969045 6.297736736320
5404 1 2.400000000000 73.274647307237 8.906344704760 6.297736736320
5405 2 -1.200000000000 73.274647307237 11.132930880950 5.510519644280
5406 2 -1.200000000000 73.274647307237 13.359517057139 7.084953828360
5407 2 -1.200000000000 75.202927499533 10.019637792855 7.084953828360
5408 2 -1.200000000000 75.202927499533 12.246223969045 8.659388012441
5409 2 -1.200000000000 71.346367114941 10.019637792855 7.084953828360
5410 2 -1.200000000000 71.346367114941 12.246223969045 8.659388012441
5411 2 -1.200000000000 73.274647307237 8.906344704760 8.659388012441
5412 2 -1.200000000000 73.274647307237 11.132930880950 10.233822196521
5413 1 2.400000000000 73.274647307237 15.586103233329 6.297736736320
5414 1 2.400000000000 75.202927499533 16.699396321424 9.446605104481
5415 1 2.400000000000 71.346367114941 16.699396321424 9.446605104481
5416 1 2.400000000000 73.274647307237 13.359517057139 9.446605104481
5417 2 -1.200000000000 73.274647307237 15.586103233329 8.659388012441
5418 2 -1.200000000000 73.274647307237 17.812689409519 10.233822196521
5419 2 -1.200000000000 75.202927499533 14.472810145234 10.233822196521
5420 2 -1.200000000000 75.202927499533 16.699396321424 11.808256380601
5421 2 -1.200000000000 71.346367114941 14.472810145234 10.233822196521
5422 2 -1.200000000000 71.346367114941 16.699396321424 11.808256380601
5423 2 -1.200000000000 73.274647307237 13.359517057139 11.808256380601
5424 2 -1.200000000000 73.274647307237 15.586103233329 13.382690564681
5425 1 2.400000000000 73.274647307237 20.039275585709 9.446605104481
5426 1 2.400000000000 75.202927499533 21.152568673804 12.595473472641
5427 1 2.400000000000 71.346367114941 21.152568673804 12.595473472641
5428 1 2.400000000000 73.274647307237 17.812689409519 12.595473472641
5429 2 -1.200000000000 73.274647307237 20.039275585709 11.808256380601
5430 2 -1.200000000000 73.274647307237 22.265861761899 13.382690564681
5431 2 -1.200000000000 75.202927499533 18.925982497614 13.382690564681
5432 2 -1.200000000000 75.202927499533 21.152568673804 14.957124748761
5433 2 -1.200000000000 71.346367114941 18.925982497614 13.382690564681
5434 2 -1.200000000000 71.346367114941 21.152568673804 14.957124748761
5435 2 -1.200000000000 73.274647307237 17.812689409519 14.957124748761
5436 2 -1.200000000000 73.274647307237 20.039275585709 16.531558932841
5437 1 2.400000000000 73.274647307237 24.492447938089 12.595473472641
5438 1 2.400000000000 75.202927499533 25.605741026184 15.744341840801
5439 1 2.400000000000 71.346367114941 25.605741026184 15.744341840801
5440 1 2.400000000000 73.274647307237 22.265861761899 15.744341840801
5441 2 -1.200000000000 73.274647307237 24.492447938089 14.957124748761
5442 2 -1.200000000000 73.274647307237 0.000000000000 16.531558932841
5443 2 -1.200000000000 75.202927499533 23.379154849994 16.531558932841
5444 2 -1.200000000000 75.202927499533 25.605741026184 18.105993116921
5445 2 -1.200000000000 71.346367114941 23.379154849994 16.531558932841
5446 2 -1.200000000000 71.346367114941 25.605741026184 18.105993116921
5447 2 -1.200000000000 73.274647307237 22.265861761899 18.105993116921
5448 2 -1.200000000000 73.274647307237 24.492447938089 19.680427301001
5449 1 2.400000000000 77.131207691829 0.000000000000 0.000000000000
5450 1 2.400000000000 79.059487884124 1.113293088095 3.148868368160
5451 1 2.400000000000 75.202927499533 1.113293088095 3.148868368160
5452 1 2.400000000000 77.131207691829 24.492447938089 3.148868368160
5453 2 -1.200000000000 77.131207691829 0.000000000000 2.361651276120
5454 2 -1.200000000000 77.131207691829 2.226586176190 3.936085460200
5455 2 -1.200000000000 79.059487884124 25.605741026184 3.936085460200
5456 2 -1.200000000000 79.059487884124 1.113293088095 5.510519644280
5457 2 -1.200000000000 75.202927499533 25.605741026184 3.936085460200
5458 2 -1.200000000000 75.202927499533 1.113293088095 5.510519644280
5459 2 -1.200000000000 77.131207691829 24.492447938089 5.510519644280
5460 2 -1.200000000000 77.131207691829 0.000000000000 7.084953828360
5461 1 2.400000000000 77.131207691829 4.453172352380 3.148868368160
5462 1 2.400000000000 79.059487884124 5.566465440475 6.297736736320
5463 1 2.400000000000 75.202927499533 5.566465440475 6.297736736320
5464 1 2.400000000000 77.131207691829 2.226586176190 6.297736736320
5465 2 -1.200000000000 77.131207691829 4.453172352380 5.510519644280
5466 2 -1.200000000000 77.131207691829 6.679758528570 7.084953828360
5467 2 -1.200000000000 79.059487884124 3.339879264285 7.084953828360
5468 2 -1.200000000000 79.059487884124 5.566465440475 8.659388012441
5469 2 -1.200000000000 75.202927499533 3.339879264285 7.084953828360
5470 2 -1.200000000000 75.202927499533 5.566465440475 8.659388012441
5471 2 -1.200000000000 77.131207691829 2.226586176190 8.659388012441
5472 2 -1.200000000000 77.131207691829 4.453172352380 10.233822196521
5473 1 2.400000000000 77.131207691829 8.906344704760 6.297736736320
5474 1 2.400000000000 79.059487884124 10.019637792855 9.446605104481
5475 1 2.400000000000 75.202927499533 10.019637792855 9.446605104481
5476 1 2.400000000000 77.131207691829 6.679758528570 9.446605104481
5477 2 -1.200000000000 77.131207691829 8.906344704760 8.659388012441
5478 2 -1.200000000000 77.131207691829 11.132930880950 10.233822196521
5479 2 -1.200000000000 79.059487884124 7.793051616665 10.233822196521
5480 2 -1.200000000000 79.059487884124 10.019637792855 11.808256380601
5481 2 -1.200000000000 75.202927499533 7.793051616665 10.233822196521
5482 2 -1.200000000000 75.202927499533 10.019637792855 11.808256380601
5483 2 -1.200000000000 77.131207691829 6.679758528570 11.808256380601
5484 2 -1.200000000000 77.131207691829 8.906344704760 13.382690564681
5485 1 2.400000000000 77.131207691829 13.359517057139 9.446605104481
5486 1 2.400000000000 79.059487884124 14.472810145234 12.595473472641
5487 1 2.400000000000 75.202927499533 14.472810145234 12.595473472641
5488 1 2.400000000000 77.131207691829 11.132930880950 12.595473472641
5489 2 -1.200000000000 77.131207691829 13.359517057139 11.808256380601
5490 2 -1.200000000000 77.131207691829 15.586103233329 13.382690564681
5491 2 -1.200000000000 79.059487884124 12.246223969044 13.382690564681
5492 2 -1.200000000000 79.059487884124 14.472810145234 14.957124748761
5493 2 -1.200000000000 75.202927499533 12.246223969044 13.382690564681
5494 2 -1.200000000000 75.202927499533 14.472810145234 14.957124748761
5495 2 -1.200000000000 77.131207691829 11.132930880950 14.957124748761
5496 2 -1.200000000000 77.131207691829 13.359517057139 16.531558932841
5497 1 2.400000000000 77.131207691829 17.812689409519 12.595473472641
5498 1 2.400000000000 79.059487884124 18.925982497614 15.744341840801
5499 1 2.400000000000 75.202927499533 18.925982497614 15.744341840801
5500 1 2.400000000000 77.131207691829 15.586103233329 15.744341840801
5501 2 -1.200000000000 77.131207691829 17.812689409519 14.957124748761
5502 2 -1.200000000000 77.131207691829 20.039275585709 16.531558932841
5503 2 -1.200000000000 79.059487884124 16.699396321424 16.531558932841
5504 2 -1.200000000000 79.059487884124 18.925982497614 18.105993116921
5505 2 -1.200000000000 75.202927499533 16.699396321424 16.531558932841
5506 2 -1.200000000000 75.202927499533 18.925982497614 18.105993116921
5507 2 -1.200000000000 77.131207691829 15.586103233329 18.105993116921
5508 2 -1.200000000000 77.131207691829 17.812689409519 19.680427301001
5509 1 2.400000000000 77.131207691829 22.265861761899 15.744341840801
5510 1 2.400000000000 79.059487884124 23.379154849994 18.893210208961
5511 1 2.400000000000 75.202927499533 23.379154849994 18.893210208961
5512 1 2.400000000000 77.131207691829 20.039275585709 18.893210208961
5513 2 -1.200000000000 77.131207691829 22.265861761899 18.105993116921
5514 2 -1.200000000000 77.131207691829 24.492447938089 19.680427301001
5515 2 -1.200000000000 79.059487884124 21.152568673804 19.680427301001
5516 2 -1.200000000000 79.059487884124 23.379154849994 21.254861485081
5517 2 -1.200000000000 75.202927499533 21.152568673804 19.680427301001
5518 2 -1.200000000000 75.202927499533 23.379154849994 21.254861485081
5519 2 -1.200000000000 77.131207691829 20.039275585709 21.254861485081
5520 2 -1.200000000000 77.131207691829 22.265861761899 22.829295669162
5521 1 2.400000000000 80.987768076420 2.226586176190 6.297736736320
5522 1 2.400000000000 82.916048268716 3.339879264285 9.446605104481
5523 1 2.400000000000 79.059487884124 3.339879264285 9.446605104481
5524 1 2.400000000000 80.987768076420 0.000000000000 9.446605104481
5525 2 -1.200000000000 80.987768076420 2.226586176190 8.659388012441
5526 2 -1.200000000000 80.987768076420 4.453172352380 10.233822196521
5527 2 -1.200000000000 82.916048268716 1.113293088095 10.233822196521
5528 2 -1.200000000000 82.916048268716 3.339879264285 11.808256380601
5529 2 -1.200000000000 79.059487884124 1.113293088095 10.233822196521
5530 2 -1.200000000000 79.059487884124 3.339879264285 11.808256380601
5531 2 -1.200000000000 80.987768076420 0.000000000000 11.808256380601
5532 2 -1.200000000000 80.987768076420 2.226586176190 13.382690564681
5533 1 2.400000000000 80.987768076420 6.679758528570 9.446605104481
5534 1 2.400000000000 82.916048268716 7.793051616665 12.595473472641
5535 1 2.400000000000 79.059487884124 7.793051616665 12.595473472641
5536 1 2.400000000000 80.987768076420 4.453172352380 12.595473472641
5537 2 -1.200000000000 80.987768076420 6.679758528570 11.808256380601
5538 2 -1.200000000000 80.987768076420 8.906344704760 13.382690564681
5539 2 -1.200000000000 82.916048268716 5.566465440475 13.382690564681
5540 2 -1.200000000000 82.916048268716 7.793051616665 14.957124748761
5541 2 -1.200000000000 79.059487884124 5.566465440475 13.382690564681
5542 2 -1.200000000000 79.059487884124 7.793051616665 14.957124748761
5543 2 -1.200000000000 80.987768076420 4.453172352380 14.957124748761
5544 2 -1.200000000000 80.987768076420 6.679758528570 16.531558932841
5545 1 2.400000000000 80.987768076420 11.132930880950 12.595473472641
5546 1 2.400000000000 82.916048268716 12.246223969045 15.744341840801
5547 1 2.400000000000 79.059487884124 12.246223969045 15.744341840801
5548 1 2.400000000000 80.987768076420 8.906344704760 15.744341840801
5549 2 -1.200000000000 80.987768076420 11.132930880950 14.957124748761
5550 2 -1.200000000000 80.987768076420 13.359517057139 16.531558932841
5551 2 -1.200000000000 82.916048268716 10.019637792855 16.531558932841
5552 2 -1.200000000000 82.916048268716 12.246223969044 18.105993116921
5553 2 -1.200000000000 79.059487884124 10.019637792855 16.531558932841
5554 2 -1.200000000000 79.059487884124 12.246223969044 18.105993116921
5555 2 -1.200000000000 80.987768076420 8.906344704760 18.105993116921
5556 2 -1.200000000000 80.987768076420 11.132930880950 19.680427301001
5557 1 2.400000000000 80.987768076420 15.586103233329 15.744341840801
5558 1 2.400000000000 82.916048268716 16.699396321424 18.893210208961
5559 1 2.400000000000 79.059487884124 16.699396321424 18.893210208961
5560 1 2.400000000000 80.987768076420 13.359517057139 18.893210208961
5561 2 -1.200000000000 80.987768076420 15.586103233329 18.105993116921
5562 2 -1.200000000000 80.987768076420 17.812689409519 19.680427301001
5563 2 -1.200000000000 82.916048268716 14.472810145234 19.680427301001
5564 2 -1.200000000000 82.916048268716 16.699396321424 21.254861485081
5565 2 -1.200000000000 79.059487884124 14.472810145234 19.680427301001
5566 2 -1.200000000000 79.059487884124 16.699396321424 21.254861485081
5567 2 -1.200000000000 80.987768076420 13.359517057139 21.254861485081
5568 2 -1.200000000000 80.987768076420 15.586103233329 22.829295669162
5569 1 2.400000000000 80.987768076420 20.039275585709 18.893210208961
5570 1 2.400000000000 82.916048268716 21.152568673804 22.042078577122
5571 1 2.400000000000 79.059487884124 21.152568673804 22.042078577122
5572 1 2.400000000000 80.987768076420 17.812689409519 22.042078577122
5573 2 -1.200000000000 80.987768076420 20.039275585709 21.254861485081
5574 2 -1.200000000000 80.987768076420 22.265861761899 22.829295669162
5575 2 -1.200000000000 82.916048268716 18.925982497614 22.829295669162
5576 2 -1.200000000000 82.916048268716 21.152568673804 24.403729853242
5577 2 -1.200000000000 79.059487884124 18.925982497614 22.829295669162
5578 2 -1.200000000000 79.059487884124 21.152568673804 24.403729853242
5579 2 -1.200000000000 80.987768076420 17.812689409519 24.403729853242
5580 2 -1.200000000000 80.987768076420 20.039275585709 25.978164037322
5581 1 2.400000000000 80.987768076420 24.492447938089 22.042078577122
5582 1 2.400000000000 82.916048268716 25.605741026184 25.190946945282
5583 1 2.400000000000 79.059487884124 25.605741026184 25.190946945282
5584 1 2.400000000000 80.987768076420 22.265861761899 25.190946945282
5585 2 -1.200000000000 80.987768076420 24.492447938089 24.403729853242
5586 2 -1.200000000000 80.987768076420 0.000000000000 25.978164037322
5587 2 -1.200000000000 82.916048268716 23.379154849994 25.978164037322
5588 2 -1.200000000000 82.916048268716 25.605741026184 27.552598221402
5589 2 -1.200000000000 79.059487884124 23.379154849994 25.978164037322
5590 2 -1.200000000000 79.059487884124 25.605741026184 27.552598221402
5591 2 -1.200000000000 80.987768076420 22.265861761899 27.552598221402
5592 2 -1.200000000000 80.987768076420 24.492447938089 0.787217092040
5593 1 2.400000000000 84.844328461011 0.000000000000 9.446605104481
5594 1 2.400000000000 86.772608653307 1.113293088095 12.595473472641
5595 1 2.400000000000 82.916048268716 1.113293088095 12.595473472641
5596 1 2.400000000000 84.844328461011 24.492447938089 12.595473472641
5597 2 -1.200000000000 84.844328461011 0.000000000000 11.808256380601
5598 2 -1.200000000000 84.844328461011 2.226586176190 13.382690564681
5599 2 -1.200000000000 86.772608653307 25.605741026184 13.382690564681
5600 2 -1.200000000000 86.772608653307 1.113293088095 14.957124748761
5601 2 -1.200000000000 82.916048268716 25.605741026184 13.382690564681
5602 2 -1.200000000000 82.916048268716 1.113293088095 14.957124748761
5603 2 -1.200000000000 84.844328461011 24.492447938089 14.957124748761
5604 2 -1.200000000000 84.844328461011 0.000000000000 16.531558932841
5605 1 2.400000000000 84.844328461011 4.453172352380 12.595473472641
5606 1 2.400000000000 86.772608653307 5.566465440475 15.744341840801
5607 1 2.400000000000 82.916048268716 5.566465440475 15.744341840801
5608 1 2.400000000000 84.844328461011 2.226586176190 15.744341840801
5609 2 -1.200000000000 84.844328461011 4.453172352380 14.957124748761
5610 2 -1.200000000000 84.844328461011 6.679758528570 16.531558932841
5611 2 -1.200000000000 86.772608653307 3.339879264285 16.531558932841
5612 2 -1.200000000000 86.772608653307 5.566465440475 18.105993116921
5613 2 -1.200000000000 82.916048268716 3.339879264285 16.531558932841
5614 2 -1.200000000000 82.916048268716 5.566465440475 18.105993116921
5615 2 -1.200000000000 84.844328461011 2.226586176190 18.105993116921
5616 2 -1.200000000000 84.844328461011 4.453172352380 19.680427301001
5617 1 2.400000000000 84.844328461011 8.906344704760 15.744341840801
5618 1 2.400000000000 86.772608653307 10.019637792855 18.893210208961
5619 1 2.400000000000 82.916048268716 10.019637792855 18.893210208961
5620 1 2.400000000000 84.844328461011 6.679758528570 18.893210208961
5621 2 -1.200000000000 84.844328461011 8.906344704760 18.105993116921
5622 2 -1.200000000000 84.844328461011 11.132930880950 19.680427301001
5623 2 -1.200000000000 86.772608653307 7.793051616665 19.680427301001
5624 2 -1.200000000000 86.772608653307 10.019637792855 21.254861485081
5625 2 -1.200000000000 82.916048268716 7.793051616665 19.680427301001
5626 2 -1.200000000000 82.916048268716 10.019637792855 21.254861485081
5627 2 -1.200000000000 84.844328461011 6.679758528570 21.254861485081
5628 2 -1.200000000000 84.844328461011 8.906344704760 22.829295669162
5629 1 2.400000000000 84.844328461011 13.359517057139 18.893210208961
5630 1 2.400000000000 86.772608653307 14.472810145234 22.042078577122
5631 1 2.400000000000 82.916048268716 14.472810145234 22.042078577122
5632 1 2.400000000000 84.844328461011 11.132930880950 22.042078577122
5633 2 -1.200000000000 84.844328461011 13.359517057139 21.254861485081
5634 2 -1.200000000000 84.844328461011 15.586103233329 22.829295669162
5635 2 -1.200000000000 86.772608653307 12.246223969044 22.829295669162
5636 2 -1.200000000000 86.772608653307 14.472810145234 24.403729853242
5637 2 -1.200000000000 82.916048268716 12.246223969045 22.829295669162
5638 2 -1.200000000000 82.916048268716 14.472810145234 24.403729853242
5639 2 -1.200000000000 84.844328461011 11.132930880950 24.403729853242
5640 2 -1.200000000000 84.844328461011 13.359517057139 25.978164037322
5641 1 2.400000000000 84.844328461011 17.812689409519 22.042078577122
5642 1 2.400000000000 86.772608653307 18.925982497614 25.190946945282
5643 1 2.400000000000 82.916048268716 18.925982497614 25.190946945282
5644 1 2.400000000000 84.844328461011 15.586103233329 25.190946945282
5645 2 -1.200000000000 84.844328461011 17.812689409519 24.403729853242
5646 2 -1.200000000000 84.844328461011 20.039275585709 25.978164037322
5647 2 -1.200000000000 86.772608653307 16.699396321424 25.978164037322
5648 2 -1.200000000000 86.772608653307 18.925982497614 27.552598221402
5649 2 -1.200000000000 82.916048268716 16.699396321424 25.978164037322
5650 2 -1.200000000000 82.916048268716 18.925982497614 27.552598221402
5651 2 -1.200000000000 84.844328461011 15.586103233329 27.552598221402
5652 2 -1.200000000000 84.844328461011 17.812689409519 0.787217092040
5653 1 2.400000000000 84.844328461011 22.265861761899 25.190946945282
5654 1 2.400000000000 86.772608653307 23.379154849994 0.000000000000
5655 1 2.400000000000 82.916048268716 23.379154849994 0.000000000000
5656 1 2.400000000000 84.844328461011 20.039275585709 0.000000000000
5657 2 -1.200000000000 84.844328461011 22.265861761899 27.552598221402
5658 2 -1.200000000000 84.844328461011 24.492447938089 0.787217092040
5659 2 -1.200000000000 86.772608653307 21.152568673804 0.787217092040
5660 2 -1.200000000000 86.772608653307 23.379154849994 2.361651276120
5661 2 -1.200000000000 82.916048268716 21.152568673804 0.787217092040
5662 2 -1.200000000000 82.916048268716 23.379154849994 2.361651276120
5663 2 -1.200000000000 84.844328461011 20.039275585709 2.361651276120
5664 2 -1.200000000000 84.844328461011 22.265861761899 3.936085460200
5665 1 2.400000000000 88.700888845603 2.226586176190 15.744341840801
5666 1 2.400000000000 90.629169037899 3.339879264285 18.893210208961
5667 1 2.400000000000 86.772608653307 3.339879264285 18.893210208961
5668 1 2.400000000000 88.700888845603 0.000000000000 18.893210208961
5669 2 -1.200000000000 88.700888845603 2.226586176190 18.105993116921
5670 2 -1.200000000000 88.700888845603 4.453172352380 19.680427301001
5671 2 -1.200000000000 90.629169037899 1.113293088095 19.680427301001
5672 2 -1.200000000000 90.629169037899 3.339879264285 21.254861485081
5673 2 -1.200000000000 86.772608653307 1.113293088095 19.680427301001
5674 2 -1.200000000000 86.772608653307 3.339879264285 21.254861485081
5675 2 -1.200000000000 88.700888845603 0.000000000000 21.254861485081
5676 2 -1.200000000000 88.700888845603 2.226586176190 22.829295669162
5677 1 2.400000000000 88.700888845603 6.679758528570 18.893210208961
5678 1 2.400000000000 90.629169037899 7.793051616665 22.042078577122
5679 1 2.400000000000 86.772608653307 7.793051616665 22.042078577122
5680 1 2.400000000000 88.700888845603 4.453172352380 22.042078577122
5681 2 -1.200000000000 88.700888845603 6.679758528570 21.254861485081
5682 2 -1.200000000000 88.700888845603 8.906344704760 22.829295669162
5683 2 -1.200000000000 90.629169037899 5.566465440475 22.829295669162
5684 2 -1.200000000000 90.629169037899 7.793051616665 24.403729853242
5685 2 -1.200000000000 86.772608653307 5.566465440475 22.829295669162
5686 2 -1.200000000000 86.772608653307 7.793051616665 24.403729853242
5687 2 -1.200000000000 88.700888845603 4.453172352380 24.403729853242
5688 2 -1.200000000000 88.700888845603 6.679758528570 25.978164037322
5689 1 2.400000000000 88.700888845603 11.132930880950 22.042078577122
5690 1 2.400000000000 90.629169037899 12.246223969045 25.190946945282
5691 1 2.400000000000 86.772608653307 12.246223969045 25.190946945282
5692 1 2.400000000000 88.700888845603 8.906344704760 25.190946945282
5693 2 -1.200000000000 88.700888845603 11.132930880950 24.403729853242
5694 2 -1.200000000000 88.700888845603 13.359517057139 25.978164037322
5695 2 -1.200000000000 90.629169037899 10.019637792855 25.978164037322
5696 2 -1.200000000000 90.629169037899 12.246223969044 27.552598221402
5697 2 -1.200000000000 86.772608653307 10.019637792855 25.978164037322
5698 2 -1.200000000000 86.772608653307 12.246223969044 27.552598221402
5699 2 -1.200000000000 88.700888845603 8.906344704760 27.552598221402
5700 2 -1.200000000000 88.700888845603 11.132930880950 0.787217092040
5701 1 2.400000000000 88.700888845603 15.586103233329 25.190946945282
5702 1 2.400000000000 90.629169037899 16.699396321424 0.000000000000
5703 1 2.400000000000 86.772608653307 16.699396321424 0.000000000000
5704 1 2.400000000000 88.700888845603 13.359517057139 0.000000000000
5705 2 -1.200000000000 88.700888845603 15.586103233329 27.552598221402
5706 2 -1.200000000000 88.700888845603 17.812689409519 0.787217092040
5707 2 -1.200000000000 90.629169037899 14.472810145234 0.787217092040
5708 2 -1.200000000000 90.629169037899 16.699396321424 2.361651276120
5709 2 -1.200000000000 86.772608653307 14.472810145234 0.787217092040
5710 2 -1.200000000000 86.772608653307 16.699396321424 2.361651276120
5711 2 -1.200000000000 88.700888845603 13.359517057139 2.361651276120
5712 2 -1.200000000000 88.700888845603 15.586103233329 3.936085460200
5713 1 2.400000000000 92.557449230194 0.000000000000 18.893210208961
5714 1 2.400000000000 94.485729422490 1.113293088095 22.042078577122
5715 1 2.400000000000 90.629169037899 1.113293088095 22.042078577122
5716 1 2.400000000000 92.557449230194 24.492447938089 22.042078577122
5717 2 -1.200000000000 92.557449230194 0.000000000000 21.254861485081
5718 2 -1.200000000000 92.557449230194 2.226586176190 22.829295669162
5719 2 -1.200000000000 94.485729422490 25.605741026184 22.829295669162
5720 2 -1.200000000000 94.485729422490 1.113293088095 24.403729853242
5721 2 -1.200000000000 90.629169037899 25.605741026184 22.829295669162
5722 2 -1.200000000000 90.629169037899 1.113293088095 24.403729853242
5723 2 -1.200000000000 92.557449230194 24.492447938089 24.403729853242
5724 2 -1.200000000000 92.557449230194 0.000000000000 25.978164037322
5725 1 2.400000000000 92.557449230194 4.453172352380 22.042078577122
5726 1 2.400000000000 94.485729422490 5.566465440475 25.190946945282
5727 1 2.400000000000 90.629169037899 5.566465440475 25.190946945282
5728 1 2.400000000000 92.557449230194 2.226586176190 25.190946945282
5729 2 -1.200000000000 92.557449230194 4.453172352380 24.403729853242
5730 2 -1.200000000000 92.557449230194 6.679758528570 25.978164037322
5731 2 -1.200000000000 94.485729422490 3.339879264285 25.978164037322
5732 2 -1.200000000000 94.485729422490 5.566465440475 27.552598221402
5733 2 -1.200000000000 90.629169037899 3.339879264285 25.978164037322
5734 2 -1.200000000000 90.629169037899 5.566465440475 27.552598221402
5735 2 -1.200000000000 92.557449230194 2.226586176190 27.552598221402
5736 2 -1.200000000000 92.557449230194 4.453172352380 0.787217092040
5737 1 2.400000000000 92.557449230194 8.906344704760 25.190946945282
5738 1 2.400000000000 94.485729422490 10.019637792855 0.000000000000
5739 1 2.400000000000 90.629169037899 10.019637792855 0.000000000000
5740 1 2.400000000000 92.557449230194 6.679758528570 0.000000000000
5741 2 -1.200000000000 92.557449230194 8.906344704760 27.552598221402
5742 2 -1.200000000000 92.557449230194 11.132930880950 0.787217092040
5743 2 -1.200000000000 94.485729422490 7.793051616665 0.787217092040
5744 2 -1.200000000000 94.485729422490 10.019637792855 2.361651276120
5745 2 -1.200000000000 90.629169037899 7.793051616665 0.787217092040
5746 2 -1.200000000000 90.629169037899 10.019637792855 2.361651276120
5747 2 -1.200000000000 92.557449230194 6.679758528570 2.361651276120
5748 2 -1.200000000000 92.557449230194 8.906344704760 3.936085460200
5749 1 2.400000000000 96.414009614786 2.226586176190 25.190946945282
5750 1 2.400000000000 98.342289807081 3.339879264285 0.000000000000
5751 1 2.400000000000 94.485729422490 3.339879264285 0.000000000000
5752 1 2.400000000000 96.414009614786 0.000000000000 0.000000000000
5753 2 -1.200000000000 96.414009614786 2.226586176190 27.552598221402
5754 2 -1.200000000000 96.414009614786 4.453172352380 0.787217092040
5755 2 -1.200000000000 98.342289807081 1.113293088095 0.787217092040
5756 2 -1.200000000000 98.342289807081 3.339879264285 2.361651276120
5757 2 -1.200000000000 94.485729422490 1.113293088095 0.787217092040
5758 2 -1.200000000000 94.485729422490 3.339879264285 2.361651276120
5759 2 -1.200000000000 96.414009614786 0.000000000000 2.361651276120
5760 2 -1.200000000000 96.414009614786 2.226586176190 3.936085460200
5761 1 2.400000000000 65.561526538054 6.679758528570 0.000000000000
5762 1 2.400000000000 67.489806730350 7.793051616665 3.148868368160
5763 1 2.400000000000 63.633246345759 7.793051616665 3.148868368160
5764 1 2.400000000000 65.561526538054 4.453172352380 3.148868368160
5765 2 -1.200000000000 65.561526538054 6.679758528570 2.361651276120
5766 2 -1.200000000000 65.561526538054 8.906344704760 3.936085460200
5767 2 -1.200000000000 67.489806730350 5.566465440475 3.936085460200
5768 2 -1.200000000000 67.489806730350 7.793051616665 5.510519644280
5769 2 -1.200000000000 63.633246345759 5.566465440475 3.936085460200
5770 2 -1.200000000000 63.633246345759 7.793051616665 5.510519644280
5771 2 -1.200000000000 65.561526538054 4.453172352380 5.510519644280
5772 2 -1.200000000000 65.561526538054 6.679758528570 7.084953828360
5773 1 2.400000000000 65.561526538054 11.132930880950 3.148868368160
5774 1 2.400000000000 67.489806730350 12.246223969045 6.297736736320
5775 1 2.400000000000 63.633246345759 12.246223969045 6.297736736320
5776 1 2.400000000000 65.561526538054 8.906344704760 6.297736736320
5777 2 -1.200000000000 65.561526538054 11.132930880950 5.510519644280
5778 2 -1.200000000000 65.561526538054 13.359517057139 7.084953828360
5779 2 -1.200000000000 67.489806730350 10.019637792855 7.084953828360
5780 2 -1.200000000000 67.489806730350 12.246223969045 8.659388012441
5781 2 -1.200000000000 63.633246345759 10.019637792855 7.084953828360
5782 2 -1.200000000000 63.633246345759 12.246223969045 8.659388012441
5783 2 -1.200000000000 65.561526538054 8.906344704760 8.659388012441
5784 2 -1.200000000000 65.561526538054 11.132930880950 10.233822196521
5785 1 2.400000000000 65.561526538054 15.586103233329 6.297736736320
5786 1 2.400000000000 67.489806730350 16.699396321424 9.446605104481
5787 1 2.400000000000 63.633246345759 16.699396321424 9.446605104481
5788 1 2.400000000000 65.561526538054 13.359517057139 9.446605104481
5789 2 -1.200000000000 65.561526538054 15.586103233329 8.659388012441
5790 2 -1.200000000000 65.561526538054 17.812689409519 10.233822196521
5791 2 -1.200000000000 67.489806730350 14.472810145234 10.233822196521
5792 2 -1.200000000000 67.489806730350 16.699396321424 11.808256380601
5793 2 -1.200000000000 63.633246345759 14.472810145234 10.233822196521
5794 2 -1.200000000000 63.633246345759 16.699396321424 11.808256380601
5795 2 -1.200000000000 65.561526538054 13.359517057139 11.808256380601
5796 2 -1.200000000000 65.561526538054 15.586103233329 13.382690564681
5797 1 2.400000000000 65.561526538054 20.039275585709 9.446605104481
5798 1 2.400000000000 67.489806730350 21.152568673804 12.595473472641
5799 1 2.400000000000 63.633246345759 21.152568673804 12.595473472641
5800 1 2.400000000000 65.561526538054 17.812689409519 12.595473472641
5801 2 -1.200000000000 65.561526538054 20.039275585709 11.808256380601
5802 2 -1.200000000000 65.561526538054 22.265861761899 13.382690564681
5803 2 -1.200000000000 67.489806730350 18.925982497614 13.382690564681
5804 2 -1.200000000000 67.489806730350 21.152568673804 14.957124748761
5805 2 -1.200000000000 63.633246345759 18.925982497614 13.382690564681
5806 2 -1.200000000000 63.633246345759 21.152568673804 14.957124748761
5807 2 -1.200000000000 65.561526538054 17.812689409519 14.957124748761
5808 2 -1.200000000000 65.561526538054 20.039275585709 16.531558932841
5809 1 2.400000000000 65.561526538054 24.492447938089 12.595473472641
5810 1 2.400000000000 67.489806730350 25.605741026184 15.744341840801
5811 1 2.400000000000 63.633246345759 25.605741026184 15.744341840801
5812 1 2.400000000000 65.561526538054 22.265861761899 15.744341840801
5813 2 -1.200000000000 65.561526538054 24.492447938089 14.957124748761
5814 2 -1.200000000000 65.561526538054 0.000000000000 16.531558932841
5815 2 -1.200000000000 67.489806730350 23.379154849994 16.531558932841
5816 2 -1.200000000000 67.489806730350 25.605741026184 18.105993116921
5817 2 -1.200000000000 63.633246345759 23.379154849994 16.531558932841
5818 2 -1.200000000000 63.633246345759 25.605741026184 18.105993116921
5819 2 -1.200000000000 65.561526538054 22.265861761899 18.105993116921
5820 2 -1.200000000000 65.561526538054 24.492447938089 19.680427301001
5821 1 2.400000000000 69.418086922646 0.000000000000 0.000000000000
5822 1 2.400000000000 71.346367114941 1.113293088095 3.148868368160
5823 1 2.400000000000 67.489806730350 1.113293088095 3.148868368160
5824 1 2.400000000000 69.418086922646 24.492447938089 3.148868368160
5825 2 -1.200000000000 69.418086922646 0.000000000000 2.361651276120
5826 2 -1.200000000000 69.418086922646 2.226586176190 3.936085460200
5827 2 -1.200000000000 71.346367114941 25.605741026184 3.936085460200
5828 2 -1.200000000000 71.346367114941 1.113293088095 5.510519644280
5829 2 -1.200000000000 67.489806730350 25.605741026184 3.936085460200
5830 2 -1.200000000000 67.489806730350 1.113293088095 5.510519644280
5831 2 -1.200000000000 69.418086922646 24.492447938089 5.510519644280
5832 2 -1.200000000000 69.418086922646 0.000000000000 7.084953828360
5833 1 2.400000000000 69.418086922646 4.453172352380 3.148868368160
5834 1 2.400000000000 71.346367114941 5.566465440475 6.297736736320
5835 1 2.400000000000 67.489806730350 5.566465440475 6.297736736320
5836 1 2.400000000000 69.418086922646 2.226586176190 6.297736736320
5837 2 -1.200000000000 69.418086922646 4.453172352380 5.510519644280
5838 2 -1.200000000000 69.418086922646 6.679758528570 7.084953828360
5839 2 -1.200000000000 71.346367114941 3.339879264285 7.084953828360
5840 2 -1.200000000000 71.346367114941 5.566465440475 8.659388012441
5841 2 -1.200000000000 67.489806730350 3.339879264285 7.084953828360
5842 2 -1.200000000000 67.489806730350 5.566465440475 8.659388012441
5843 2 -1.200000000000 69.418086922646 2.226586176190 8.659388012441
5844 2 -1.200000000000 69.418086922646 4.453172352380 10.233822196521
5845 1 2.400000000000 69.418086922646 8.906344704760 6.297736736320
5846 1 2.400000000000 71.346367114941 10.019637792855 9.446605104481
5847 1 2.400000000000 67.489806730350 10.019637792855 9.446605104481
5848 1 2.400000000000 69.418086922646 6.679758528570 9.446605104481
5849 2 -1.200000000000 69.418086922646 8.906344704760 8.659388012441
5850 2 -1.200000000000 69.418086922646 11.132930880950 10.233822196521
5851 2 -1.200000000000 71.346367114941 7.793051616665 10.233822196521
5852 2 -1.200000000000 71.346367114941 10.019637792855 11.808256380601
5853 2 -1.200000000000 67.489806730350 7.793051616665 10.233822196521
5854 2 -1.200000000000 67.489806730350 10.019637792855 11.808256380601
5855 2 -1.200000000000 69.418086922646 6.679758528570 11.808256380601
5856 2 -1.200000000000 69.418086922646 8.906344704760 13.382690564681
5857 1 2.400000000000 69.418086922646 13.359517057139 9.446605104481
5858 1 2.400000000000 71.346367114941 14.472810145234 12.595473472641
5859 1 2.400000000000 67.489806730350 14.472810145234 12.595473472641
5860 1 2.400000000000 69.418086922646 11.132930880950 12.595473472641
5861 2 -1.200000000000 69.418086922646 13.359517057139 11.808256380601
5862 2 -1.200000000000 69.418086922646 15.586103233329 13.382690564681
5863 2 -1.200000000000 71.346367114941 12.246223969044 13.382690564681
5864 2 -1.200000000000 71.346367114941 14.472810145234 14.957124748761
5865 2 -1.200000000000 67.489806730350 12.246223969044 13.382690564681
5866 2 -1.200000000000 67.489806730350 14.472810145234 14.957124748761
5867 2 -1.200000000000 69.418086922646 11.132930880950 14.957124748761
5868 2 -1.200000000000 69.418086922646 13.359517057139 16.531558932841
5869 1 2.400000000000 69.418086922646 17.812689409519 12.595473472641
5870 1 2.400000000000 71.346367114941 18.925982497614 15.744341840801
5871 1 2.400000000000 67.489806730350 18.925982497614 15.744341840801
5872 1 2.400000000000 69.418086922646 15.586103233329 15.744341840801
5873 2 -1.200000000000 69.418086922646 17.812689409519 14.957124748761
5874 2 -1.200000000000 69.418086922646 20.039275585709 16.531558932841
5875 2 -1.200000000000 71.346367114941 16.699396321424 16.531558932841
5876 2 -1.200000000000 71.346367114941 18.925982497614 18.105993116921
5877 2 -1.200000000000 67.489806730350 16.699396321424 16.531558932841
5878 2 -1.200000000000 67.489806730350 18.925982497614 18.105993116921
5879 2 -1.200000000000 69.418086922646 15.586103233329 18.105993116921
5880 2 -1.200000000000 69.418086922646 17.812689409519 19.680427301001
5881 1 2.400000000000 69.418086922646 22.265861761899 15.744341840801
5882 1 2.400000000000 71.346367114941 23.379154849994 18.893210208961
5883 1 2.400000000000 67.489806730350 23.379154849994 18.893210208961
5884 1 2.400000000000 69.418086922646 20.039275585709 18.893210208961
5885 2 -1.200000000000 69.418086922646 22.265861761899 18.105993116921
5886 2 -1.200000000000 69.418086922646 24.492447938089 19.680427301001
5887 2 -1.200000000000 71.346367114941 21.152568673804 19.680427301001
5888 2 -1.200000000000 71.346367114941 23.379154849994 21.254861485081
5889 2 -1.200000000000 67.489806730350 21.152568673804 19.680427301001
5890 2 -1.200000000000 67.489806730350 23.379154849994 21.254861485081
5891 2 -1.200000000000 69.418086922646 20.039275585709 21.254861485081
5892 2 -1.200000000000 69.418086922646 22.265861761899 22.829295669162
5893 1 2.400000000000 73.274647307237 2.226586176190 6.297736736320
5894 1 2.400000000000 75.202927499533 3.339879264285 9.446605104481
5895 1 2.400000000000 71.346367114941 3.339879264285 9.446605104481
5896 1 2.400000000000 73.274647307237 0.000000000000 9.446605104481
5897 2 -1.200000000000 73.274647307237 2.226586176190 8.659388012441
5898 2 -1.200000000000 73.274647307237 4.453172352380 10.233822196521
5899 2 -1.200000000000 75.202927499533 1.113293088095 10.233822196521
5900 2 -1.200000000000 75.202927499533 3.339879264285 11.808256380601
5901 2 -1.200000000000 71.346367114941 1.113293088095 10.233822196521
5902 2 -1.200000000000 71.346367114941 3.339879264285 11.808256380601
5903 2 -1.200000000000 73.274647307237 0.000000000000 11.808256380601
5904 2 -1.200000000000 73.274647307237 2.226586176190 13.382690564681
5905 1 2.400000000000 73.274647307237 6.679758528570 9.446605104481
5906 1 2.400000000000 75.202927499533 7.793051616665 12.595473472641
5907 1 2.400000000000 71.346367114941 7.793051616665 12.595473472641
5908 1 2.400000000000 73.274647307237 4.453172352380 12.595473472641
5909 2 -1.200000000000 73.274647307237 6.679758528570 11.808256380601
5910 2 -1.200000000000 73.274647307237 8.906344704760 13.382690564681
5911 2 -1.200000000000 75.202927499533 5.566465440475 13.382690564681
5912 2 -1.200000000000 75.202927499533 7.793051616665 14.957124748761
5913 2 -1.200000000000 71.346367114941 5.566465440475 13.382690564681
5914 2 -1.200000000000 71.346367114941 7.793051616665 14.957124748761
5915 2 -1.200000000000 73.274647307237 4.453172352380 14.957124748761
5916 2 -1.200000000000 73.274647307237 6.679758528570 16.531558932841
5917 1 2.400000000000 73.274647307237 11.132930880950 12.595473472641
5918 1 2.400000000000 75.202927499533 12.246223969044 15.744341840801
5919 1 2.400000000000 71.346367114941 12.246223969045 15.744341840801
5920 1 2.400000000000 73.274647307237 8.906344704760 15.744341840801
5921 2 -1.200000000000 73.274647307237 11.132930880950 14.957124748761
5922 2 -1.200000000000 73.274647307237 13.359517057139 16.531558932841
5923 2 -1.200000000000 75.202927499533 10.019637792855 16.531558932841
5924 2 -1.200000000000 75.202927499533 12.246223969044 18.105993116921
5925 2 -1.200000000000 71.346367114941 10.019637792855 16.531558932841
5926 2 -1.200000000000 71.346367114941 12.246223969044 18.105993116921
5927 2 -1.200000000000 73.274647307237 8.906344704760 18.105993116921
5928 2 -1.200000000000 73.274647307237 11.132930880950 19.680427301001
5929 1 2.400000000000 73.274647307237 15.586103233329 15.744341840801
5930 1 2.400000000000 75.202927499533 16.699396321424 18.893210208961
5931 1 2.400000000000 71.346367114941 16.699396321424 18.893210208961
5932 1 2.400000000000 73.274647307237 13.359517057139 18.893210208961
5933 2 -1.200000000000 73.274647307237 15.586103233329 18.105993116921
5934 2 -1.200000000000 73.274647307237 17.812689409519 19.680427301001
5935 2 -1.200000000000 75.202927499533 14.472810145234 19.680427301001
5936 2 -1.200000000000 75.202927499533 16.699396321424 21.254861485081
5937 2 -1.200000000000 71.346367114941 14.472810145234 19.680427301001
5938 2 -1.200000000000 71.346367114941 16.699396321424 21.254861485081
5939 2 -1.200000000000 73.274647307237 13.359517057139 21.254861485081
5940 2 -1.200000000000 73.274647307237 15.586103233329 22.829295669162
5941 1 2.400000000000 73.274647307237 20.039275585709 18.893210208961
5942 1 2.400000000000 75.202927499533 21.152568673804 22.042078577122
5943 1 2.400000000000 71.346367114941 21.152568673804 22.042078577122
5944 1 2.400000000000 73.274647307237 17.812689409519 22.042078577122
5945 2 -1.200000000000 73.274647307237 20.039275585709 21.254861485081
5946 2 -1.200000000000 73.274647307237 22.265861761899 22.829295669162
5947 2 -1.200000000000 75.202927499533 18.925982497614 22.829295669162
5948 2 -1.200000000000 75.202927499533 21.152568673804 24.403729853242
5949 2 -1.200000000000 71.346367114941 18.925982497614 22.829295669162
5950 2 -1.200000000000 71.346367114941 21.152568673804 24.403729853242
5951 2 -1.200000000000 73.274647307237 17.812689409519 24.403729853242
5952 2 -1.200000000000 73.274647307237 20.039275585709 25.978164037322
5953 1 2.400000000000 73.274647307237 24.492447938089 22.042078577122
5954 1 2.400000000000 75.202927499533 25.605741026184 25.190946945282
5955 1 2.400000000000 71.346367114941 25.605741026184 25.190946945282
5956 1 2.400000000000 73.274647307237 22.265861761899 25.190946945282
5957 2 -1.200000000000 73.274647307237 24.492447938089 24.403729853242
5958 2 -1.200000000000 73.274647307237 0.000000000000 25.978164037322
5959 2 -1.200000000000 75.202927499533 23.379154849994 25.978164037322
5960 2 -1.200000000000 75.202927499533 25.605741026184 27.552598221402
5961 2 -1.200000000000 71.346367114941 23.379154849994 25.978164037322
5962 2 -1.200000000000 71.346367114941 25.605741026184 27.552598221402
5963 2 -1.200000000000 73.274647307237 22.265861761899 27.552598221402
5964 2 -1.200000000000 73.274647307237 24.492447938089 0.787217092040
5965 1 2.400000000000 77.131207691829 0.000000000000 9.446605104481
5966 1 2.400000000000 79.059487884124 1.113293088095 12.595473472641
5967 1 2.400000000000 75.202927499533 1.113293088095 12.595473472641
5968 1 2.400000000000 77.131207691829 24.492447938089 12.595473472641
5969 2 -1.200000000000 77.131207691829 0.000000000000 11.808256380601
5970 2 -1.200000000000 77.131207691829 2.226586176190 13.382690564681
5971 2 -1.200000000000 79.059487884124 25.605741026184 13.382690564681
5972 2 -1.200000000000 79.059487884124 1.113293088095 14.957124748761
5973 2 -1.200000000000 75.202927499533 25.605741026184 13.382690564681
5974 2 -1.200000000000 75.202927499533 1.113293088095 14.957124748761
5975 2 -1.200000000000 77.131207691829 24.492447938089 14.957124748761
5976 2 -1.200000000000 77.131207691829 0.000000000000 16.531558932841
5977 1 2.400000000000 77.131207691829 4.453172352380 12.595473472641
5978 1 2.400000000000 79.059487884124 5.566465440475 15.744341840801
5979 1 2.400000000000 75.202927499533 5.566465440475 15.744341840801
5980 1 2.400000000000 77.131207691829 2.226586176190 15.744341840801
5981 2 -1.200000000000 77.131207691829 4.453172352380 14.957124748761
5982 2 -1.200000000000 77.131207691829 6.679758528570 16.531558932841
5983 2 -1.200000000000 79.059487884124 3.339879264285 16.531558932841
5984 2 -1.200000000000 79.059487884124 5.566465440475 18.105993116921
5985 2 -1.200000000000 75.202927499533 3.339879264285 16.531558932841
5986 2 -1.200000000000 75.202927499533 5.566465440475 18.105993116921
5987 2 -1.200000000000 77.131207691829 2.226586176190 18.105993116921
5988 2 -1.200000000000 77.131207691829 4.453172352380 19.680427301001
5989 1 2.400000000000 77.131207691829 8.906344704760 15.744341840801
5990 1 2.400000000000 79.059487884124 10.019637792855 18.893210208961
5991 1 2.400000000000 75.202927499533 10.019637792855 18.893210208961
5992 1 2.400000000000 77.131207691829 6.679758528570 18.893210208961
5993 2 -1.200000000000 77.131207691829 8.906344704760 18.105993116921
5994 2 -1.200000000000 77.131207691829 11.132930880950 19.680427301001
5995 2 -1.200000000000 79.059487884124 7.793051616665 19.680427301001
5996 2 -1.200000000000 79.059487884124 10.019637792855 21.254861485081
5997 2 -1.200000000000 75.202927499533 7.793051616665 19.680427301001
5998 2 -1.200000000000 75.202927499533 10.019637792855 21.254861485081
5999 2 -1.200000000000 77.131207691829 6.679758528570 21.254861485081
6000 2 -1.200000000000 77.131207691829 8.906344704760 22.829295669162
6001 1 2.400000000000 77.131207691829 13.359517057139 18.893210208961
6002 1 2.400000000000 79.059487884124 14.472810145234 22.042078577122
6003 1 2.400000000000 75.202927499533 14.472810145234 22.042078577122
6004 1 2.400000000000 77.131207691829 11.132930880950 22.042078577122
6005 2 -1.200000000000 77.131207691829 13.359517057139 21.254861485081
6006 2 -1.200000000000 77.131207691829 15.586103233329 22.829295669162
6007 2 -1.200000000000 79.059487884124 12.246223969045 22.829295669162
6008 2 -1.200000000000 79.059487884124 14.472810145234 24.403729853242
6009 2 -1.200000000000 75.202927499533 12.246223969045 22.829295669162
6010 2 -1.200000000000 75.202927499533 14.472810145234 24.403729853242
6011 2 -1.200000000000 77.131207691829 11.132930880950 24.403729853242
6012 2 -1.200000000000 77.131207691829 13.359517057139 25.978164037322
6013 1 2.400000000000 77.131207691829 17.812689409519 22.042078577122
6014 1 2.400000000000 79.059487884124 18.925982497614 25.190946945282
6015 1 2.400000000000 75.202927499533 18.925982497614 25.190946945282
6016 1 2.400000000000 77.131207691829 15.586103233329 25.190946945282
6017 2 -1.200000000000 77.131207691829 17.812689409519 24.403729853242
6018 2 -1.200000000000 77.131207691829 20.039275585709 25.978164037322
6019 2 -1.200000000000 79.059487884124 16.699396321424 25.978164037322
6020 2 -1.200000000000 79.059487884124 18.925982497614 27.552598221402
6021 2 -1.200000000000 75.202927499533 16.699396321424 25.978164037322
6022 2 -1.200000000000 75.202927499533 18.925982497614 27.552598221402
6023 2 -1.200000000000 77.131207691829 15.586103233329 27.552598221402
6024 2 -1.200000000000 77.131207691829 17.812689409519 0.787217092040
6025 1 2.400000000000 77.131207691829 22.265861761899 25.190946945282
6026 1 2.400000000000 79.059487884124 23.379154849994 0.000000000000
6027 1 2.400000000000 75.202927499533 23.379154849994 0.000000000000
6028 1 2.400000000000 77.131207691829 20.039275585709 0.000000000000
6029 2 -1.200000000000 77.131207691829 22.265861761899 27.552598221402
6030 2 -1.200000000000 77.131207691829 24.492447938089 0.787217092040
6031 2 -1.200000000000 79.059487884124 21.152568673804 0.787217092040
6032 2 -1.200000000000 79.059487884124 23.379154849994 2.361651276120
6033 2 -1.200000000000 75.202927499533 21.152568673804 0.787217092040
6034 2 -1.200000000000 75.202927499533 23.379154849994 2.361651276120
6035 2 -1.200000000000 77.131207691829 20.039275585709 2.361651276120
6036 2 -1.200000000000 77.131207691829 22.265861761899 3.936085460200
6037 1 2.400000000000 80.987768076420 2.226586176190 15.744341840801
6038 1 2.400000000000 82.916048268716 3.339879264285 18.893210208961
6039 1 2.400000000000 79.059487884124 3.339879264285 18.893210208961
6040 1 2.400000000000 80.987768076420 0.000000000000 18.893210208961
6041 2 -1.200000000000 80.987768076420 2.226586176190 18.105993116921
6042 2 -1.200000000000 80.987768076420 4.453172352380 19.680427301001
6043 2 -1.200000000000 82.916048268716 1.113293088095 19.680427301001
6044 2 -1.200000000000 82.916048268716 3.339879264285 21.254861485081
6045 2 -1.200000000000 79.059487884124 1.113293088095 19.680427301001
6046 2 -1.200000000000 79.059487884124 3.339879264285 21.254861485081
6047 2 -1.200000000000 80.987768076420 0.000000000000 21.254861485081
6048 2 -1.200000000000 80.987768076420 2.226586176190 22.829295669162
6049 1 2.400000000000 80.987768076420 6.679758528570 18.893210208961
6050 1 2.400000000000 82.916048268716 7.793051616665 22.042078577122
6051 1 2.400000000000 79.059487884124 7.793051616665 22.042078577122
6052 1 2.400000000000 80.987768076420 4.453172352380 22.042078577122
6053 2 -1.200000000000 80.987768076420 6.679758528570 21.254861485081
6054 2 -1.200000000000 80.987768076420 8.906344704760 22.829295669162
6055 2 -1.200000000000 82.916048268716 5.566465440475 22.829295669162
6056 2 -1.200000000000 82.916048268716 7.793051616665 24.403729853242
6057 2 -1.200000000000 79.059487884124 5.566465440475 22.829295669162
6058 2 -1.200000000000 79.059487884124 7.793051616665 24.403729853242
6059 2 -1.200000000000 80.987768076420 4.453172352380 24.403729853242
6060 2 -1.200000000000 80.987768076420 6.679758528570 25.978164037322
6061 1 2.400000000000 80.987768076420 11.132930880950 22.042078577122
6062 1 2.400000000000 82.916048268716 12.246223969045 25.190946945282
6063 1 2.400000000000 79.059487884124 12.246223969045 25.190946945282
6064 1 2.400000000000 80.987768076420 8.906344704760 25.190946945282
6065 2 -1.200000000000 80.987768076420 11.132930880950 24.403729853242
6066 2 -1.200000000000 80.987768076420 13.359517057139 25.978164037322
6067 2 -1.200000000000 82.916048268716 10.019637792855 25.978164037322
6068 2 -1.200000000000 82.916048268716 12.246223969044 27.552598221402
6069 2 -1.200000000000 79.059487884124 10.019637792855 25.978164037322
6070 2 -1.200000000000 79.059487884124 12.246223969044 27.552598221402
6071 2 -1.200000000000 80.987768076420 8.906344704760 27.552598221402
6072 2 -1.200000000000 80.987768076420 11.132930880950 0.787217092040
6073 1 2.400000000000 80.987768076420 15.586103233329 25.190946945282
6074 1 2.400000000000 82.916048268716 16.699396321424 0.000000000000
6075 1 2.400000000000 79.059487884124 16.699396321424 0.000000000000
6076 1 2.400000000000 80.987768076420 13.359517057139 0.000000000000
6077 2 -1.200000000000 80.987768076420 15.586103233329 27.552598221402
6078 2 -1.200000000000 80.987768076420 17.812689409519 0.787217092040
6079 2 -1.200000000000 82.916048268716 14.472810145234 0.787217092040
6080 2 -1.200000000000 82.916048268716 16.699396321424 2.361651276120
6081 2 -1.200000000000 79.059487884124 14.472810145234 0.787217092040
6082 2 -1.200000000000 79.059487884124 16.699396321424 2.361651276120
6083 2 -1.200000000000 80.987768076420 13.359517057139 2.361651276120
6084 2 -1.200000000000 80.987768076420 15.586103233329 3.936085460200
6085 1 2.400000000000 84.844328461011 0.000000000000 18.893210208961
6086 1 2.400000000000 86.772608653307 1.113293088095 22.042078577122
6087 1 2.400000000000 82.916048268716 1.113293088095 22.042078577122
6088 1 2.400000000000 84.844328461011 24.492447938089 22.042078577122
6089 2 -1.200000000000 84.844328461011 0.000000000000 21.254861485081
6090 2 -1.200000000000 84.844328461011 2.226586176190 22.829295669162
6091 2 -1.200000000000 86.772608653307 25.605741026184 22.829295669162
6092 2 -1.200000000000 86.772608653307 1.113293088095 24.403729853242
6093 2 -1.200000000000 82.916048268716 25.605741026184 22.829295669162
6094 2 -1.200000000000 82.916048268716 1.113293088095 24.403729853242
6095 2 -1.200000000000 84.844328461011 24.492447938089 24.403729853242
6096 2 -1.200000000000 84.844328461011 0.000000000000 25.978164037322
6097 1 2.400000000000 84.844328461011 4.453172352380 22.042078577122
6098 1 2.400000000000 86.772608653307 5.566465440475 25.190946945282
6099 1 2.400000000000 82.916048268716 5.566465440475 25.190946945282
6100 1 2.400000000000 84.844328461011 2.226586176190 25.190946945282
6101 2 -1.200000000000 84.844328461011 4.453172352380 24.403729853242
6102 2 -1.200000000000 84.844328461011 6.679758528570 25.978164037322
6103 2 -1.200000000000 86.772608653307 3.339879264285 25.978164037322
6104 2 -1.200000000000 86.772608653307 5.566465440475 27.552598221402
6105 2 -1.200000000000 82.916048268716 3.339879264285 25.978164037322
6106 2 -1.200000000000 82.916048268716 5.566465440475 27.552598221402
6107 2 -1.200000000000 84.844328461011 2.226586176190 27.552598221402
6108 2 -1.200000000000 84.844328461011 4.453172352380 0.787217092040
6109 1 2.400000000000 84.844328461011 8.906344704760 25.190946945282
6110 1 2.400000000000 86.772608653307 10.019637792855 0.000000000000
6111 1 2.400000000000 82.916048268716 10.019637792855 0.000000000000
6112 1 2.400000000000 84.844328461011 6.679758528570 0.000000000000
6113 2 -1.200000000000 84.844328461011 8.906344704760 27.552598221402
6114 2 -1.200000000000 84.844328461011 11.132930880950 0.787217092040
6115 2 -1.200000000000 86.772608653307 7.793051616665 0.787217092040
6116 2 -1.200000000000 86.772608653307 10.019637792855 2.361651276120
6117 2 -1.200000000000 82.916048268716 7.793051616665 0.787217092040
6118 2 -1.200000000000 82.916048268716 10.019637792855 2.361651276120
6119 2 -1.200000000000 84.844328461011 6.679758528570 2.361651276120
6120 2 -1.200000000000 84.844328461011 8.906344704760 3.936085460200
6121 1 2.400000000000 88.700888845603 2.226586176190 25.190946945282
6122 1 2.400000000000 90.629169037899 3.339879264285 0.000000000000
6123 1 2.400000000000 86.772608653307 3.339879264285 0.000000000000
6124 1 2.400000000000 88.700888845603 0.000000000000 0.000000000000
6125 2 -1.200000000000 88.700888845603 2.226586176190 27.552598221402
6126 2 -1.200000000000 88.700888845603 4.453172352380 0.787217092040
6127 2 -1.200000000000 90.629169037899 1.113293088095 0.787217092040
6128 2 -1.200000000000 90.629169037899 3.339879264285 2.361651276120
6129 2 -1.200000000000 86.772608653307 1.113293088095 0.787217092040
6130 2 -1.200000000000 86.772608653307 3.339879264285 2.361651276120
6131 2 -1.200000000000 88.700888845603 0.000000000000 2.361651276120
6132 2 -1.200000000000 88.700888845603 2.226586176190 3.936085460200
6133 1 2.400000000000 65.561526538054 2.226586176190 6.297736736320
6134 1 2.400000000000 67.489806730350 3.339879264285 9.446605104481
6135 1 2.400000000000 63.633246345759 3.339879264285 9.446605104481
6136 1 2.400000000000 65.561526538054 0.000000000000 9.446605104481
6137 2 -1.200000000000 65.561526538054 2.226586176190 8.659388012441
6138 2 -1.200000000000 65.561526538054 4.453172352380 10.233822196521
6139 2 -1.200000000000 67.489806730350 1.113293088095 10.233822196521
6140 2 -1.200000000000 67.489806730350 3.339879264285 11.808256380601
6141 2 -1.200000000000 63.633246345759 1.113293088095 10.233822196521
6142 2 -1.200000000000 63.633246345759 3.339879264285 11.808256380601
6143 2 -1.200000000000 65.561526538054 0.000000000000 11.808256380601
6144 2 -1.200000000000 65.561526538054 2.226586176190 13.382690564681
6145 1 2.400000000000 65.561526538054 6.679758528570 9.446605104481
6146 1 2.400000000000 67.489806730350 7.793051616665 12.595473472641
6147 1 2.400000000000 63.633246345759 7.793051616665 12.595473472641
6148 1 2.400000000000 65.561526538054 4.453172352380 12.595473472641
6149 2 -1.200000000000 65.561526538054 6.679758528570 11.808256380601
6150 2 -1.200000000000 65.561526538054 8.906344704760 13.382690564681
6151 2 -1.200000000000 67.489806730350 5.566465440475 13.382690564681
6152 2 -1.200000000000 67.489806730350 7.793051616665 14.957124748761
6153 2 -1.200000000000 63.633246345759 5.566465440475 13.382690564681
6154 2 -1.200000000000 63.633246345759 7.793051616665 14.957124748761
6155 2 -1.200000000000 65.561526538054 4.453172352380 14.957124748761
6156 2 -1.200000000000 65.561526538054 6.679758528570 16.531558932841
6157 1 2.400000000000 65.561526538054 11.132930880950 12.595473472641
6158 1 2.400000000000 67.489806730350 12.246223969045 15.744341840801
6159 1 2.400000000000 63.633246345759 12.246223969045 15.744341840801
6160 1 2.400000000000 65.561526538054 8.906344704760 15.744341840801
6161 2 -1.200000000000 65.561526538054 11.132930880950 14.957124748761
6162 2 -1.200000000000 65.561526538054 13.359517057139 16.531558932841
6163 2 -1.200000000000 67.489806730350 10.019637792855 16.531558932841
6164 2 -1.200000000000 67.489806730350 12.246223969044 18.105993116921
6165 2 -1.200000000000 63.633246345759 10.019637792855 16.531558932841
6166 2 -1.200000000000 63.633246345759 12.246223969044 18.105993116921
6167 2 -1.200000000000 65.561526538054 8.906344704760 18.105993116921
6168 2 -1.200000000000 65.561526538054 11.132930880950 19.680427301001
6169 1 2.400000000000 65.561526538054 15.586103233329 15.744341840801
6170 1 2.400000000000 67.489806730350 16.699396321424 18.893210208961
6171 1 2.400000000000 63.633246345759 16.699396321424 18.893210208961
6172 1 2.400000000000 65.561526538054 13.359517057139 18.893210208961
6173 2 -1.200000000000 65.561526538054 15.586103233329 18.105993116921
6174 2 -1.200000000000 65.561526538054 17.812689409519 19.680427301001
6175 2 -1.200000000000 67.489806730350 14.472810145234 19.680427301001
6176 2 -1.200000000000 67.489806730350 16.699396321424 21.254861485081
6177 2 -1.200000000000 63.633246345759 14.472810145234 19.680427301001
6178 2 -1.200000000000 63.633246345759 16.699396321424 21.254861485081
6179 2 -1.200000000000 65.561526538054 13.359517057139 21.254861485081
6180 2 -1.200000000000 65.561526538054 15.586103233329 22.829295669162
6181 1 2.400000000000 65.561526538054 20.039275585709 18.893210208961
6182 1 2.400000000000 67.489806730350 21.152568673804 22.042078577122
6183 1 2.400000000000 63.633246345759 21.152568673804 22.042078577122
6184 1 2.400000000000 65.561526538054 17.812689409519 22.042078577122
6185 2 -1.200000000000 65.561526538054 20.039275585709 21.254861485081
6186 2 -1.200000000000 65.561526538054 22.265861761899 22.829295669162
6187 2 -1.200000000000 67.489806730350 18.925982497614 22.829295669162
6188 2 -1.200000000000 67.489806730350 21.152568673804 24.403729853242
6189 2 -1.200000000000 63.633246345759 18.925982497614 22.829295669162
6190 2 -1.200000000000 63.633246345759 21.152568673804 24.403729853242
6191 2 -1.200000000000 65.561526538054 17.812689409519 24.403729853242
6192 2 -1.200000000000 65.561526538054 20.039275585709 25.978164037322
6193 1 2.400000000000 65.561526538054 24.492447938089 22.042078577122
6194 1 2.400000000000 67.489806730350 25.605741026184 25.190946945282
6195 1 2.400000000000 63.633246345759 25.605741026184 25.190946945282
6196 1 2.400000000000 65.561526538054 22.265861761899 25.190946945282
6197 2 -1.200000000000 65.561526538054 24.492447938089 24.403729853242
6198 2 -1.200000000000 65.561526538054 0.000000000000 25.978164037322
6199 2 -1.200000000000 67.489806730350 23.379154849994 25.978164037322
6200 2 -1.200000000000 67.489806730350 25.605741026184 27.552598221402
6201 2 -1.200000000000 63.633246345759 23.379154849994 25.978164037322
6202 2 -1.200000000000 63.633246345759 25.605741026184 27.552598221402
6203 2 -1.200000000000 65.561526538054 22.265861761899 27.552598221402
6204 2 -1.200000000000 65.561526538054 24.492447938089 0.787217092040
6205 1 2.400000000000 69.418086922646 0.000000000000 9.446605104481
6206 1 2.400000000000 71.346367114941 1.113293088095 12.595473472641
6207 1 2.400000000000 67.489806730350 1.113293088095 12.595473472641
6208 1 2.400000000000 69.418086922646 24.492447938089 12.595473472641
6209 2 -1.200000000000 69.418086922646 0.000000000000 11.808256380601
6210 2 -1.200000000000 69.418086922646 2.226586176190 13.382690564681
6211 2 -1.200000000000 71.346367114941 25.605741026184 13.382690564681
6212 2 -1.200000000000 71.346367114941 1.113293088095 14.957124748761
6213 2 -1.200000000000 67.489806730350 25.605741026184 13.382690564681
6214 2 -1.200000000000 67.489806730350 1.113293088095 14.957124748761
6215 2 -1.200000000000 69.418086922646 24.492447938089 14.957124748761
6216 2 -1.200000000000 69.418086922646 0.000000000000 16.531558932841
6217 1 2.400000000000 69.418086922646 4.453172352380 12.595473472641
6218 1 2.400000000000 71.346367114941 5.566465440475 15.744341840801
6219 1 2.400000000000 67.489806730350 5.566465440475 15.744341840801
6220 1 2.400000000000 69.418086922646 2.226586176190 15.744341840801
6221 2 -1.200000000000 69.418086922646 4.453172352380 14.957124748761
6222 2 -1.200000000000 69.418086922646 6.679758528570 16.531558932841
6223 2 -1.200000000000 71.346367114941 3.339879264285 16.531558932841
6224 2 -1.200000000000 71.346367114941 5.566465440475 18.105993116921
6225 2 -1.200000000000 67.489806730350 3.339879264285 16.531558932841
6226 2 -1.200000000000 67.489806730350 5.566465440475 18.105993116921
6227 2 -1.200000000000 69.418086922646 2.226586176190 18.105993116921
6228 2 -1.200000000000 69.418086922646 4.453172352380 19.680427301001
6229 1 2.400000000000 69.418086922646 8.906344704760 15.744341840801
6230 1 2.400000000000 71.346367114941 10.019637792855 18.893210208961
6231 1 2.400000000000 67.489806730350 10.019637792855 18.893210208961
6232 1 2.400000000000 69.418086922646 6.679758528570 18.893210208961
6233 2 -1.200000000000 69.418086922646 8.906344704760 18.105993116921
6234 2 -1.200000000000 69.418086922646 11.132930880950 19.680427301001
6235 2 -1.200000000000 71.346367114941 7.793051616665 19.680427301001
6236 2 -1.200000000000 71.346367114941 10.019637792855 21.254861485081
6237 2 -1.200000000000 67.489806730350 7.793051616665 19.680427301001
6238 2 -1.200000000000 67.489806730350 10.019637792855 21.254861485081
6239 2 -1.200000000000 69.418086922646 6.679758528570 21.254861485081
6240 2 -1.200000000000 69.418086922646 8.906344704760 22.829295669162
6241 1 2.400000000000 69.418086922646 13.359517057139 18.893210208961
6242 1 2.400000000000 71.346367114941 14.472810145234 22.042078577122
6243 1 2.400000000000 67.489806730350 14.472810145234 22.042078577122
6244 1 2.400000000000 69.418086922646 11.132930880950 22.042078577122
6245 2 -1.200000000000 69.418086922646 13.359517057139 21.254861485081
6246 2 -1.200000000000 69.418086922646 15.586103233329 22.829295669162
6247 2 -1.200000000000 71.346367114941 12.246223969044 22.829295669162
6248 2 -1.200000000000 71.346367114941 14.472810145234 24.403729853242
6249 2 -1.200000000000 67.489806730350 12.246223969044 22.829295669162
6250 2 -1.200000000000 67.489806730350 14.472810145234 24.403729853242
6251 2 -1.200000000000 69.418086922646 11.132930880950 24.403729853242
6252 2 -1.200000000000 69.418086922646 13.359517057139 25.978164037322
6253 1 2.400000000000 69.418086922646 17.812689409519 22.042078577122
6254 1 2.400000000000 71.346367114941 18.925982497614 25.190946945282
6255 1 2.400000000000 67.489806730350 18.925982497614 25.190946945282
6256 1 2.400000000000 69.418086922646 15.586103233329 25.190946945282
6257 2 -1.200000000000 69.418086922646 17.812689409519 24.403729853242
6258 2 -1.200000000000 69.418086922646 20.039275585709 25.978164037322
6259 2 -1.200000000000 71.346367114941 16.699396321424 25.978164037322
6260 2 -1.200000000000 71.346367114941 18.925982497614 27.552598221402
6261 2 -1.200000000000 67.489806730350 16.699396321424 25.978164037322
6262 2 -1.200000000000 67.489806730350 18.925982497614 27.552598221402
6263 2 -1.200000000000 69.418086922646 15.586103233329 27.552598221402
6264 2 -1.200000000000 69.418086922646 17.812689409519 0.787217092040
6265 1 2.400000000000 69.418086922646 22.265861761899 25.190946945282
6266 1 2.400000000000 71.346367114941 23.379154849994 0.000000000000
6267 1 2.400000000000 67.489806730350 23.379154849994 0.000000000000
6268 1 2.400000000000 69.418086922646 20.039275585709 0.000000000000
6269 2 -1.200000000000 69.418086922646 22.265861761899 27.552598221402
6270 2 -1.200000000000 69.418086922646 24.492447938089 0.787217092040
6271 2 -1.200000000000 71.346367114941 21.152568673804 0.787217092040
6272 2 -1.200000000000 71.346367114941 23.379154849994 2.361651276120
6273 2 -1.200000000000 67.489806730350 21.152568673804 0.787217092040
6274 2 -1.200000000000 67.489806730350 23.379154849994 2.361651276120
6275 2 -1.200000000000 69.418086922646 20.039275585709 2.361651276120
6276 2 -1.200000000000 69.418086922646 22.265861761899 3.936085460200
6277 1 2.400000000000 73.274647307237 2.226586176190 15.744341840801
6278 1 2.400000000000 75.202927499533 3.339879264285 18.893210208961
6279 1 2.400000000000 71.346367114941 3.339879264285 18.893210208961
6280 1 2.400000000000 73.274647307237 0.000000000000 18.893210208961
6281 2 -1.200000000000 73.274647307237 2.226586176190 18.105993116921
6282 2 -1.200000000000 73.274647307237 4.453172352380 19.680427301001
6283 2 -1.200000000000 75.202927499533 1.113293088095 19.680427301001
6284 2 -1.200000000000 75.202927499533 3.339879264285 21.254861485081
6285 2 -1.200000000000 71.346367114941 1.113293088095 19.680427301001
6286 2 -1.200000000000 71.346367114941 3.339879264285 21.254861485081
6287 2 -1.200000000000 73.274647307237 0.000000000000 21.254861485081
6288 2 -1.200000000000 73.274647307237 2.226586176190 22.829295669162
6289 1 2.400000000000 73.274647307237 6.679758528570 18.893210208961
6290 1 2.400000000000 75.202927499533 7.793051616665 22.042078577122
6291 1 2.400000000000 71.346367114941 7.793051616665 22.042078577122
6292 1 2.400000000000 73.274647307237 4.453172352380 22.042078577122
6293 2 -1.200000000000 73.274647307237 6.679758528570 21.254861485081
6294 2 -1.200000000000 73.274647307237 8.906344704760 22.829295669162
6295 2 -1.200000000000 75.202927499533 5.566465440475 22.829295669162
6296 2 -1.200000000000 75.202927499533 7.793051616665 24.403729853242
6297 2 -1.200000000000 71.346367114941 5.566465440475 22.829295669162
6298 2 -1.200000000000 71.346367114941 7.793051616665 24.403729853242
6299 2 -1.200000000000 73.274647307237 4.453172352380 24.403729853242
6300 2 -1.200000000000 73.274647307237 6.679758528570 25.978164037322
6301 1 2.400000000000 73.274647307237 11.132930880950 22.042078577122
6302 1 2.400000000000 75.202927499533 12.246223969045 25.190946945282
6303 1 2.400000000000 71.346367114941 12.246223969045 25.190946945282
6304 1 2.400000000000 73.274647307237 8.906344704760 25.190946945282
6305 2 -1.200000000000 73.274647307237 11.132930880950 24.403729853242
6306 2 -1.200000000000 73.274647307237 13.359517057139 25.978164037322
6307 2 -1.200000000000 75.202927499533 10.019637792855 25.978164037322
6308 2 -1.200000000000 75.202927499533 12.246223969044 27.552598221402
6309 2 -1.200000000000 71.346367114941 10.019637792855 25.978164037322
6310 2 -1.200000000000 71.346367114941 12.246223969045 27.552598221402
6311 2 -1.200000000000 73.274647307237 8.906344704760 27.552598221402
6312 2 -1.200000000000 73.274647307237 11.132930880950 0.787217092040
6313 1 2.400000000000 73.274647307237 15.586103233329 25.190946945282
6314 1 2.400000000000 75.202927499533 16.699396321424 0.000000000000
6315 1 2.400000000000 71.346367114941 16.699396321424 0.000000000000
6316 1 2.400000000000 73.274647307237 13.359517057139 0.000000000000
6317 2 -1.200000000000 73.274647307237 15.586103233329 27.552598221402
6318 2 -1.200000000000 73.274647307237 17.812689409519 0.787217092040
6319 2 -1.200000000000 75.202927499533 14.472810145234 0.787217092040
6320 2 -1.200000000000 75.202927499533 16.699396321424 2.361651276120
6321 2 -1.200000000000 71.346367114941 14.472810145234 0.787217092040
6322 2 -1.200000000000 71.346367114941 16.699396321424 2.361651276120
6323 2 -1.200000000000 73.274647307237 13.359517057139 2.361651276120
6324 2 -1.200000000000 73.274647307237 15.586103233329 3.936085460200
6325 1 2.400000000000 77.131207691829 0.000000000000 18.893210208961
6326 1 2.400000000000 79.059487884124 1.113293088095 22.042078577122
6327 1 2.400000000000 75.202927499533 1.113293088095 22.042078577122
6328 1 2.400000000000 77.131207691829 24.492447938089 22.042078577122
6329 2 -1.200000000000 77.131207691829 0.000000000000 21.254861485081
6330 2 -1.200000000000 77.131207691829 2.226586176190 22.829295669162
6331 2 -1.200000000000 79.059487884124 25.605741026184 22.829295669162
6332 2 -1.200000000000 79.059487884124 1.113293088095 24.403729853242
6333 2 -1.200000000000 75.202927499533 25.605741026184 22.829295669162
6334 2 -1.200000000000 75.202927499533 1.113293088095 24.403729853242
6335 2 -1.200000000000 77.131207691829 24.492447938089 24.403729853242
6336 2 -1.200000000000 77.131207691829 0.000000000000 25.978164037322
6337 1 2.400000000000 77.131207691829 4.453172352380 22.042078577122
6338 1 2.400000000000 79.059487884124 5.566465440475 25.190946945282
6339 1 2.400000000000 75.202927499533 5.566465440475 25.190946945282
6340 1 2.400000000000 77.131207691829 2.226586176190 25.190946945282
6341 2 -1.200000000000 77.131207691829 4.453172352380 24.403729853242
6342 2 -1.200000000000 77.131207691829 6.679758528570 25.978164037322
6343 2 -1.200000000000 79.059487884124 3.339879264285 25.978164037322
6344 2 -1.200000000000 79.059487884124 5.566465440475 27.552598221402
6345 2 -1.200000000000 75.202927499533 3.339879264285 25.978164037322
6346 2 -1.200000000000 75.202927499533 5.566465440475 27.552598221402
6347 2 -1.200000000000 77.131207691829 2.226586176190 27.552598221402
6348 2 -1.200000000000 77.131207691829 4.453172352380 0.787217092040
6349 1 2.400000000000 77.131207691829 8.906344704760 25.190946945282
6350 1 2.400000000000 79.059487884124 10.019637792855 0.000000000000
6351 1 2.400000000000 75.202927499533 10.019637792855 0.000000000000
6352 1 2.400000000000 77.131207691829 6.679758528570 0.000000000000
6353 2 -1.200000000000 77.131207691829 8.906344704760 27.552598221402
6354 2 -1.200000000000 77.131207691829 11.132930880950 0.787217092040
6355 2 -1.200000000000 79.059487884124 7.793051616665 0.787217092040
6356 2 -1.200000000000 79.059487884124 10.019637792855 2.361651276120
6357 2 -1.200000000000 75.202927499533 7.793051616665 0.787217092040
6358 2 -1.200000000000 75.202927499533 10.019637792855 2.361651276120
6359 2 -1.200000000000 77.131207691829 6.679758528570 2.361651276120
6360 2 -1.200000000000 77.131207691829 8.906344704760 3.936085460200
6361 1 2.400000000000 80.987768076420 2.226586176190 25.190946945282
6362 1 2.400000000000 82.916048268716 3.339879264285 0.000000000000
6363 1 2.400000000000 79.059487884124 3.339879264285 0.000000000000
6364 1 2.400000000000 80.987768076420 0.000000000000 0.000000000000
6365 2 -1.200000000000 80.987768076420 2.226586176190 27.552598221402
6366 2 -1.200000000000 80.987768076420 4.453172352380 0.787217092040
6367 2 -1.200000000000 82.916048268716 1.113293088095 0.787217092040
6368 2 -1.200000000000 82.916048268716 3.339879264285 2.361651276120
6369 2 -1.200000000000 79.059487884124 1.113293088095 0.787217092040
6370 2 -1.200000000000 79.059487884124 3.339879264285 2.361651276120
6371 2 -1.200000000000 80.987768076420 0.000000000000 2.361651276120
6372 2 -1.200000000000 80.987768076420 2.226586176190 3.936085460200
6373 1 2.400000000000 65.561526538054 2.226586176190 15.744341840801
6374 1 2.400000000000 67.489806730350 3.339879264285 18.893210208961
6375 1 2.400000000000 63.633246345759 3.339879264285 18.893210208961
6376 1 2.400000000000 65.561526538054 0.000000000000 18.893210208961
6377 2 -1.200000000000 65.561526538054 2.226586176190 18.105993116921
6378 2 -1.200000000000 65.561526538054 4.453172352380 19.680427301001
6379 2 -1.200000000000 67.489806730350 1.113293088095 19.680427301001
6380 2 -1.200000000000 67.489806730350 3.339879264285 21.254861485081
6381 2 -1.200000000000 63.633246345759 1.113293088095 19.680427301001
6382 2 -1.200000000000 63.633246345759 3.339879264285 21.254861485081
6383 2 -1.200000000000 65.561526538054 0.000000000000 21.254861485081
6384 2 -1.200000000000 65.561526538054 2.226586176190 22.829295669162
6385 1 2.400000000000 65.561526538054 6.679758528570 18.893210208961
6386 1 2.400000000000 67.489806730350 7.793051616665 22.042078577122
6387 1 2.400000000000 63.633246345759 7.793051616665 22.042078577122
6388 1 2.400000000000 65.561526538054 4.453172352380 22.042078577122
6389 2 -1.200000000000 65.561526538054 6.679758528570 21.254861485081
6390 2 -1.200000000000 65.561526538054 8.906344704760 22.829295669162
6391 2 -1.200000000000 67.489806730350 5.566465440475 22.829295669162
6392 2 -1.200000000000 67.489806730350 7.793051616665 24.403729853242
6393 2 -1.200000000000 63.633246345759 5.566465440475 22.829295669162
6394 2 -1.200000000000 63.633246345759 7.793051616665 24.403729853242
6395 2 -1.200000000000 65.561526538054 4.453172352380 24.403729853242
6396 2 -1.200000000000 65.561526538054 6.679758528570 25.978164037322
6397 1 2.400000000000 65.561526538054 11.132930880950 22.042078577122
6398 1 2.400000000000 67.489806730350 12.246223969045 25.190946945282
6399 1 2.400000000000 63.633246345759 12.246223969045 25.190946945282
6400 1 2.400000000000 65.561526538054 8.906344704760 25.190946945282
6401 2 -1.200000000000 65.561526538054 11.132930880950 24.403729853242
6402 2 -1.200000000000 65.561526538054 13.359517057139 25.978164037322
6403 2 -1.200000000000 67.489806730350 10.019637792855 25.978164037322
6404 2 -1.200000000000 67.489806730350 12.246223969044 27.552598221402
6405 2 -1.200000000000 63.633246345759 10.019637792855 25.978164037322
6406 2 -1.200000000000 63.633246345759 12.246223969044 27.552598221402
6407 2 -1.200000000000 65.561526538054 8.906344704760 27.552598221402
6408 2 -1.200000000000 65.561526538054 11.132930880950 0.787217092040
6409 1 2.400000000000 65.561526538054 15.586103233329 25.190946945282
6410 1 2.400000000000 67.489806730350 16.699396321424 0.000000000000
6411 1 2.400000000000 63.633246345759 16.699396321424 0.000000000000
6412 1 2.400000000000 65.561526538054 13.359517057139 0.000000000000
6413 2 -1.200000000000 65.561526538054 15.586103233329 27.552598221402
6414 2 -1.200000000000 65.561526538054 17.812689409519 0.787217092040
6415 2 -1.200000000000 67.489806730350 14.472810145234 0.787217092040
6416 2 -1.200000000000 67.489806730350 16.699396321424 2.361651276120
6417 2 -1.200000000000 63.633246345759 14.472810145234 0.787217092040
6418 2 -1.200000000000 63.633246345759 16.699396321424 2.361651276120
6419 2 -1.200000000000 65.561526538054 13.359517057139 2.361651276120
6420 2 -1.200000000000 65.561526538054 15.586103233329 3.936085460200
6421 1 2.400000000000 69.418086922646 0.000000000000 18.893210208961
6422 1 2.400000000000 71.346367114941 1.113293088095 22.042078577122
6423 1 2.400000000000 67.489806730350 1.113293088095 22.042078577122
6424 1 2.400000000000 69.418086922646 24.492447938089 22.042078577122
6425 2 -1.200000000000 69.418086922646 0.000000000000 21.254861485081
6426 2 -1.200000000000 69.418086922646 2.226586176190 22.829295669162
6427 2 -1.200000000000 71.346367114941 25.605741026184 22.829295669162
6428 2 -1.200000000000 71.346367114941 1.113293088095 24.403729853242
6429 2 -1.200000000000 67.489806730350 25.605741026184 22.829295669162
6430 2 -1.200000000000 67.489806730350 1.113293088095 24.403729853242
6431 2 -1.200000000000 69.418086922646 24.492447938089 24.403729853242
6432 2 -1.200000000000 69.418086922646 0.000000000000 25.978164037322
6433 1 2.400000000000 69.418086922646 4.453172352380 22.042078577122
6434 1 2.400000000000 71.346367114941 5.566465440475 25.190946945282
6435 1 2.400000000000 67.489806730350 5.566465440475 25.190946945282
6436 1 2.400000000000 69.418086922646 2.226586176190 25.190946945282
6437 2 -1.200000000000 69.418086922646 4.453172352380 24.403729853242
6438 2 -1.200000000000 69.418086922646 6.679758528570 25.978164037322
6439 2 -1.200000000000 71.346367114941 3.339879264285 25.978164037322
6440 2 -1.200000000000 71.346367114941 5.566465440475 27.552598221402
6441 2 -1.200000000000 67.489806730350 3.339879264285 25.978164037322
6442 2 -1.200000000000 67.489806730350 5.566465440475 27.552598221402
6443 2 -1.200000000000 69.418086922646 2.226586176190 27.552598221402
6444 2 -1.200000000000 69.418086922646 4.453172352380 0.787217092040
6445 1 2.400000000000 69.418086922646 8.906344704760 25.190946945282
6446 1 2.400000000000 71.346367114941 10.019637792855 0.000000000000
6447 1 2.400000000000 67.489806730350 10.019637792855 0.000000000000
6448 1 2.400000000000 69.418086922646 6.679758528570 0.000000000000
6449 2 -1.200000000000 69.418086922646 8.906344704760 27.552598221402
6450 2 -1.200000000000 69.418086922646 11.132930880950 0.787217092040
6451 2 -1.200000000000 71.346367114941 7.793051616665 0.787217092040
6452 2 -1.200000000000 71.346367114941 10.019637792855 2.361651276120
6453 2 -1.200000000000 67.489806730350 7.793051616665 0.787217092040
6454 2 -1.200000000000 67.489806730350 10.019637792855 2.361651276120
6455 2 -1.200000000000 69.418086922646 6.679758528570 2.361651276120
6456 2 -1.200000000000 69.418086922646 8.906344704760 3.936085460200
6457 1 2.400000000000 73.274647307237 2.226586176190 25.190946945282
6458 1 2.400000000000 75.202927499533 3.339879264285 0.000000000000
6459 1 2.400000000000 71.346367114941 3.339879264285 0.000000000000
6460 1 2.400000000000 73.274647307237 0.000000000000 0.000000000000
6461 2 -1.200000000000 73.274647307237 2.226586176190 27.552598221402
6462 2 -1.200000000000 73.274647307237 4.453172352380 0.787217092040
6463 2 -1.200000000000 75.202927499533 1.113293088095 0.787217092040
6464 2 -1.200000000000 75.202927499533 3.339879264285 2.361651276120
6465 2 -1.200000000000 71.346367114941 1.113293088095 0.787217092040
6466 2 -1.200000000000 71.346367114941 3.339879264285 2.361651276120
6467 2 -1.200000000000 73.274647307237 0.000000000000 2.361651276120
6468 2 -1.200000000000 73.274647307237 2.226586176190 3.936085460200
6469 1 2.400000000000 65.561526538054 2.226586176190 25.190946945282
6470 1 2.400000000000 67.489806730350 3.339879264285 0.000000000000
6471 1 2.400000000000 63.633246345759 3.339879264285 0.000000000000
6472 1 2.400000000000 65.561526538054 0.000000000000 0.000000000000
6473 2 -1.200000000000 65.561526538054 2.226586176190 27.552598221402
6474 2 -1.200000000000 65.561526538054 4.453172352380 0.787217092040
6475 2 -1.200000000000 67.489806730350 1.113293088095 0.787217092040
6476 2 -1.200000000000 67.489806730350 3.339879264285 2.361651276120
6477 2 -1.200000000000 63.633246345759 1.113293088095 0.787217092040
6478 2 -1.200000000000 63.633246345759 3.339879264285 2.361651276120
6479 2 -1.200000000000 65.561526538054 0.000000000000 2.361651276120
6480 2 -1.200000000000 65.561526538054 2.226586176190 3.936085460200
