Crystalline OU atoms

11856 atoms
2 atom types
0.000000000000 177.234021835538 xlo xhi
0.000000000000 36.177743213197 ylo yhi
0.000000000000 26.719034114279 zlo zhi

Atoms

1 1 2.400000000000 -0.000000000000 -0.000000000000 13.359517057139
2 1 2.400000000000 1.678352479503 32.888857466542 14.472810145234
3 1 2.400000000000 2.685363967205 34.533300339870 11.132930880950
4 1 2.400000000000 3.692375454907 -0.000000000000 14.472810145234
5 2 -1.200000000000 2.014022975404 34.944411058201 13.359517057139
6 2 -1.200000000000 2.349693471304 32.477746748211 12.246223969045
7 2 -1.200000000000 3.356704959006 34.122189621538 15.586103233329
8 2 -1.200000000000 3.692375454907 31.655525311547 14.472810145234
9 2 -1.200000000000 4.363716446708 35.766632494865 12.246223969045
10 2 -1.200000000000 4.699386942609 33.299968184874 11.132930880950
11 2 -1.200000000000 5.706398430311 34.944411058201 14.472810145234
12 2 -1.200000000000 6.042068926212 32.477746748211 13.359517057139
13 1 2.400000000000 0.671340991801 13.155542986617 24.492447938089
14 1 2.400000000000 2.349693471304 9.866657239963 25.605741026184
15 1 2.400000000000 3.356704959006 11.511100113290 22.265861761899
16 1 2.400000000000 4.363716446708 13.155542986617 25.605741026184
17 2 -1.200000000000 2.685363967205 11.922210831622 24.492447938089
18 2 -1.200000000000 3.021034463106 9.455546521631 23.379154849994
19 2 -1.200000000000 4.028045950808 11.099989394958 0.000000000000
20 2 -1.200000000000 4.363716446708 8.633325084967 25.605741026184
21 2 -1.200000000000 5.035057438510 12.744432268285 23.379154849994
22 2 -1.200000000000 5.370727934410 10.277767958295 22.265861761899
23 2 -1.200000000000 6.377739422112 11.922210831622 25.605741026184
24 2 -1.200000000000 6.713409918013 9.455546521631 24.492447938089
25 1 2.400000000000 1.342681983603 8.222214366636 22.265861761899
26 1 2.400000000000 3.021034463106 4.933328619981 23.379154849994
27 1 2.400000000000 4.028045950808 6.577771493308 20.039275585709
28 1 2.400000000000 5.035057438510 8.222214366636 23.379154849994
29 2 -1.200000000000 3.356704959006 6.988882211640 22.265861761899
30 2 -1.200000000000 3.692375454907 4.522217901650 21.152568673804
31 2 -1.200000000000 4.699386942609 6.166660774977 24.492447938089
32 2 -1.200000000000 5.035057438510 3.699996464986 23.379154849994
33 2 -1.200000000000 5.706398430311 7.811103648304 21.152568673804
34 2 -1.200000000000 6.042068926212 5.344439338313 20.039275585709
35 2 -1.200000000000 7.049080413913 6.988882211640 23.379154849994
36 2 -1.200000000000 7.384750909814 4.522217901650 22.265861761899
37 1 2.400000000000 2.014022975404 3.288885746654 20.039275585709
38 1 2.400000000000 3.692375454907 -0.000000000000 21.152568673804
39 1 2.400000000000 4.699386942609 1.644442873327 17.812689409519
40 1 2.400000000000 5.706398430311 3.288885746654 21.152568673804
41 2 -1.200000000000 4.028045950808 2.055553591659 20.039275585709
42 2 -1.200000000000 4.363716446708 35.766632494865 18.925982497614
43 2 -1.200000000000 5.370727934410 1.233332154995 22.265861761899
44 2 -1.200000000000 5.706398430311 34.944411058201 21.152568673804
45 2 -1.200000000000 6.377739422112 2.877775028322 18.925982497614
46 2 -1.200000000000 6.713409918013 0.411110718332 17.812689409519
47 2 -1.200000000000 7.720421405715 2.055553591659 21.152568673804
48 2 -1.200000000000 8.056091901615 35.766632494865 20.039275585709
49 1 2.400000000000 4.699386942609 1.644442873327 24.492447938089
50 1 2.400000000000 6.377739422112 34.533300339870 25.605741026184
51 1 2.400000000000 7.384750909814 -0.000000000000 22.265861761899
52 1 2.400000000000 8.391762397516 1.644442873327 25.605741026184
53 2 -1.200000000000 6.713409918013 0.411110718332 24.492447938089
54 2 -1.200000000000 7.049080413913 34.122189621538 23.379154849994
55 2 -1.200000000000 8.056091901615 35.766632494865 0.000000000000
56 2 -1.200000000000 8.391762397516 33.299968184874 25.605741026184
57 2 -1.200000000000 9.063103389317 1.233332154995 23.379154849994
58 2 -1.200000000000 9.398773885218 34.944411058201 22.265861761899
59 2 -1.200000000000 10.405785372920 0.411110718332 25.605741026184
60 2 -1.200000000000 10.741455868820 34.122189621538 24.492447938089
61 1 2.400000000000 0.000000000000 0.000000000000 0.000000000000
62 1 2.400000000000 1.678352479503 32.888857466542 1.113293088095
63 1 2.400000000000 2.685363967205 34.533300339870 24.492447938089
64 1 2.400000000000 3.692375454907 -0.000000000000 1.113293088095
65 2 -1.200000000000 2.014022975404 34.944411058201 0.000000000000
66 2 -1.200000000000 2.349693471304 32.477746748211 25.605741026184
67 2 -1.200000000000 3.356704959006 34.122189621538 2.226586176190
68 2 -1.200000000000 3.692375454907 31.655525311547 1.113293088095
69 2 -1.200000000000 4.363716446708 35.766632494865 25.605741026184
70 2 -1.200000000000 4.699386942609 33.299968184874 24.492447938089
71 2 -1.200000000000 5.706398430311 34.944411058201 1.113293088095
72 2 -1.200000000000 6.042068926212 32.477746748211 0.000000000000
73 1 2.400000000000 -0.000000000000 18.088871606598 13.359517057139
74 1 2.400000000000 1.678352479503 14.799985859944 14.472810145234
75 1 2.400000000000 2.685363967205 16.444428733271 11.132930880950
76 1 2.400000000000 3.692375454907 18.088871606598 14.472810145234
77 2 -1.200000000000 2.014022975404 16.855539451603 13.359517057139
78 2 -1.200000000000 2.349693471304 14.388875141612 12.246223969045
79 2 -1.200000000000 3.356704959006 16.033318014939 15.586103233329
80 2 -1.200000000000 3.692375454907 13.566653704949 14.472810145234
81 2 -1.200000000000 4.363716446708 17.677760888267 12.246223969045
82 2 -1.200000000000 4.699386942609 15.211096578276 11.132930880950
83 2 -1.200000000000 5.706398430311 16.855539451603 14.472810145234
84 2 -1.200000000000 6.042068926212 14.388875141612 13.359517057139
85 1 2.400000000000 0.671340991801 13.155542986617 11.132930880950
86 1 2.400000000000 2.349693471304 9.866657239963 12.246223969044
87 1 2.400000000000 3.356704959006 11.511100113290 8.906344704760
88 1 2.400000000000 4.363716446708 13.155542986617 12.246223969044
89 2 -1.200000000000 2.685363967205 11.922210831622 11.132930880950
90 2 -1.200000000000 3.021034463106 9.455546521631 10.019637792855
91 2 -1.200000000000 4.028045950808 11.099989394958 13.359517057139
92 2 -1.200000000000 4.363716446708 8.633325084967 12.246223969045
93 2 -1.200000000000 5.035057438510 12.744432268285 10.019637792855
94 2 -1.200000000000 5.370727934410 10.277767958295 8.906344704760
95 2 -1.200000000000 6.377739422112 11.922210831622 12.246223969045
96 2 -1.200000000000 6.713409918013 9.455546521631 11.132930880950
97 1 2.400000000000 1.342681983603 8.222214366636 8.906344704760
98 1 2.400000000000 3.021034463106 4.933328619981 10.019637792855
99 1 2.400000000000 4.028045950808 6.577771493308 6.679758528570
100 1 2.400000000000 5.035057438510 8.222214366636 10.019637792855
101 2 -1.200000000000 3.356704959006 6.988882211640 8.906344704760
102 2 -1.200000000000 3.692375454907 4.522217901650 7.793051616665
103 2 -1.200000000000 4.699386942609 6.166660774977 11.132930880950
104 2 -1.200000000000 5.035057438510 3.699996464986 10.019637792855
105 2 -1.200000000000 5.706398430311 7.811103648304 7.793051616665
106 2 -1.200000000000 6.042068926212 5.344439338313 6.679758528570
107 2 -1.200000000000 7.049080413913 6.988882211640 10.019637792855
108 2 -1.200000000000 7.384750909814 4.522217901650 8.906344704760
109 1 2.400000000000 2.014022975404 3.288885746654 6.679758528570
110 1 2.400000000000 3.692375454907 -0.000000000000 7.793051616665
111 1 2.400000000000 4.699386942609 1.644442873327 4.453172352380
112 1 2.400000000000 5.706398430311 3.288885746654 7.793051616665
113 2 -1.200000000000 4.028045950808 2.055553591659 6.679758528570
114 2 -1.200000000000 4.363716446708 35.766632494865 5.566465440475
115 2 -1.200000000000 5.370727934410 1.233332154995 8.906344704760
116 2 -1.200000000000 5.706398430311 34.944411058201 7.793051616665
117 2 -1.200000000000 6.377739422112 2.877775028322 5.566465440475
118 2 -1.200000000000 6.713409918013 0.411110718332 4.453172352380
119 2 -1.200000000000 7.720421405715 2.055553591659 7.793051616665
120 2 -1.200000000000 8.056091901615 35.766632494865 6.679758528570
121 1 2.400000000000 0.671340991801 31.244414593215 24.492447938089
122 1 2.400000000000 2.349693471304 27.955528846561 25.605741026184
123 1 2.400000000000 3.356704959006 29.599971719888 22.265861761899
124 1 2.400000000000 4.363716446708 31.244414593215 25.605741026184
125 2 -1.200000000000 2.685363967205 30.011082438220 24.492447938089
126 2 -1.200000000000 3.021034463106 27.544418128229 23.379154849994
127 2 -1.200000000000 4.028045950808 29.188861001556 0.000000000000
128 2 -1.200000000000 4.363716446708 26.722196691566 25.605741026184
129 2 -1.200000000000 5.035057438510 30.833303874884 23.379154849994
130 2 -1.200000000000 5.370727934410 28.366639564893 22.265861761899
131 2 -1.200000000000 6.377739422112 30.011082438220 25.605741026184
132 2 -1.200000000000 6.713409918013 27.544418128229 24.492447938089
133 1 2.400000000000 1.342681983603 26.311085973234 22.265861761899
134 1 2.400000000000 3.021034463106 23.022200226580 23.379154849994
135 1 2.400000000000 4.028045950808 24.666643099907 20.039275585709
136 1 2.400000000000 5.035057438510 26.311085973234 23.379154849994
137 2 -1.200000000000 3.356704959006 25.077753818239 22.265861761899
138 2 -1.200000000000 3.692375454907 22.611089508248 21.152568673804
139 2 -1.200000000000 4.699386942609 24.255532381575 24.492447938089
140 2 -1.200000000000 5.035057438510 21.788868071584 23.379154849994
141 2 -1.200000000000 5.706398430311 25.899975254902 21.152568673804
142 2 -1.200000000000 6.042068926212 23.433310944911 20.039275585709
143 2 -1.200000000000 7.049080413913 25.077753818239 23.379154849994
144 2 -1.200000000000 7.384750909814 22.611089508248 22.265861761899
145 1 2.400000000000 2.014022975404 21.377757353253 20.039275585709
146 1 2.400000000000 3.692375454907 18.088871606598 21.152568673804
147 1 2.400000000000 4.699386942609 19.733314479925 17.812689409519
148 1 2.400000000000 5.706398430311 21.377757353253 21.152568673804
149 2 -1.200000000000 4.028045950808 20.144425198257 20.039275585709
150 2 -1.200000000000 4.363716446708 17.677760888267 18.925982497614
151 2 -1.200000000000 5.370727934410 19.322203761594 22.265861761899
152 2 -1.200000000000 5.706398430311 16.855539451603 21.152568673804
153 2 -1.200000000000 6.377739422112 20.966646634921 18.925982497614
154 2 -1.200000000000 6.713409918013 18.499982324930 17.812689409519
155 2 -1.200000000000 7.720421405715 20.144425198257 21.152568673804
156 2 -1.200000000000 8.056091901615 17.677760888267 20.039275585709
157 1 2.400000000000 2.685363967205 16.444428733271 17.812689409519
158 1 2.400000000000 4.363716446708 13.155542986617 18.925982497614
159 1 2.400000000000 5.370727934410 14.799985859944 15.586103233329
160 1 2.400000000000 6.377739422112 16.444428733271 18.925982497614
161 2 -1.200000000000 4.699386942609 15.211096578276 17.812689409519
162 2 -1.200000000000 5.035057438510 12.744432268285 16.699396321424
163 2 -1.200000000000 6.042068926212 14.388875141612 20.039275585709
164 2 -1.200000000000 6.377739422112 11.922210831622 18.925982497614
165 2 -1.200000000000 7.049080413913 16.033318014939 16.699396321424
166 2 -1.200000000000 7.384750909814 13.566653704949 15.586103233329
167 2 -1.200000000000 8.391762397516 15.211096578276 18.925982497614
168 2 -1.200000000000 8.727432893417 12.744432268285 17.812689409519
169 1 2.400000000000 3.356704959006 11.511100113290 15.586103233329
170 1 2.400000000000 5.035057438510 8.222214366636 16.699396321424
171 1 2.400000000000 6.042068926212 9.866657239963 13.359517057139
172 1 2.400000000000 7.049080413913 11.511100113290 16.699396321424
173 2 -1.200000000000 5.370727934410 10.277767958295 15.586103233329
174 2 -1.200000000000 5.706398430311 7.811103648304 14.472810145234
175 2 -1.200000000000 6.713409918013 9.455546521631 17.812689409519
176 2 -1.200000000000 7.049080413913 6.988882211640 16.699396321424
177 2 -1.200000000000 7.720421405715 11.099989394958 14.472810145234
178 2 -1.200000000000 8.056091901615 8.633325084967 13.359517057139
179 2 -1.200000000000 9.063103389317 10.277767958295 16.699396321424
180 2 -1.200000000000 9.398773885218 7.811103648304 15.586103233329
181 1 2.400000000000 4.028045950808 6.577771493308 13.359517057139
182 1 2.400000000000 5.706398430311 3.288885746654 14.472810145234
183 1 2.400000000000 6.713409918013 4.933328619981 11.132930880950
184 1 2.400000000000 7.720421405715 6.577771493308 14.472810145234
185 2 -1.200000000000 6.042068926212 5.344439338313 13.359517057139
186 2 -1.200000000000 6.377739422112 2.877775028322 12.246223969045
187 2 -1.200000000000 7.384750909814 4.522217901650 15.586103233329
188 2 -1.200000000000 7.720421405715 2.055553591659 14.472810145234
189 2 -1.200000000000 8.391762397516 6.166660774977 12.246223969045
190 2 -1.200000000000 8.727432893417 3.699996464986 11.132930880950
191 2 -1.200000000000 9.734444381119 5.344439338313 14.472810145234
192 2 -1.200000000000 10.070114877019 2.877775028322 13.359517057139
193 1 2.400000000000 4.699386942609 1.644442873327 11.132930880950
194 1 2.400000000000 6.377739422112 34.533300339870 12.246223969045
195 1 2.400000000000 7.384750909814 -0.000000000000 8.906344704760
196 1 2.400000000000 8.391762397516 1.644442873327 12.246223969045
197 2 -1.200000000000 6.713409918013 0.411110718332 11.132930880950
198 2 -1.200000000000 7.049080413913 34.122189621538 10.019637792855
199 2 -1.200000000000 8.056091901615 35.766632494865 13.359517057139
200 2 -1.200000000000 8.391762397516 33.299968184874 12.246223969045
201 2 -1.200000000000 9.063103389317 1.233332154995 10.019637792855
202 2 -1.200000000000 9.398773885218 34.944411058201 8.906344704760
203 2 -1.200000000000 10.405785372920 0.411110718332 12.246223969045
204 2 -1.200000000000 10.741455868820 34.122189621538 11.132930880950
205 1 2.400000000000 4.699386942609 19.733314479925 24.492447938089
206 1 2.400000000000 6.377739422112 16.444428733271 25.605741026184
207 1 2.400000000000 7.384750909814 18.088871606598 22.265861761899
208 1 2.400000000000 8.391762397516 19.733314479925 25.605741026184
209 2 -1.200000000000 6.713409918013 18.499982324930 24.492447938089
210 2 -1.200000000000 7.049080413913 16.033318014939 23.379154849994
211 2 -1.200000000000 8.056091901615 17.677760888267 0.000000000000
212 2 -1.200000000000 8.391762397516 15.211096578276 25.605741026184
213 2 -1.200000000000 9.063103389317 19.322203761594 23.379154849994
214 2 -1.200000000000 9.398773885218 16.855539451603 22.265861761899
215 2 -1.200000000000 10.405785372920 18.499982324930 25.605741026184
216 2 -1.200000000000 10.741455868820 16.033318014939 24.492447938089
217 1 2.400000000000 5.370727934410 14.799985859944 22.265861761899
218 1 2.400000000000 7.049080413913 11.511100113290 23.379154849994
219 1 2.400000000000 8.056091901615 13.155542986617 20.039275585709
220 1 2.400000000000 9.063103389317 14.799985859944 23.379154849994
221 2 -1.200000000000 7.384750909814 13.566653704949 22.265861761899
222 2 -1.200000000000 7.720421405715 11.099989394958 21.152568673804
223 2 -1.200000000000 8.727432893417 12.744432268285 24.492447938089
224 2 -1.200000000000 9.063103389317 10.277767958295 23.379154849994
225 2 -1.200000000000 9.734444381119 14.388875141612 21.152568673804
226 2 -1.200000000000 10.070114877019 11.922210831622 20.039275585709
227 2 -1.200000000000 11.077126364721 13.566653704949 23.379154849994
228 2 -1.200000000000 11.412796860622 11.099989394958 22.265861761899
229 1 2.400000000000 6.042068926212 9.866657239963 20.039275585709
230 1 2.400000000000 7.720421405715 6.577771493308 21.152568673804
231 1 2.400000000000 8.727432893417 8.222214366636 17.812689409519
232 1 2.400000000000 9.734444381119 9.866657239963 21.152568673804
233 2 -1.200000000000 8.056091901615 8.633325084967 20.039275585709
234 2 -1.200000000000 8.391762397516 6.166660774977 18.925982497614
235 2 -1.200000000000 9.398773885218 7.811103648304 22.265861761899
236 2 -1.200000000000 9.734444381119 5.344439338313 21.152568673804
237 2 -1.200000000000 10.405785372920 9.455546521631 18.925982497614
238 2 -1.200000000000 10.741455868820 6.988882211640 17.812689409519
239 2 -1.200000000000 11.748467356522 8.633325084967 21.152568673804
240 2 -1.200000000000 12.084137852423 6.166660774977 20.039275585709
241 1 2.400000000000 6.713409918013 4.933328619981 17.812689409519
242 1 2.400000000000 8.391762397516 1.644442873327 18.925982497614
243 1 2.400000000000 9.398773885218 3.288885746654 15.586103233329
244 1 2.400000000000 10.405785372920 4.933328619981 18.925982497614
245 2 -1.200000000000 8.727432893417 3.699996464986 17.812689409519
246 2 -1.200000000000 9.063103389317 1.233332154995 16.699396321424
247 2 -1.200000000000 10.070114877019 2.877775028322 20.039275585709
248 2 -1.200000000000 10.405785372920 0.411110718332 18.925982497614
249 2 -1.200000000000 11.077126364721 4.522217901650 16.699396321424
250 2 -1.200000000000 11.412796860622 2.055553591659 15.586103233329
251 2 -1.200000000000 12.419808348324 3.699996464986 18.925982497614
252 2 -1.200000000000 12.755478844224 1.233332154995 17.812689409519
253 1 2.400000000000 7.384750909814 -0.000000000000 15.586103233329
254 1 2.400000000000 9.063103389317 32.888857466542 16.699396321424
255 1 2.400000000000 10.070114877019 34.533300339870 13.359517057139
256 1 2.400000000000 11.077126364721 -0.000000000000 16.699396321424
257 2 -1.200000000000 9.398773885218 34.944411058201 15.586103233329
258 2 -1.200000000000 9.734444381119 32.477746748211 14.472810145234
259 2 -1.200000000000 10.741455868820 34.122189621538 17.812689409519
260 2 -1.200000000000 11.077126364721 31.655525311547 16.699396321424
261 2 -1.200000000000 11.748467356522 35.766632494865 14.472810145234
262 2 -1.200000000000 12.084137852423 33.299968184874 13.359517057139
263 2 -1.200000000000 13.091149340125 34.944411058201 16.699396321424
264 2 -1.200000000000 13.426819836026 32.477746748211 15.586103233329
265 1 2.400000000000 8.727432893417 8.222214366636 24.492447938089
266 1 2.400000000000 10.405785372920 4.933328619981 25.605741026184
267 1 2.400000000000 11.412796860622 6.577771493308 22.265861761899
268 1 2.400000000000 12.419808348324 8.222214366636 25.605741026184
269 2 -1.200000000000 10.741455868820 6.988882211640 24.492447938089
270 2 -1.200000000000 11.077126364721 4.522217901650 23.379154849994
271 2 -1.200000000000 12.084137852423 6.166660774977 0.000000000000
272 2 -1.200000000000 12.419808348324 3.699996464986 25.605741026184
273 2 -1.200000000000 13.091149340125 7.811103648304 23.379154849994
274 2 -1.200000000000 13.426819836026 5.344439338313 22.265861761899
275 2 -1.200000000000 14.433831323728 6.988882211640 25.605741026184
276 2 -1.200000000000 14.769501819628 4.522217901650 24.492447938089
277 1 2.400000000000 9.398773885218 3.288885746654 22.265861761899
278 1 2.400000000000 11.077126364721 -0.000000000000 23.379154849994
279 1 2.400000000000 12.084137852423 1.644442873327 20.039275585709
280 1 2.400000000000 13.091149340125 3.288885746654 23.379154849994
281 2 -1.200000000000 11.412796860622 2.055553591659 22.265861761899
282 2 -1.200000000000 11.748467356522 35.766632494865 21.152568673804
283 2 -1.200000000000 12.755478844224 1.233332154995 24.492447938089
284 2 -1.200000000000 13.091149340125 34.944411058201 23.379154849994
285 2 -1.200000000000 13.762490331926 2.877775028322 21.152568673804
286 2 -1.200000000000 14.098160827827 0.411110718332 20.039275585709
287 2 -1.200000000000 15.105172315529 2.055553591659 23.379154849994
288 2 -1.200000000000 15.440842811429 35.766632494865 22.265861761899
289 1 2.400000000000 0.000000000000 18.088871606598 0.000000000000
290 1 2.400000000000 1.678352479503 14.799985859944 1.113293088095
291 1 2.400000000000 2.685363967205 16.444428733271 24.492447938089
292 1 2.400000000000 3.692375454907 18.088871606598 1.113293088095
293 2 -1.200000000000 2.014022975404 16.855539451603 0.000000000000
294 2 -1.200000000000 2.349693471304 14.388875141612 25.605741026184
295 2 -1.200000000000 3.356704959006 16.033318014939 2.226586176190
296 2 -1.200000000000 3.692375454907 13.566653704949 1.113293088095
297 2 -1.200000000000 4.363716446708 17.677760888267 25.605741026184
298 2 -1.200000000000 4.699386942609 15.211096578276 24.492447938089
299 2 -1.200000000000 5.706398430311 16.855539451603 1.113293088095
300 2 -1.200000000000 6.042068926212 14.388875141612 0.000000000000
301 1 2.400000000000 0.671340991801 31.244414593215 11.132930880950
302 1 2.400000000000 2.349693471304 27.955528846561 12.246223969044
303 1 2.400000000000 3.356704959006 29.599971719888 8.906344704760
304 1 2.400000000000 4.363716446708 31.244414593215 12.246223969044
305 2 -1.200000000000 2.685363967205 30.011082438220 11.132930880950
306 2 -1.200000000000 3.021034463106 27.544418128229 10.019637792855
307 2 -1.200000000000 4.028045950808 29.188861001556 13.359517057139
308 2 -1.200000000000 4.363716446708 26.722196691566 12.246223969044
309 2 -1.200000000000 5.035057438510 30.833303874884 10.019637792855
310 2 -1.200000000000 5.370727934410 28.366639564893 8.906344704760
311 2 -1.200000000000 6.377739422112 30.011082438220 12.246223969045
312 2 -1.200000000000 6.713409918013 27.544418128229 11.132930880950
313 1 2.400000000000 1.342681983603 26.311085973234 8.906344704760
314 1 2.400000000000 3.021034463106 23.022200226580 10.019637792855
315 1 2.400000000000 4.028045950808 24.666643099907 6.679758528570
316 1 2.400000000000 5.035057438510 26.311085973234 10.019637792855
317 2 -1.200000000000 3.356704959006 25.077753818239 8.906344704760
318 2 -1.200000000000 3.692375454907 22.611089508248 7.793051616665
319 2 -1.200000000000 4.699386942609 24.255532381575 11.132930880950
320 2 -1.200000000000 5.035057438510 21.788868071584 10.019637792855
321 2 -1.200000000000 5.706398430311 25.899975254902 7.793051616665
322 2 -1.200000000000 6.042068926212 23.433310944912 6.679758528570
323 2 -1.200000000000 7.049080413913 25.077753818239 10.019637792855
324 2 -1.200000000000 7.384750909814 22.611089508248 8.906344704760
325 1 2.400000000000 2.014022975404 21.377757353253 6.679758528570
326 1 2.400000000000 3.692375454907 18.088871606598 7.793051616665
327 1 2.400000000000 4.699386942609 19.733314479925 4.453172352380
328 1 2.400000000000 5.706398430311 21.377757353253 7.793051616665
329 2 -1.200000000000 4.028045950808 20.144425198257 6.679758528570
330 2 -1.200000000000 4.363716446708 17.677760888267 5.566465440475
331 2 -1.200000000000 5.370727934410 19.322203761594 8.906344704760
332 2 -1.200000000000 5.706398430311 16.855539451603 7.793051616665
333 2 -1.200000000000 6.377739422112 20.966646634921 5.566465440475
334 2 -1.200000000000 6.713409918013 18.499982324930 4.453172352380
335 2 -1.200000000000 7.720421405715 20.144425198257 7.793051616665
336 2 -1.200000000000 8.056091901615 17.677760888267 6.679758528570
337 1 2.400000000000 2.685363967205 16.444428733271 4.453172352380
338 1 2.400000000000 4.363716446708 13.155542986617 5.566465440475
339 1 2.400000000000 5.370727934410 14.799985859944 2.226586176190
340 1 2.400000000000 6.377739422112 16.444428733271 5.566465440475
341 2 -1.200000000000 4.699386942609 15.211096578276 4.453172352380
342 2 -1.200000000000 5.035057438510 12.744432268285 3.339879264285
343 2 -1.200000000000 6.042068926212 14.388875141612 6.679758528570
344 2 -1.200000000000 6.377739422112 11.922210831622 5.566465440475
345 2 -1.200000000000 7.049080413913 16.033318014939 3.339879264285
346 2 -1.200000000000 7.384750909814 13.566653704949 2.226586176190
347 2 -1.200000000000 8.391762397516 15.211096578276 5.566465440475
348 2 -1.200000000000 8.727432893417 12.744432268285 4.453172352380
349 1 2.400000000000 3.356704959006 11.511100113290 2.226586176190
350 1 2.400000000000 5.035057438510 8.222214366636 3.339879264285
351 1 2.400000000000 6.042068926212 9.866657239963 0.000000000000
352 1 2.400000000000 7.049080413913 11.511100113290 3.339879264285
353 2 -1.200000000000 5.370727934410 10.277767958295 2.226586176190
354 2 -1.200000000000 5.706398430311 7.811103648304 1.113293088095
355 2 -1.200000000000 6.713409918013 9.455546521631 4.453172352380
356 2 -1.200000000000 7.049080413913 6.988882211640 3.339879264285
357 2 -1.200000000000 7.720421405715 11.099989394958 1.113293088095
358 2 -1.200000000000 8.056091901615 8.633325084967 0.000000000000
359 2 -1.200000000000 9.063103389317 10.277767958295 3.339879264285
360 2 -1.200000000000 9.398773885218 7.811103648304 2.226586176190
361 1 2.400000000000 4.028045950808 6.577771493308 0.000000000000
362 1 2.400000000000 5.706398430311 3.288885746654 1.113293088095
363 1 2.400000000000 6.713409918013 4.933328619981 24.492447938089
364 1 2.400000000000 7.720421405715 6.577771493308 1.113293088095
365 2 -1.200000000000 6.042068926212 5.344439338313 0.000000000000
366 2 -1.200000000000 6.377739422112 2.877775028322 25.605741026184
367 2 -1.200000000000 7.384750909814 4.522217901650 2.226586176190
368 2 -1.200000000000 7.720421405715 2.055553591659 1.113293088095
369 2 -1.200000000000 8.391762397516 6.166660774977 25.605741026184
370 2 -1.200000000000 8.727432893417 3.699996464986 24.492447938089
371 2 -1.200000000000 9.734444381119 5.344439338313 1.113293088095
372 2 -1.200000000000 10.070114877019 2.877775028322 0.000000000000
373 1 2.400000000000 2.685363967205 34.533300339870 17.812689409519
374 1 2.400000000000 4.363716446708 31.244414593215 18.925982497614
375 1 2.400000000000 5.370727934410 32.888857466542 15.586103233329
376 1 2.400000000000 6.377739422112 34.533300339870 18.925982497614
377 2 -1.200000000000 4.699386942609 33.299968184874 17.812689409519
378 2 -1.200000000000 5.035057438510 30.833303874884 16.699396321424
379 2 -1.200000000000 6.042068926212 32.477746748211 20.039275585709
380 2 -1.200000000000 6.377739422112 30.011082438220 18.925982497614
381 2 -1.200000000000 7.049080413913 34.122189621538 16.699396321424
382 2 -1.200000000000 7.384750909814 31.655525311547 15.586103233329
383 2 -1.200000000000 8.391762397516 33.299968184874 18.925982497614
384 2 -1.200000000000 8.727432893417 30.833303874884 17.812689409519
385 1 2.400000000000 3.356704959006 29.599971719888 15.586103233329
386 1 2.400000000000 5.035057438510 26.311085973234 16.699396321424
387 1 2.400000000000 6.042068926212 27.955528846561 13.359517057139
388 1 2.400000000000 7.049080413913 29.599971719888 16.699396321424
389 2 -1.200000000000 5.370727934410 28.366639564893 15.586103233329
390 2 -1.200000000000 5.706398430311 25.899975254902 14.472810145234
391 2 -1.200000000000 6.713409918013 27.544418128229 17.812689409519
392 2 -1.200000000000 7.049080413913 25.077753818239 16.699396321424
393 2 -1.200000000000 7.720421405715 29.188861001556 14.472810145234
394 2 -1.200000000000 8.056091901615 26.722196691566 13.359517057139
395 2 -1.200000000000 9.063103389317 28.366639564893 16.699396321424
396 2 -1.200000000000 9.398773885218 25.899975254902 15.586103233329
397 1 2.400000000000 4.028045950808 24.666643099907 13.359517057139
398 1 2.400000000000 5.706398430311 21.377757353253 14.472810145234
399 1 2.400000000000 6.713409918013 23.022200226580 11.132930880950
400 1 2.400000000000 7.720421405715 24.666643099907 14.472810145234
401 2 -1.200000000000 6.042068926212 23.433310944912 13.359517057139
402 2 -1.200000000000 6.377739422112 20.966646634921 12.246223969045
403 2 -1.200000000000 7.384750909814 22.611089508248 15.586103233329
404 2 -1.200000000000 7.720421405715 20.144425198257 14.472810145234
405 2 -1.200000000000 8.391762397516 24.255532381575 12.246223969045
406 2 -1.200000000000 8.727432893417 21.788868071584 11.132930880950
407 2 -1.200000000000 9.734444381119 23.433310944912 14.472810145234
408 2 -1.200000000000 10.070114877019 20.966646634921 13.359517057139
409 1 2.400000000000 4.699386942609 19.733314479925 11.132930880950
410 1 2.400000000000 6.377739422112 16.444428733271 12.246223969045
411 1 2.400000000000 7.384750909814 18.088871606598 8.906344704760
412 1 2.400000000000 8.391762397516 19.733314479925 12.246223969045
413 2 -1.200000000000 6.713409918013 18.499982324930 11.132930880950
414 2 -1.200000000000 7.049080413913 16.033318014939 10.019637792855
415 2 -1.200000000000 8.056091901615 17.677760888267 13.359517057139
416 2 -1.200000000000 8.391762397516 15.211096578276 12.246223969045
417 2 -1.200000000000 9.063103389317 19.322203761594 10.019637792855
418 2 -1.200000000000 9.398773885218 16.855539451603 8.906344704760
419 2 -1.200000000000 10.405785372920 18.499982324930 12.246223969045
420 2 -1.200000000000 10.741455868820 16.033318014939 11.132930880950
421 1 2.400000000000 5.370727934410 14.799985859944 8.906344704760
422 1 2.400000000000 7.049080413913 11.511100113290 10.019637792855
423 1 2.400000000000 8.056091901615 13.155542986617 6.679758528570
424 1 2.400000000000 9.063103389317 14.799985859944 10.019637792855
425 2 -1.200000000000 7.384750909814 13.566653704949 8.906344704760
426 2 -1.200000000000 7.720421405715 11.099989394958 7.793051616665
427 2 -1.200000000000 8.727432893417 12.744432268285 11.132930880950
428 2 -1.200000000000 9.063103389317 10.277767958295 10.019637792855
429 2 -1.200000000000 9.734444381119 14.388875141612 7.793051616665
430 2 -1.200000000000 10.070114877019 11.922210831622 6.679758528570
431 2 -1.200000000000 11.077126364721 13.566653704949 10.019637792855
432 2 -1.200000000000 11.412796860622 11.099989394958 8.906344704760
433 1 2.400000000000 6.042068926212 9.866657239963 6.679758528570
434 1 2.400000000000 7.720421405715 6.577771493308 7.793051616665
435 1 2.400000000000 8.727432893417 8.222214366636 4.453172352380
436 1 2.400000000000 9.734444381119 9.866657239963 7.793051616665
437 2 -1.200000000000 8.056091901615 8.633325084967 6.679758528570
438 2 -1.200000000000 8.391762397516 6.166660774977 5.566465440475
439 2 -1.200000000000 9.398773885218 7.811103648304 8.906344704760
440 2 -1.200000000000 9.734444381119 5.344439338313 7.793051616665
441 2 -1.200000000000 10.405785372920 9.455546521631 5.566465440475
442 2 -1.200000000000 10.741455868820 6.988882211640 4.453172352380
443 2 -1.200000000000 11.748467356522 8.633325084967 7.793051616665
444 2 -1.200000000000 12.084137852423 6.166660774977 6.679758528570
445 1 2.400000000000 6.713409918013 4.933328619981 4.453172352380
446 1 2.400000000000 8.391762397516 1.644442873327 5.566465440475
447 1 2.400000000000 9.398773885218 3.288885746654 2.226586176190
448 1 2.400000000000 10.405785372920 4.933328619981 5.566465440475
449 2 -1.200000000000 8.727432893417 3.699996464986 4.453172352380
450 2 -1.200000000000 9.063103389317 1.233332154995 3.339879264285
451 2 -1.200000000000 10.070114877019 2.877775028322 6.679758528570
452 2 -1.200000000000 10.405785372920 0.411110718332 5.566465440475
453 2 -1.200000000000 11.077126364721 4.522217901650 3.339879264285
454 2 -1.200000000000 11.412796860622 2.055553591659 2.226586176190
455 2 -1.200000000000 12.419808348324 3.699996464986 5.566465440475
456 2 -1.200000000000 12.755478844224 1.233332154995 4.453172352380
457 1 2.400000000000 7.384750909814 -0.000000000000 2.226586176190
458 1 2.400000000000 9.063103389317 32.888857466542 3.339879264285
459 1 2.400000000000 10.070114877019 34.533300339870 0.000000000000
460 1 2.400000000000 11.077126364721 -0.000000000000 3.339879264285
461 2 -1.200000000000 9.398773885218 34.944411058201 2.226586176190
462 2 -1.200000000000 9.734444381119 32.477746748211 1.113293088095
463 2 -1.200000000000 10.741455868820 34.122189621538 4.453172352380
464 2 -1.200000000000 11.077126364721 31.655525311547 3.339879264285
465 2 -1.200000000000 11.748467356522 35.766632494865 1.113293088095
466 2 -1.200000000000 12.084137852423 33.299968184874 0.000000000000
467 2 -1.200000000000 13.091149340125 34.944411058201 3.339879264285
468 2 -1.200000000000 13.426819836026 32.477746748211 2.226586176190
469 1 2.400000000000 5.370727934410 32.888857466542 22.265861761899
470 1 2.400000000000 7.049080413913 29.599971719888 23.379154849994
471 1 2.400000000000 8.056091901615 31.244414593215 20.039275585709
472 1 2.400000000000 9.063103389317 32.888857466542 23.379154849994
473 2 -1.200000000000 7.384750909814 31.655525311547 22.265861761899
474 2 -1.200000000000 7.720421405715 29.188861001556 21.152568673804
475 2 -1.200000000000 8.727432893417 30.833303874884 24.492447938089
476 2 -1.200000000000 9.063103389317 28.366639564893 23.379154849994
477 2 -1.200000000000 9.734444381119 32.477746748211 21.152568673804
478 2 -1.200000000000 10.070114877019 30.011082438220 20.039275585709
479 2 -1.200000000000 11.077126364721 31.655525311547 23.379154849994
480 2 -1.200000000000 11.412796860622 29.188861001556 22.265861761899
481 1 2.400000000000 6.042068926212 27.955528846561 20.039275585709
482 1 2.400000000000 7.720421405715 24.666643099907 21.152568673804
483 1 2.400000000000 8.727432893417 26.311085973234 17.812689409519
484 1 2.400000000000 9.734444381119 27.955528846561 21.152568673804
485 2 -1.200000000000 8.056091901615 26.722196691566 20.039275585709
486 2 -1.200000000000 8.391762397516 24.255532381575 18.925982497614
487 2 -1.200000000000 9.398773885218 25.899975254902 22.265861761899
488 2 -1.200000000000 9.734444381119 23.433310944911 21.152568673804
489 2 -1.200000000000 10.405785372920 27.544418128229 18.925982497614
490 2 -1.200000000000 10.741455868820 25.077753818239 17.812689409519
491 2 -1.200000000000 11.748467356522 26.722196691566 21.152568673804
492 2 -1.200000000000 12.084137852423 24.255532381575 20.039275585709
493 1 2.400000000000 6.713409918013 23.022200226580 17.812689409519
494 1 2.400000000000 8.391762397516 19.733314479925 18.925982497614
495 1 2.400000000000 9.398773885218 21.377757353253 15.586103233329
496 1 2.400000000000 10.405785372920 23.022200226580 18.925982497614
497 2 -1.200000000000 8.727432893417 21.788868071584 17.812689409519
498 2 -1.200000000000 9.063103389317 19.322203761594 16.699396321424
499 2 -1.200000000000 10.070114877019 20.966646634921 20.039275585709
500 2 -1.200000000000 10.405785372920 18.499982324930 18.925982497614
501 2 -1.200000000000 11.077126364721 22.611089508248 16.699396321424
502 2 -1.200000000000 11.412796860622 20.144425198257 15.586103233329
503 2 -1.200000000000 12.419808348324 21.788868071584 18.925982497614
504 2 -1.200000000000 12.755478844224 19.322203761594 17.812689409519
505 1 2.400000000000 7.384750909814 18.088871606598 15.586103233329
506 1 2.400000000000 9.063103389317 14.799985859944 16.699396321424
507 1 2.400000000000 10.070114877019 16.444428733271 13.359517057139
508 1 2.400000000000 11.077126364721 18.088871606598 16.699396321424
509 2 -1.200000000000 9.398773885218 16.855539451603 15.586103233329
510 2 -1.200000000000 9.734444381119 14.388875141612 14.472810145234
511 2 -1.200000000000 10.741455868820 16.033318014939 17.812689409519
512 2 -1.200000000000 11.077126364721 13.566653704949 16.699396321424
513 2 -1.200000000000 11.748467356522 17.677760888267 14.472810145234
514 2 -1.200000000000 12.084137852423 15.211096578276 13.359517057139
515 2 -1.200000000000 13.091149340125 16.855539451603 16.699396321424
516 2 -1.200000000000 13.426819836026 14.388875141612 15.586103233329
517 1 2.400000000000 8.056091901615 13.155542986617 13.359517057139
518 1 2.400000000000 9.734444381119 9.866657239963 14.472810145234
519 1 2.400000000000 10.741455868820 11.511100113290 11.132930880950
520 1 2.400000000000 11.748467356522 13.155542986617 14.472810145234
521 2 -1.200000000000 10.070114877019 11.922210831622 13.359517057139
522 2 -1.200000000000 10.405785372920 9.455546521631 12.246223969045
523 2 -1.200000000000 11.412796860622 11.099989394958 15.586103233329
524 2 -1.200000000000 11.748467356522 8.633325084967 14.472810145234
525 2 -1.200000000000 12.419808348324 12.744432268285 12.246223969045
526 2 -1.200000000000 12.755478844224 10.277767958295 11.132930880950
527 2 -1.200000000000 13.762490331926 11.922210831622 14.472810145234
528 2 -1.200000000000 14.098160827827 9.455546521631 13.359517057139
529 1 2.400000000000 8.727432893417 8.222214366636 11.132930880950
530 1 2.400000000000 10.405785372920 4.933328619981 12.246223969045
531 1 2.400000000000 11.412796860622 6.577771493308 8.906344704760
532 1 2.400000000000 12.419808348324 8.222214366636 12.246223969045
533 2 -1.200000000000 10.741455868820 6.988882211640 11.132930880950
534 2 -1.200000000000 11.077126364721 4.522217901650 10.019637792855
535 2 -1.200000000000 12.084137852423 6.166660774977 13.359517057139
536 2 -1.200000000000 12.419808348324 3.699996464986 12.246223969045
537 2 -1.200000000000 13.091149340125 7.811103648304 10.019637792855
538 2 -1.200000000000 13.426819836026 5.344439338313 8.906344704760
539 2 -1.200000000000 14.433831323728 6.988882211640 12.246223969045
540 2 -1.200000000000 14.769501819628 4.522217901650 11.132930880950
541 1 2.400000000000 9.398773885218 3.288885746654 8.906344704760
542 1 2.400000000000 11.077126364721 -0.000000000000 10.019637792855
543 1 2.400000000000 12.084137852423 1.644442873327 6.679758528570
544 1 2.400000000000 13.091149340125 3.288885746654 10.019637792855
545 2 -1.200000000000 11.412796860622 2.055553591659 8.906344704760
546 2 -1.200000000000 11.748467356522 35.766632494865 7.793051616665
547 2 -1.200000000000 12.755478844224 1.233332154995 11.132930880950
548 2 -1.200000000000 13.091149340125 34.944411058201 10.019637792855
549 2 -1.200000000000 13.762490331926 2.877775028322 7.793051616665
550 2 -1.200000000000 14.098160827827 0.411110718332 6.679758528570
551 2 -1.200000000000 15.105172315529 2.055553591659 10.019637792855
552 2 -1.200000000000 15.440842811429 35.766632494865 8.906344704760
553 1 2.400000000000 8.727432893417 26.311085973234 24.492447938089
554 1 2.400000000000 10.405785372920 23.022200226580 25.605741026184
555 1 2.400000000000 11.412796860622 24.666643099907 22.265861761899
556 1 2.400000000000 12.419808348324 26.311085973234 25.605741026184
557 2 -1.200000000000 10.741455868820 25.077753818239 24.492447938089
558 2 -1.200000000000 11.077126364721 22.611089508248 23.379154849994
559 2 -1.200000000000 12.084137852423 24.255532381575 0.000000000000
560 2 -1.200000000000 12.419808348324 21.788868071584 25.605741026184
561 2 -1.200000000000 13.091149340125 25.899975254902 23.379154849994
562 2 -1.200000000000 13.426819836026 23.433310944912 22.265861761899
563 2 -1.200000000000 14.433831323728 25.077753818239 25.605741026184
564 2 -1.200000000000 14.769501819628 22.611089508248 24.492447938089
565 1 2.400000000000 9.398773885218 21.377757353253 22.265861761899
566 1 2.400000000000 11.077126364721 18.088871606598 23.379154849994
567 1 2.400000000000 12.084137852423 19.733314479925 20.039275585709
568 1 2.400000000000 13.091149340125 21.377757353253 23.379154849994
569 2 -1.200000000000 11.412796860622 20.144425198257 22.265861761899
570 2 -1.200000000000 11.748467356522 17.677760888267 21.152568673804
571 2 -1.200000000000 12.755478844224 19.322203761594 24.492447938089
572 2 -1.200000000000 13.091149340125 16.855539451603 23.379154849994
573 2 -1.200000000000 13.762490331926 20.966646634921 21.152568673804
574 2 -1.200000000000 14.098160827827 18.499982324930 20.039275585709
575 2 -1.200000000000 15.105172315529 20.144425198257 23.379154849994
576 2 -1.200000000000 15.440842811429 17.677760888267 22.265861761899
577 1 2.400000000000 10.070114877019 16.444428733271 20.039275585709
578 1 2.400000000000 11.748467356522 13.155542986617 21.152568673804
579 1 2.400000000000 12.755478844224 14.799985859944 17.812689409519
580 1 2.400000000000 13.762490331926 16.444428733271 21.152568673804
581 2 -1.200000000000 12.084137852423 15.211096578276 20.039275585709
582 2 -1.200000000000 12.419808348324 12.744432268285 18.925982497614
583 2 -1.200000000000 13.426819836026 14.388875141612 22.265861761899
584 2 -1.200000000000 13.762490331926 11.922210831622 21.152568673804
585 2 -1.200000000000 14.433831323728 16.033318014939 18.925982497614
586 2 -1.200000000000 14.769501819628 13.566653704949 17.812689409519
587 2 -1.200000000000 15.776513307330 15.211096578276 21.152568673804
588 2 -1.200000000000 16.112183803231 12.744432268285 20.039275585709
589 1 2.400000000000 10.741455868820 11.511100113290 17.812689409519
590 1 2.400000000000 12.419808348324 8.222214366636 18.925982497614
591 1 2.400000000000 13.426819836026 9.866657239963 15.586103233329
592 1 2.400000000000 14.433831323728 11.511100113290 18.925982497614
593 2 -1.200000000000 12.755478844224 10.277767958295 17.812689409519
594 2 -1.200000000000 13.091149340125 7.811103648304 16.699396321424
595 2 -1.200000000000 14.098160827827 9.455546521631 20.039275585709
596 2 -1.200000000000 14.433831323728 6.988882211640 18.925982497614
597 2 -1.200000000000 15.105172315529 11.099989394958 16.699396321424
598 2 -1.200000000000 15.440842811429 8.633325084967 15.586103233329
599 2 -1.200000000000 16.447854299131 10.277767958295 18.925982497614
600 2 -1.200000000000 16.783524795032 7.811103648304 17.812689409519
601 1 2.400000000000 11.412796860622 6.577771493308 15.586103233329
602 1 2.400000000000 13.091149340125 3.288885746654 16.699396321424
603 1 2.400000000000 14.098160827827 4.933328619981 13.359517057139
604 1 2.400000000000 15.105172315529 6.577771493308 16.699396321424
605 2 -1.200000000000 13.426819836026 5.344439338313 15.586103233329
606 2 -1.200000000000 13.762490331926 2.877775028322 14.472810145234
607 2 -1.200000000000 14.769501819628 4.522217901650 17.812689409519
608 2 -1.200000000000 15.105172315529 2.055553591659 16.699396321424
609 2 -1.200000000000 15.776513307330 6.166660774977 14.472810145234
610 2 -1.200000000000 16.112183803231 3.699996464986 13.359517057139
611 2 -1.200000000000 17.119195290933 5.344439338313 16.699396321424
612 2 -1.200000000000 17.454865786833 2.877775028322 15.586103233329
613 1 2.400000000000 12.084137852423 1.644442873327 13.359517057139
614 1 2.400000000000 13.762490331926 34.533300339870 14.472810145234
615 1 2.400000000000 14.769501819628 -0.000000000000 11.132930880950
616 1 2.400000000000 15.776513307330 1.644442873327 14.472810145234
617 2 -1.200000000000 14.098160827827 0.411110718332 13.359517057139
618 2 -1.200000000000 14.433831323728 34.122189621538 12.246223969044
619 2 -1.200000000000 15.440842811429 35.766632494865 15.586103233329
620 2 -1.200000000000 15.776513307330 33.299968184874 14.472810145234
621 2 -1.200000000000 16.447854299131 1.233332154995 12.246223969044
622 2 -1.200000000000 16.783524795032 34.944411058201 11.132930880950
623 2 -1.200000000000 17.790536282734 0.411110718332 14.472810145234
624 2 -1.200000000000 18.126206778635 34.122189621538 13.359517057139
625 1 2.400000000000 12.755478844224 14.799985859944 24.492447938089
626 1 2.400000000000 14.433831323728 11.511100113290 25.605741026184
627 1 2.400000000000 15.440842811429 13.155542986617 22.265861761899
628 1 2.400000000000 16.447854299131 14.799985859944 25.605741026184
629 2 -1.200000000000 14.769501819628 13.566653704949 24.492447938089
630 2 -1.200000000000 15.105172315529 11.099989394958 23.379154849994
631 2 -1.200000000000 16.112183803231 12.744432268285 0.000000000000
632 2 -1.200000000000 16.447854299131 10.277767958295 25.605741026184
633 2 -1.200000000000 17.119195290933 14.388875141612 23.379154849994
634 2 -1.200000000000 17.454865786833 11.922210831622 22.265861761899
635 2 -1.200000000000 18.461877274535 13.566653704949 25.605741026184
636 2 -1.200000000000 18.797547770436 11.099989394958 24.492447938089
637 1 2.400000000000 13.426819836026 9.866657239963 22.265861761899
638 1 2.400000000000 15.105172315529 6.577771493308 23.379154849994
639 1 2.400000000000 16.112183803231 8.222214366636 20.039275585709
640 1 2.400000000000 17.119195290933 9.866657239963 23.379154849994
641 2 -1.200000000000 15.440842811429 8.633325084967 22.265861761899
642 2 -1.200000000000 15.776513307330 6.166660774977 21.152568673804
643 2 -1.200000000000 16.783524795032 7.811103648304 24.492447938089
644 2 -1.200000000000 17.119195290933 5.344439338313 23.379154849994
645 2 -1.200000000000 17.790536282734 9.455546521631 21.152568673804
646 2 -1.200000000000 18.126206778635 6.988882211640 20.039275585709
647 2 -1.200000000000 19.133218266336 8.633325084967 23.379154849994
648 2 -1.200000000000 19.468888762237 6.166660774977 22.265861761899
649 1 2.400000000000 14.098160827827 4.933328619981 20.039275585709
650 1 2.400000000000 15.776513307330 1.644442873327 21.152568673804
651 1 2.400000000000 16.783524795032 3.288885746654 17.812689409519
652 1 2.400000000000 17.790536282734 4.933328619981 21.152568673804
653 2 -1.200000000000 16.112183803231 3.699996464986 20.039275585709
654 2 -1.200000000000 16.447854299131 1.233332154995 18.925982497614
655 2 -1.200000000000 17.454865786833 2.877775028322 22.265861761899
656 2 -1.200000000000 17.790536282734 0.411110718332 21.152568673804
657 2 -1.200000000000 18.461877274535 4.522217901650 18.925982497614
658 2 -1.200000000000 18.797547770436 2.055553591659 17.812689409519
659 2 -1.200000000000 19.804559258138 3.699996464986 21.152568673804
660 2 -1.200000000000 20.140229754038 1.233332154995 20.039275585709
661 1 2.400000000000 14.769501819628 -0.000000000000 17.812689409519
662 1 2.400000000000 16.447854299131 32.888857466542 18.925982497614
663 1 2.400000000000 17.454865786833 34.533300339870 15.586103233329
664 1 2.400000000000 18.461877274535 -0.000000000000 18.925982497614
665 2 -1.200000000000 16.783524795032 34.944411058201 17.812689409519
666 2 -1.200000000000 17.119195290933 32.477746748211 16.699396321424
667 2 -1.200000000000 18.126206778635 34.122189621538 20.039275585709
668 2 -1.200000000000 18.461877274535 31.655525311547 18.925982497614
669 2 -1.200000000000 19.133218266336 35.766632494865 16.699396321424
670 2 -1.200000000000 19.468888762237 33.299968184874 15.586103233329
671 2 -1.200000000000 20.475900249939 34.944411058201 18.925982497614
672 2 -1.200000000000 20.811570745840 32.477746748211 17.812689409519
673 1 2.400000000000 16.783524795032 3.288885746654 24.492447938089
674 1 2.400000000000 18.461877274535 -0.000000000000 25.605741026184
675 1 2.400000000000 19.468888762237 1.644442873327 22.265861761899
676 1 2.400000000000 20.475900249939 3.288885746654 25.605741026184
677 2 -1.200000000000 18.797547770436 2.055553591659 24.492447938089
678 2 -1.200000000000 19.133218266336 35.766632494865 23.379154849994
679 2 -1.200000000000 20.140229754038 1.233332154995 0.000000000000
680 2 -1.200000000000 20.475900249939 34.944411058201 25.605741026184
681 2 -1.200000000000 21.147241241740 2.877775028322 23.379154849994
682 2 -1.200000000000 21.482911737641 0.411110718332 22.265861761899
683 2 -1.200000000000 22.489923225343 2.055553591659 25.605741026184
684 2 -1.200000000000 22.825593721244 35.766632494865 24.492447938089
685 1 2.400000000000 2.685363967205 34.533300339870 4.453172352380
686 1 2.400000000000 4.363716446708 31.244414593215 5.566465440475
687 1 2.400000000000 5.370727934410 32.888857466542 2.226586176190
688 1 2.400000000000 6.377739422112 34.533300339870 5.566465440475
689 2 -1.200000000000 4.699386942609 33.299968184874 4.453172352380
690 2 -1.200000000000 5.035057438510 30.833303874884 3.339879264285
691 2 -1.200000000000 6.042068926212 32.477746748211 6.679758528570
692 2 -1.200000000000 6.377739422112 30.011082438220 5.566465440475
693 2 -1.200000000000 7.049080413913 34.122189621538 3.339879264285
694 2 -1.200000000000 7.384750909814 31.655525311547 2.226586176190
695 2 -1.200000000000 8.391762397516 33.299968184874 5.566465440475
696 2 -1.200000000000 8.727432893417 30.833303874884 4.453172352380
697 1 2.400000000000 3.356704959006 29.599971719888 2.226586176190
698 1 2.400000000000 5.035057438510 26.311085973234 3.339879264285
699 1 2.400000000000 6.042068926212 27.955528846561 0.000000000000
700 1 2.400000000000 7.049080413913 29.599971719888 3.339879264285
701 2 -1.200000000000 5.370727934410 28.366639564893 2.226586176190
702 2 -1.200000000000 5.706398430311 25.899975254902 1.113293088095
703 2 -1.200000000000 6.713409918013 27.544418128229 4.453172352380
704 2 -1.200000000000 7.049080413913 25.077753818239 3.339879264285
705 2 -1.200000000000 7.720421405715 29.188861001556 1.113293088095
706 2 -1.200000000000 8.056091901615 26.722196691566 0.000000000000
707 2 -1.200000000000 9.063103389317 28.366639564893 3.339879264285
708 2 -1.200000000000 9.398773885218 25.899975254902 2.226586176190
709 1 2.400000000000 4.028045950808 24.666643099907 0.000000000000
710 1 2.400000000000 5.706398430311 21.377757353253 1.113293088095
711 1 2.400000000000 6.713409918013 23.022200226580 24.492447938089
712 1 2.400000000000 7.720421405715 24.666643099907 1.113293088095
713 2 -1.200000000000 6.042068926212 23.433310944912 0.000000000000
714 2 -1.200000000000 6.377739422112 20.966646634921 25.605741026184
715 2 -1.200000000000 7.384750909814 22.611089508248 2.226586176190
716 2 -1.200000000000 7.720421405715 20.144425198257 1.113293088095
717 2 -1.200000000000 8.391762397516 24.255532381575 25.605741026184
718 2 -1.200000000000 8.727432893417 21.788868071584 24.492447938089
719 2 -1.200000000000 9.734444381119 23.433310944912 1.113293088095
720 2 -1.200000000000 10.070114877019 20.966646634921 0.000000000000
721 1 2.400000000000 5.370727934410 32.888857466542 8.906344704760
722 1 2.400000000000 7.049080413913 29.599971719888 10.019637792855
723 1 2.400000000000 8.056091901615 31.244414593215 6.679758528570
724 1 2.400000000000 9.063103389317 32.888857466542 10.019637792855
725 2 -1.200000000000 7.384750909814 31.655525311547 8.906344704760
726 2 -1.200000000000 7.720421405715 29.188861001556 7.793051616665
727 2 -1.200000000000 8.727432893417 30.833303874884 11.132930880950
728 2 -1.200000000000 9.063103389317 28.366639564893 10.019637792855
729 2 -1.200000000000 9.734444381119 32.477746748211 7.793051616665
730 2 -1.200000000000 10.070114877019 30.011082438220 6.679758528570
731 2 -1.200000000000 11.077126364721 31.655525311547 10.019637792855
732 2 -1.200000000000 11.412796860622 29.188861001556 8.906344704760
733 1 2.400000000000 6.042068926212 27.955528846561 6.679758528570
734 1 2.400000000000 7.720421405715 24.666643099907 7.793051616665
735 1 2.400000000000 8.727432893417 26.311085973234 4.453172352380
736 1 2.400000000000 9.734444381119 27.955528846561 7.793051616665
737 2 -1.200000000000 8.056091901615 26.722196691566 6.679758528570
738 2 -1.200000000000 8.391762397516 24.255532381575 5.566465440475
739 2 -1.200000000000 9.398773885218 25.899975254902 8.906344704760
740 2 -1.200000000000 9.734444381119 23.433310944912 7.793051616665
741 2 -1.200000000000 10.405785372920 27.544418128229 5.566465440475
742 2 -1.200000000000 10.741455868820 25.077753818239 4.453172352380
743 2 -1.200000000000 11.748467356522 26.722196691566 7.793051616665
744 2 -1.200000000000 12.084137852423 24.255532381575 6.679758528570
745 1 2.400000000000 6.713409918013 23.022200226580 4.453172352380
746 1 2.400000000000 8.391762397516 19.733314479925 5.566465440475
747 1 2.400000000000 9.398773885218 21.377757353253 2.226586176190
748 1 2.400000000000 10.405785372920 23.022200226580 5.566465440475
749 2 -1.200000000000 8.727432893417 21.788868071584 4.453172352380
750 2 -1.200000000000 9.063103389317 19.322203761594 3.339879264285
751 2 -1.200000000000 10.070114877019 20.966646634921 6.679758528570
752 2 -1.200000000000 10.405785372920 18.499982324930 5.566465440475
753 2 -1.200000000000 11.077126364721 22.611089508248 3.339879264285
754 2 -1.200000000000 11.412796860622 20.144425198257 2.226586176190
755 2 -1.200000000000 12.419808348324 21.788868071584 5.566465440475
756 2 -1.200000000000 12.755478844224 19.322203761594 4.453172352380
757 1 2.400000000000 7.384750909814 18.088871606598 2.226586176190
758 1 2.400000000000 9.063103389317 14.799985859944 3.339879264285
759 1 2.400000000000 10.070114877019 16.444428733271 0.000000000000
760 1 2.400000000000 11.077126364721 18.088871606598 3.339879264285
761 2 -1.200000000000 9.398773885218 16.855539451603 2.226586176190
762 2 -1.200000000000 9.734444381119 14.388875141612 1.113293088095
763 2 -1.200000000000 10.741455868820 16.033318014939 4.453172352380
764 2 -1.200000000000 11.077126364721 13.566653704949 3.339879264285
765 2 -1.200000000000 11.748467356522 17.677760888267 1.113293088095
766 2 -1.200000000000 12.084137852423 15.211096578276 0.000000000000
767 2 -1.200000000000 13.091149340125 16.855539451603 3.339879264285
768 2 -1.200000000000 13.426819836026 14.388875141612 2.226586176190
769 1 2.400000000000 8.056091901615 13.155542986617 0.000000000000
770 1 2.400000000000 9.734444381119 9.866657239963 1.113293088095
771 1 2.400000000000 10.741455868820 11.511100113290 24.492447938089
772 1 2.400000000000 11.748467356522 13.155542986617 1.113293088095
773 2 -1.200000000000 10.070114877019 11.922210831622 0.000000000000
774 2 -1.200000000000 10.405785372920 9.455546521631 25.605741026184
775 2 -1.200000000000 11.412796860622 11.099989394958 2.226586176190
776 2 -1.200000000000 11.748467356522 8.633325084967 1.113293088095
777 2 -1.200000000000 12.419808348324 12.744432268285 25.605741026184
778 2 -1.200000000000 12.755478844224 10.277767958295 24.492447938089
779 2 -1.200000000000 13.762490331926 11.922210831622 1.113293088095
780 2 -1.200000000000 14.098160827827 9.455546521631 0.000000000000
781 1 2.400000000000 8.056091901615 31.244414593215 13.359517057139
782 1 2.400000000000 9.734444381119 27.955528846561 14.472810145234
783 1 2.400000000000 10.741455868820 29.599971719888 11.132930880950
784 1 2.400000000000 11.748467356522 31.244414593215 14.472810145234
785 2 -1.200000000000 10.070114877019 30.011082438220 13.359517057139
786 2 -1.200000000000 10.405785372920 27.544418128229 12.246223969045
787 2 -1.200000000000 11.412796860622 29.188861001556 15.586103233329
788 2 -1.200000000000 11.748467356522 26.722196691566 14.472810145234
789 2 -1.200000000000 12.419808348324 30.833303874884 12.246223969045
790 2 -1.200000000000 12.755478844224 28.366639564893 11.132930880950
791 2 -1.200000000000 13.762490331926 30.011082438220 14.472810145234
792 2 -1.200000000000 14.098160827827 27.544418128229 13.359517057139
793 1 2.400000000000 8.727432893417 26.311085973234 11.132930880950
794 1 2.400000000000 10.405785372920 23.022200226580 12.246223969045
795 1 2.400000000000 11.412796860622 24.666643099907 8.906344704760
796 1 2.400000000000 12.419808348324 26.311085973234 12.246223969045
797 2 -1.200000000000 10.741455868820 25.077753818239 11.132930880950
798 2 -1.200000000000 11.077126364721 22.611089508248 10.019637792855
799 2 -1.200000000000 12.084137852423 24.255532381575 13.359517057139
800 2 -1.200000000000 12.419808348324 21.788868071584 12.246223969045
801 2 -1.200000000000 13.091149340125 25.899975254902 10.019637792855
802 2 -1.200000000000 13.426819836026 23.433310944912 8.906344704760
803 2 -1.200000000000 14.433831323728 25.077753818239 12.246223969045
804 2 -1.200000000000 14.769501819628 22.611089508248 11.132930880950
805 1 2.400000000000 9.398773885218 21.377757353253 8.906344704760
806 1 2.400000000000 11.077126364721 18.088871606598 10.019637792855
807 1 2.400000000000 12.084137852423 19.733314479925 6.679758528570
808 1 2.400000000000 13.091149340125 21.377757353253 10.019637792855
809 2 -1.200000000000 11.412796860622 20.144425198257 8.906344704760
810 2 -1.200000000000 11.748467356522 17.677760888267 7.793051616665
811 2 -1.200000000000 12.755478844224 19.322203761594 11.132930880950
812 2 -1.200000000000 13.091149340125 16.855539451603 10.019637792855
813 2 -1.200000000000 13.762490331926 20.966646634921 7.793051616665
814 2 -1.200000000000 14.098160827827 18.499982324930 6.679758528570
815 2 -1.200000000000 15.105172315529 20.144425198257 10.019637792855
816 2 -1.200000000000 15.440842811429 17.677760888267 8.906344704760
817 1 2.400000000000 10.070114877019 16.444428733271 6.679758528570
818 1 2.400000000000 11.748467356522 13.155542986617 7.793051616665
819 1 2.400000000000 12.755478844224 14.799985859944 4.453172352380
820 1 2.400000000000 13.762490331926 16.444428733271 7.793051616665
821 2 -1.200000000000 12.084137852423 15.211096578276 6.679758528570
822 2 -1.200000000000 12.419808348324 12.744432268285 5.566465440475
823 2 -1.200000000000 13.426819836026 14.388875141612 8.906344704760
824 2 -1.200000000000 13.762490331926 11.922210831622 7.793051616665
825 2 -1.200000000000 14.433831323728 16.033318014939 5.566465440475
826 2 -1.200000000000 14.769501819628 13.566653704949 4.453172352380
827 2 -1.200000000000 15.776513307330 15.211096578276 7.793051616665
828 2 -1.200000000000 16.112183803231 12.744432268285 6.679758528570
829 1 2.400000000000 10.741455868820 11.511100113290 4.453172352380
830 1 2.400000000000 12.419808348324 8.222214366636 5.566465440475
831 1 2.400000000000 13.426819836026 9.866657239963 2.226586176190
832 1 2.400000000000 14.433831323728 11.511100113290 5.566465440475
833 2 -1.200000000000 12.755478844224 10.277767958295 4.453172352380
834 2 -1.200000000000 13.091149340125 7.811103648304 3.339879264285
835 2 -1.200000000000 14.098160827827 9.455546521631 6.679758528570
836 2 -1.200000000000 14.433831323728 6.988882211640 5.566465440475
837 2 -1.200000000000 15.105172315529 11.099989394958 3.339879264285
838 2 -1.200000000000 15.440842811429 8.633325084967 2.226586176190
839 2 -1.200000000000 16.447854299131 10.277767958295 5.566465440475
840 2 -1.200000000000 16.783524795032 7.811103648304 4.453172352380
841 1 2.400000000000 11.412796860622 6.577771493308 2.226586176190
842 1 2.400000000000 13.091149340125 3.288885746654 3.339879264285
843 1 2.400000000000 14.098160827827 4.933328619981 0.000000000000
844 1 2.400000000000 15.105172315529 6.577771493308 3.339879264285
845 2 -1.200000000000 13.426819836026 5.344439338313 2.226586176190
846 2 -1.200000000000 13.762490331926 2.877775028322 1.113293088095
847 2 -1.200000000000 14.769501819628 4.522217901650 4.453172352380
848 2 -1.200000000000 15.105172315529 2.055553591659 3.339879264285
849 2 -1.200000000000 15.776513307330 6.166660774977 1.113293088095
850 2 -1.200000000000 16.112183803231 3.699996464986 0.000000000000
851 2 -1.200000000000 17.119195290933 5.344439338313 3.339879264285
852 2 -1.200000000000 17.454865786833 2.877775028322 2.226586176190
853 1 2.400000000000 12.084137852423 1.644442873327 0.000000000000
854 1 2.400000000000 13.762490331926 34.533300339870 1.113293088095
855 1 2.400000000000 14.769501819628 -0.000000000000 24.492447938089
856 1 2.400000000000 15.776513307330 1.644442873327 1.113293088095
857 2 -1.200000000000 14.098160827827 0.411110718332 0.000000000000
858 2 -1.200000000000 14.433831323728 34.122189621538 25.605741026184
859 2 -1.200000000000 15.440842811429 35.766632494865 2.226586176190
860 2 -1.200000000000 15.776513307330 33.299968184874 1.113293088095
861 2 -1.200000000000 16.447854299131 1.233332154995 25.605741026184
862 2 -1.200000000000 16.783524795032 34.944411058201 24.492447938089
863 2 -1.200000000000 17.790536282734 0.411110718332 1.113293088095
864 2 -1.200000000000 18.126206778635 34.122189621538 0.000000000000
865 1 2.400000000000 10.070114877019 34.533300339870 20.039275585709
866 1 2.400000000000 11.748467356522 31.244414593215 21.152568673804
867 1 2.400000000000 12.755478844224 32.888857466542 17.812689409519
868 1 2.400000000000 13.762490331926 34.533300339870 21.152568673804
869 2 -1.200000000000 12.084137852423 33.299968184874 20.039275585709
870 2 -1.200000000000 12.419808348324 30.833303874884 18.925982497614
871 2 -1.200000000000 13.426819836026 32.477746748211 22.265861761899
872 2 -1.200000000000 13.762490331926 30.011082438220 21.152568673804
873 2 -1.200000000000 14.433831323728 34.122189621538 18.925982497614
874 2 -1.200000000000 14.769501819628 31.655525311547 17.812689409519
875 2 -1.200000000000 15.776513307330 33.299968184874 21.152568673804
876 2 -1.200000000000 16.112183803231 30.833303874884 20.039275585709
877 1 2.400000000000 10.741455868820 29.599971719888 17.812689409519
878 1 2.400000000000 12.419808348324 26.311085973234 18.925982497614
879 1 2.400000000000 13.426819836026 27.955528846561 15.586103233329
880 1 2.400000000000 14.433831323728 29.599971719888 18.925982497614
881 2 -1.200000000000 12.755478844224 28.366639564893 17.812689409519
882 2 -1.200000000000 13.091149340125 25.899975254902 16.699396321424
883 2 -1.200000000000 14.098160827827 27.544418128229 20.039275585709
884 2 -1.200000000000 14.433831323728 25.077753818239 18.925982497614
885 2 -1.200000000000 15.105172315529 29.188861001556 16.699396321424
886 2 -1.200000000000 15.440842811429 26.722196691566 15.586103233329
887 2 -1.200000000000 16.447854299131 28.366639564893 18.925982497614
888 2 -1.200000000000 16.783524795032 25.899975254902 17.812689409519
889 1 2.400000000000 11.412796860622 24.666643099907 15.586103233329
890 1 2.400000000000 13.091149340125 21.377757353253 16.699396321424
891 1 2.400000000000 14.098160827827 23.022200226580 13.359517057139
892 1 2.400000000000 15.105172315529 24.666643099907 16.699396321424
893 2 -1.200000000000 13.426819836026 23.433310944912 15.586103233329
894 2 -1.200000000000 13.762490331926 20.966646634921 14.472810145234
895 2 -1.200000000000 14.769501819628 22.611089508248 17.812689409519
896 2 -1.200000000000 15.105172315529 20.144425198257 16.699396321424
897 2 -1.200000000000 15.776513307330 24.255532381575 14.472810145234
898 2 -1.200000000000 16.112183803231 21.788868071584 13.359517057139
899 2 -1.200000000000 17.119195290933 23.433310944912 16.699396321424
900 2 -1.200000000000 17.454865786833 20.966646634921 15.586103233329
901 1 2.400000000000 12.084137852423 19.733314479925 13.359517057139
902 1 2.400000000000 13.762490331926 16.444428733271 14.472810145234
903 1 2.400000000000 14.769501819628 18.088871606598 11.132930880950
904 1 2.400000000000 15.776513307330 19.733314479925 14.472810145234
905 2 -1.200000000000 14.098160827827 18.499982324930 13.359517057139
906 2 -1.200000000000 14.433831323728 16.033318014939 12.246223969045
907 2 -1.200000000000 15.440842811429 17.677760888267 15.586103233329
908 2 -1.200000000000 15.776513307330 15.211096578276 14.472810145234
909 2 -1.200000000000 16.447854299131 19.322203761594 12.246223969045
910 2 -1.200000000000 16.783524795032 16.855539451603 11.132930880950
911 2 -1.200000000000 17.790536282734 18.499982324930 14.472810145234
912 2 -1.200000000000 18.126206778635 16.033318014939 13.359517057139
913 1 2.400000000000 12.755478844224 14.799985859944 11.132930880950
914 1 2.400000000000 14.433831323728 11.511100113290 12.246223969045
915 1 2.400000000000 15.440842811429 13.155542986617 8.906344704760
916 1 2.400000000000 16.447854299131 14.799985859944 12.246223969045
917 2 -1.200000000000 14.769501819628 13.566653704949 11.132930880950
918 2 -1.200000000000 15.105172315529 11.099989394958 10.019637792855
919 2 -1.200000000000 16.112183803231 12.744432268285 13.359517057139
920 2 -1.200000000000 16.447854299131 10.277767958295 12.246223969045
921 2 -1.200000000000 17.119195290933 14.388875141612 10.019637792855
922 2 -1.200000000000 17.454865786833 11.922210831622 8.906344704760
923 2 -1.200000000000 18.461877274535 13.566653704949 12.246223969045
924 2 -1.200000000000 18.797547770436 11.099989394958 11.132930880950
925 1 2.400000000000 13.426819836026 9.866657239963 8.906344704760
926 1 2.400000000000 15.105172315529 6.577771493308 10.019637792855
927 1 2.400000000000 16.112183803231 8.222214366636 6.679758528570
928 1 2.400000000000 17.119195290933 9.866657239963 10.019637792855
929 2 -1.200000000000 15.440842811429 8.633325084967 8.906344704760
930 2 -1.200000000000 15.776513307330 6.166660774977 7.793051616665
931 2 -1.200000000000 16.783524795032 7.811103648304 11.132930880950
932 2 -1.200000000000 17.119195290933 5.344439338313 10.019637792855
933 2 -1.200000000000 17.790536282734 9.455546521631 7.793051616665
934 2 -1.200000000000 18.126206778635 6.988882211640 6.679758528570
935 2 -1.200000000000 19.133218266336 8.633325084967 10.019637792855
936 2 -1.200000000000 19.468888762237 6.166660774977 8.906344704760
937 1 2.400000000000 14.098160827827 4.933328619981 6.679758528570
938 1 2.400000000000 15.776513307330 1.644442873327 7.793051616665
939 1 2.400000000000 16.783524795032 3.288885746654 4.453172352380
940 1 2.400000000000 17.790536282734 4.933328619981 7.793051616665
941 2 -1.200000000000 16.112183803231 3.699996464986 6.679758528570
942 2 -1.200000000000 16.447854299131 1.233332154995 5.566465440475
943 2 -1.200000000000 17.454865786833 2.877775028322 8.906344704760
944 2 -1.200000000000 17.790536282734 0.411110718332 7.793051616665
945 2 -1.200000000000 18.461877274535 4.522217901650 5.566465440475
946 2 -1.200000000000 18.797547770436 2.055553591659 4.453172352380
947 2 -1.200000000000 19.804559258138 3.699996464986 7.793051616665
948 2 -1.200000000000 20.140229754038 1.233332154995 6.679758528570
949 1 2.400000000000 14.769501819628 -0.000000000000 4.453172352380
950 1 2.400000000000 16.447854299131 32.888857466542 5.566465440475
951 1 2.400000000000 17.454865786833 34.533300339870 2.226586176190
952 1 2.400000000000 18.461877274535 -0.000000000000 5.566465440475
953 2 -1.200000000000 16.783524795032 34.944411058201 4.453172352380
954 2 -1.200000000000 17.119195290933 32.477746748211 3.339879264285
955 2 -1.200000000000 18.126206778635 34.122189621538 6.679758528570
956 2 -1.200000000000 18.461877274535 31.655525311547 5.566465440475
957 2 -1.200000000000 19.133218266337 35.766632494865 3.339879264285
958 2 -1.200000000000 19.468888762237 33.299968184874 2.226586176190
959 2 -1.200000000000 20.475900249939 34.944411058201 5.566465440475
960 2 -1.200000000000 20.811570745840 32.477746748211 4.453172352380
961 1 2.400000000000 12.755478844224 32.888857466542 24.492447938089
962 1 2.400000000000 14.433831323728 29.599971719888 25.605741026184
963 1 2.400000000000 15.440842811429 31.244414593215 22.265861761899
964 1 2.400000000000 16.447854299131 32.888857466542 25.605741026184
965 2 -1.200000000000 14.769501819628 31.655525311547 24.492447938089
966 2 -1.200000000000 15.105172315529 29.188861001556 23.379154849994
967 2 -1.200000000000 16.112183803231 30.833303874884 0.000000000000
968 2 -1.200000000000 16.447854299131 28.366639564893 25.605741026184
969 2 -1.200000000000 17.119195290933 32.477746748211 23.379154849994
970 2 -1.200000000000 17.454865786833 30.011082438220 22.265861761899
971 2 -1.200000000000 18.461877274535 31.655525311547 25.605741026184
972 2 -1.200000000000 18.797547770436 29.188861001556 24.492447938089
973 1 2.400000000000 13.426819836026 27.955528846561 22.265861761899
974 1 2.400000000000 15.105172315529 24.666643099907 23.379154849994
975 1 2.400000000000 16.112183803231 26.311085973234 20.039275585709
976 1 2.400000000000 17.119195290933 27.955528846561 23.379154849994
977 2 -1.200000000000 15.440842811429 26.722196691566 22.265861761899
978 2 -1.200000000000 15.776513307330 24.255532381575 21.152568673804
979 2 -1.200000000000 16.783524795032 25.899975254902 24.492447938089
980 2 -1.200000000000 17.119195290933 23.433310944912 23.379154849994
981 2 -1.200000000000 17.790536282734 27.544418128229 21.152568673804
982 2 -1.200000000000 18.126206778635 25.077753818239 20.039275585709
983 2 -1.200000000000 19.133218266336 26.722196691566 23.379154849994
984 2 -1.200000000000 19.468888762237 24.255532381575 22.265861761899
985 1 2.400000000000 14.098160827827 23.022200226580 20.039275585709
986 1 2.400000000000 15.776513307330 19.733314479925 21.152568673804
987 1 2.400000000000 16.783524795032 21.377757353253 17.812689409519
988 1 2.400000000000 17.790536282734 23.022200226580 21.152568673804
989 2 -1.200000000000 16.112183803231 21.788868071584 20.039275585709
990 2 -1.200000000000 16.447854299131 19.322203761594 18.925982497614
991 2 -1.200000000000 17.454865786833 20.966646634921 22.265861761899
992 2 -1.200000000000 17.790536282734 18.499982324930 21.152568673804
993 2 -1.200000000000 18.461877274535 22.611089508248 18.925982497614
994 2 -1.200000000000 18.797547770436 20.144425198257 17.812689409519
995 2 -1.200000000000 19.804559258138 21.788868071584 21.152568673804
996 2 -1.200000000000 20.140229754038 19.322203761594 20.039275585709
997 1 2.400000000000 14.769501819628 18.088871606598 17.812689409519
998 1 2.400000000000 16.447854299131 14.799985859944 18.925982497614
999 1 2.400000000000 17.454865786833 16.444428733271 15.586103233329
1000 1 2.400000000000 18.461877274535 18.088871606598 18.925982497614
1001 2 -1.200000000000 16.783524795032 16.855539451603 17.812689409519
1002 2 -1.200000000000 17.119195290933 14.388875141612 16.699396321424
1003 2 -1.200000000000 18.126206778635 16.033318014939 20.039275585709
1004 2 -1.200000000000 18.461877274535 13.566653704949 18.925982497614
1005 2 -1.200000000000 19.133218266336 17.677760888267 16.699396321424
1006 2 -1.200000000000 19.468888762237 15.211096578276 15.586103233329
1007 2 -1.200000000000 20.475900249939 16.855539451603 18.925982497614
1008 2 -1.200000000000 20.811570745840 14.388875141612 17.812689409519
1009 1 2.400000000000 15.440842811429 13.155542986617 15.586103233329
1010 1 2.400000000000 17.119195290933 9.866657239963 16.699396321424
1011 1 2.400000000000 18.126206778635 11.511100113290 13.359517057139
1012 1 2.400000000000 19.133218266336 13.155542986617 16.699396321424
1013 2 -1.200000000000 17.454865786833 11.922210831622 15.586103233329
1014 2 -1.200000000000 17.790536282734 9.455546521631 14.472810145234
1015 2 -1.200000000000 18.797547770436 11.099989394958 17.812689409519
1016 2 -1.200000000000 19.133218266336 8.633325084967 16.699396321424
1017 2 -1.200000000000 19.804559258138 12.744432268285 14.472810145234
1018 2 -1.200000000000 20.140229754038 10.277767958295 13.359517057139
1019 2 -1.200000000000 21.147241241740 11.922210831622 16.699396321424
1020 2 -1.200000000000 21.482911737641 9.455546521631 15.586103233329
1021 1 2.400000000000 16.112183803231 8.222214366636 13.359517057139
1022 1 2.400000000000 17.790536282734 4.933328619981 14.472810145234
1023 1 2.400000000000 18.797547770436 6.577771493308 11.132930880950
1024 1 2.400000000000 19.804559258138 8.222214366636 14.472810145234
1025 2 -1.200000000000 18.126206778635 6.988882211640 13.359517057139
1026 2 -1.200000000000 18.461877274535 4.522217901650 12.246223969044
1027 2 -1.200000000000 19.468888762237 6.166660774977 15.586103233329
1028 2 -1.200000000000 19.804559258138 3.699996464986 14.472810145234
1029 2 -1.200000000000 20.475900249939 7.811103648304 12.246223969044
1030 2 -1.200000000000 20.811570745840 5.344439338313 11.132930880950
1031 2 -1.200000000000 21.818582233542 6.988882211640 14.472810145234
1032 2 -1.200000000000 22.154252729442 4.522217901650 13.359517057139
1033 1 2.400000000000 16.783524795032 3.288885746654 11.132930880950
1034 1 2.400000000000 18.461877274535 -0.000000000000 12.246223969044
1035 1 2.400000000000 19.468888762237 1.644442873327 8.906344704760
1036 1 2.400000000000 20.475900249939 3.288885746654 12.246223969045
1037 2 -1.200000000000 18.797547770436 2.055553591659 11.132930880950
1038 2 -1.200000000000 19.133218266336 35.766632494865 10.019637792855
1039 2 -1.200000000000 20.140229754038 1.233332154995 13.359517057139
1040 2 -1.200000000000 20.475900249939 34.944411058201 12.246223969044
1041 2 -1.200000000000 21.147241241740 2.877775028322 10.019637792855
1042 2 -1.200000000000 21.482911737641 0.411110718332 8.906344704760
1043 2 -1.200000000000 22.489923225343 2.055553591659 12.246223969044
1044 2 -1.200000000000 22.825593721244 35.766632494865 11.132930880950
1045 1 2.400000000000 16.783524795032 21.377757353253 24.492447938089
1046 1 2.400000000000 18.461877274535 18.088871606598 25.605741026184
1047 1 2.400000000000 19.468888762237 19.733314479925 22.265861761899
1048 1 2.400000000000 20.475900249939 21.377757353253 25.605741026184
1049 2 -1.200000000000 18.797547770436 20.144425198257 24.492447938089
1050 2 -1.200000000000 19.133218266336 17.677760888267 23.379154849994
1051 2 -1.200000000000 20.140229754038 19.322203761594 0.000000000000
1052 2 -1.200000000000 20.475900249939 16.855539451603 25.605741026184
1053 2 -1.200000000000 21.147241241740 20.966646634921 23.379154849994
1054 2 -1.200000000000 21.482911737641 18.499982324930 22.265861761899
1055 2 -1.200000000000 22.489923225343 20.144425198257 25.605741026184
1056 2 -1.200000000000 22.825593721244 17.677760888267 24.492447938089
1057 1 2.400000000000 17.454865786833 16.444428733271 22.265861761899
1058 1 2.400000000000 19.133218266336 13.155542986617 23.379154849994
1059 1 2.400000000000 20.140229754038 14.799985859944 20.039275585709
1060 1 2.400000000000 21.147241241740 16.444428733271 23.379154849994
1061 2 -1.200000000000 19.468888762237 15.211096578276 22.265861761899
1062 2 -1.200000000000 19.804559258138 12.744432268285 21.152568673804
1063 2 -1.200000000000 20.811570745840 14.388875141612 24.492447938089
1064 2 -1.200000000000 21.147241241740 11.922210831622 23.379154849994
1065 2 -1.200000000000 21.818582233542 16.033318014939 21.152568673804
1066 2 -1.200000000000 22.154252729442 13.566653704949 20.039275585709
1067 2 -1.200000000000 23.161264217144 15.211096578276 23.379154849994
1068 2 -1.200000000000 23.496934713045 12.744432268285 22.265861761899
1069 1 2.400000000000 18.126206778635 11.511100113290 20.039275585709
1070 1 2.400000000000 19.804559258138 8.222214366636 21.152568673804
1071 1 2.400000000000 20.811570745840 9.866657239963 17.812689409519
1072 1 2.400000000000 21.818582233542 11.511100113290 21.152568673804
1073 2 -1.200000000000 20.140229754038 10.277767958295 20.039275585709
1074 2 -1.200000000000 20.475900249939 7.811103648304 18.925982497614
1075 2 -1.200000000000 21.482911737641 9.455546521631 22.265861761899
1076 2 -1.200000000000 21.818582233542 6.988882211640 21.152568673804
1077 2 -1.200000000000 22.489923225343 11.099989394958 18.925982497614
1078 2 -1.200000000000 22.825593721244 8.633325084967 17.812689409519
1079 2 -1.200000000000 23.832605208945 10.277767958295 21.152568673804
1080 2 -1.200000000000 24.168275704846 7.811103648304 20.039275585709
1081 1 2.400000000000 18.797547770436 6.577771493308 17.812689409519
1082 1 2.400000000000 20.475900249939 3.288885746654 18.925982497614
1083 1 2.400000000000 21.482911737641 4.933328619981 15.586103233329
1084 1 2.400000000000 22.489923225343 6.577771493308 18.925982497614
1085 2 -1.200000000000 20.811570745840 5.344439338313 17.812689409519
1086 2 -1.200000000000 21.147241241740 2.877775028322 16.699396321424
1087 2 -1.200000000000 22.154252729442 4.522217901650 20.039275585709
1088 2 -1.200000000000 22.489923225343 2.055553591659 18.925982497614
1089 2 -1.200000000000 23.161264217144 6.166660774977 16.699396321424
1090 2 -1.200000000000 23.496934713045 3.699996464986 15.586103233329
1091 2 -1.200000000000 24.503946200747 5.344439338313 18.925982497614
1092 2 -1.200000000000 24.839616696647 2.877775028322 17.812689409519
1093 1 2.400000000000 19.468888762237 1.644442873327 15.586103233329
1094 1 2.400000000000 21.147241241740 34.533300339870 16.699396321424
1095 1 2.400000000000 22.154252729442 -0.000000000000 13.359517057139
1096 1 2.400000000000 23.161264217144 1.644442873327 16.699396321424
1097 2 -1.200000000000 21.482911737641 0.411110718332 15.586103233329
1098 2 -1.200000000000 21.818582233542 34.122189621538 14.472810145234
1099 2 -1.200000000000 22.825593721244 35.766632494865 17.812689409519
1100 2 -1.200000000000 23.161264217144 33.299968184874 16.699396321424
1101 2 -1.200000000000 23.832605208945 1.233332154995 14.472810145234
1102 2 -1.200000000000 24.168275704846 34.944411058201 13.359517057139
1103 2 -1.200000000000 25.175287192548 0.411110718332 16.699396321424
1104 2 -1.200000000000 25.510957688449 34.122189621538 15.586103233329
1105 1 2.400000000000 20.811570745840 9.866657239963 24.492447938089
1106 1 2.400000000000 22.489923225343 6.577771493308 25.605741026184
1107 1 2.400000000000 23.496934713045 8.222214366636 22.265861761899
1108 1 2.400000000000 24.503946200747 9.866657239963 25.605741026184
1109 2 -1.200000000000 22.825593721244 8.633325084967 24.492447938089
1110 2 -1.200000000000 23.161264217144 6.166660774977 23.379154849994
1111 2 -1.200000000000 24.168275704846 7.811103648304 0.000000000000
1112 2 -1.200000000000 24.503946200747 5.344439338313 25.605741026184
1113 2 -1.200000000000 25.175287192548 9.455546521631 23.379154849994
1114 2 -1.200000000000 25.510957688449 6.988882211640 22.265861761899
1115 2 -1.200000000000 26.517969176151 8.633325084967 25.605741026184
1116 2 -1.200000000000 26.853639672051 6.166660774977 24.492447938089
1117 1 2.400000000000 21.482911737641 4.933328619981 22.265861761899
1118 1 2.400000000000 23.161264217144 1.644442873327 23.379154849994
1119 1 2.400000000000 24.168275704846 3.288885746654 20.039275585709
1120 1 2.400000000000 25.175287192548 4.933328619981 23.379154849994
1121 2 -1.200000000000 23.496934713045 3.699996464986 22.265861761899
1122 2 -1.200000000000 23.832605208945 1.233332154995 21.152568673804
1123 2 -1.200000000000 24.839616696647 2.877775028322 24.492447938089
1124 2 -1.200000000000 25.175287192548 0.411110718332 23.379154849994
1125 2 -1.200000000000 25.846628184349 4.522217901650 21.152568673804
1126 2 -1.200000000000 26.182298680250 2.055553591659 20.039275585709
1127 2 -1.200000000000 27.189310167952 3.699996464986 23.379154849994
1128 2 -1.200000000000 27.524980663853 1.233332154995 22.265861761899
1129 1 2.400000000000 22.154252729442 -0.000000000000 20.039275585709
1130 1 2.400000000000 23.832605208945 32.888857466542 21.152568673804
1131 1 2.400000000000 24.839616696647 34.533300339870 17.812689409519
1132 1 2.400000000000 25.846628184349 -0.000000000000 21.152568673804
1133 2 -1.200000000000 24.168275704846 34.944411058201 20.039275585709
1134 2 -1.200000000000 24.503946200747 32.477746748211 18.925982497614
1135 2 -1.200000000000 25.510957688449 34.122189621538 22.265861761899
1136 2 -1.200000000000 25.846628184349 31.655525311547 21.152568673804
1137 2 -1.200000000000 26.517969176151 35.766632494865 18.925982497614
1138 2 -1.200000000000 26.853639672051 33.299968184874 17.812689409519
1139 2 -1.200000000000 27.860651159753 34.944411058201 21.152568673804
1140 2 -1.200000000000 28.196321655654 32.477746748211 20.039275585709
1141 1 2.400000000000 8.056091901615 31.244414593215 0.000000000000
1142 1 2.400000000000 9.734444381119 27.955528846561 1.113293088095
1143 1 2.400000000000 10.741455868820 29.599971719888 24.492447938089
1144 1 2.400000000000 11.748467356522 31.244414593215 1.113293088095
1145 2 -1.200000000000 10.070114877019 30.011082438220 0.000000000000
1146 2 -1.200000000000 10.405785372920 27.544418128229 25.605741026184
1147 2 -1.200000000000 11.412796860622 29.188861001556 2.226586176190
1148 2 -1.200000000000 11.748467356522 26.722196691566 1.113293088095
1149 2 -1.200000000000 12.419808348324 30.833303874884 25.605741026184
1150 2 -1.200000000000 12.755478844224 28.366639564893 24.492447938089
1151 2 -1.200000000000 13.762490331926 30.011082438220 1.113293088095
1152 2 -1.200000000000 14.098160827827 27.544418128229 0.000000000000
1153 1 2.400000000000 10.070114877019 34.533300339870 6.679758528570
1154 1 2.400000000000 11.748467356522 31.244414593215 7.793051616665
1155 1 2.400000000000 12.755478844224 32.888857466542 4.453172352380
1156 1 2.400000000000 13.762490331926 34.533300339870 7.793051616665
1157 2 -1.200000000000 12.084137852423 33.299968184874 6.679758528570
1158 2 -1.200000000000 12.419808348324 30.833303874884 5.566465440475
1159 2 -1.200000000000 13.426819836026 32.477746748211 8.906344704760
1160 2 -1.200000000000 13.762490331926 30.011082438220 7.793051616665
1161 2 -1.200000000000 14.433831323728 34.122189621538 5.566465440475
1162 2 -1.200000000000 14.769501819628 31.655525311547 4.453172352380
1163 2 -1.200000000000 15.776513307330 33.299968184874 7.793051616665
1164 2 -1.200000000000 16.112183803231 30.833303874884 6.679758528570
1165 1 2.400000000000 10.741455868820 29.599971719888 4.453172352380
1166 1 2.400000000000 12.419808348324 26.311085973234 5.566465440475
1167 1 2.400000000000 13.426819836026 27.955528846561 2.226586176190
1168 1 2.400000000000 14.433831323728 29.599971719888 5.566465440475
1169 2 -1.200000000000 12.755478844224 28.366639564893 4.453172352380
1170 2 -1.200000000000 13.091149340125 25.899975254902 3.339879264285
1171 2 -1.200000000000 14.098160827827 27.544418128229 6.679758528570
1172 2 -1.200000000000 14.433831323728 25.077753818239 5.566465440475
1173 2 -1.200000000000 15.105172315529 29.188861001556 3.339879264285
1174 2 -1.200000000000 15.440842811429 26.722196691566 2.226586176190
1175 2 -1.200000000000 16.447854299131 28.366639564893 5.566465440475
1176 2 -1.200000000000 16.783524795032 25.899975254902 4.453172352380
1177 1 2.400000000000 11.412796860622 24.666643099907 2.226586176190
1178 1 2.400000000000 13.091149340125 21.377757353253 3.339879264285
1179 1 2.400000000000 14.098160827827 23.022200226580 0.000000000000
1180 1 2.400000000000 15.105172315529 24.666643099907 3.339879264285
1181 2 -1.200000000000 13.426819836026 23.433310944912 2.226586176190
1182 2 -1.200000000000 13.762490331926 20.966646634921 1.113293088095
1183 2 -1.200000000000 14.769501819628 22.611089508248 4.453172352380
1184 2 -1.200000000000 15.105172315529 20.144425198257 3.339879264285
1185 2 -1.200000000000 15.776513307330 24.255532381575 1.113293088095
1186 2 -1.200000000000 16.112183803231 21.788868071584 0.000000000000
1187 2 -1.200000000000 17.119195290933 23.433310944912 3.339879264285
1188 2 -1.200000000000 17.454865786833 20.966646634921 2.226586176190
1189 1 2.400000000000 12.084137852423 19.733314479925 0.000000000000
1190 1 2.400000000000 13.762490331926 16.444428733271 1.113293088095
1191 1 2.400000000000 14.769501819628 18.088871606598 24.492447938089
1192 1 2.400000000000 15.776513307330 19.733314479925 1.113293088095
1193 2 -1.200000000000 14.098160827827 18.499982324930 0.000000000000
1194 2 -1.200000000000 14.433831323728 16.033318014939 25.605741026184
1195 2 -1.200000000000 15.440842811429 17.677760888267 2.226586176190
1196 2 -1.200000000000 15.776513307330 15.211096578276 1.113293088095
1197 2 -1.200000000000 16.447854299131 19.322203761594 25.605741026184
1198 2 -1.200000000000 16.783524795032 16.855539451603 24.492447938089
1199 2 -1.200000000000 17.790536282734 18.499982324930 1.113293088095
1200 2 -1.200000000000 18.126206778635 16.033318014939 0.000000000000
1201 1 2.400000000000 12.755478844224 32.888857466542 11.132930880950
1202 1 2.400000000000 14.433831323728 29.599971719888 12.246223969044
1203 1 2.400000000000 15.440842811429 31.244414593215 8.906344704760
1204 1 2.400000000000 16.447854299131 32.888857466542 12.246223969045
1205 2 -1.200000000000 14.769501819628 31.655525311547 11.132930880950
1206 2 -1.200000000000 15.105172315529 29.188861001556 10.019637792855
1207 2 -1.200000000000 16.112183803231 30.833303874884 13.359517057139
1208 2 -1.200000000000 16.447854299131 28.366639564893 12.246223969045
1209 2 -1.200000000000 17.119195290933 32.477746748211 10.019637792855
1210 2 -1.200000000000 17.454865786833 30.011082438220 8.906344704760
1211 2 -1.200000000000 18.461877274535 31.655525311547 12.246223969045
1212 2 -1.200000000000 18.797547770436 29.188861001556 11.132930880950
1213 1 2.400000000000 13.426819836026 27.955528846561 8.906344704760
1214 1 2.400000000000 15.105172315529 24.666643099907 10.019637792855
1215 1 2.400000000000 16.112183803231 26.311085973234 6.679758528570
1216 1 2.400000000000 17.119195290933 27.955528846561 10.019637792855
1217 2 -1.200000000000 15.440842811429 26.722196691566 8.906344704760
1218 2 -1.200000000000 15.776513307330 24.255532381575 7.793051616665
1219 2 -1.200000000000 16.783524795032 25.899975254902 11.132930880950
1220 2 -1.200000000000 17.119195290933 23.433310944912 10.019637792855
1221 2 -1.200000000000 17.790536282734 27.544418128229 7.793051616665
1222 2 -1.200000000000 18.126206778635 25.077753818239 6.679758528570
1223 2 -1.200000000000 19.133218266336 26.722196691566 10.019637792855
1224 2 -1.200000000000 19.468888762237 24.255532381575 8.906344704760
1225 1 2.400000000000 14.098160827827 23.022200226580 6.679758528570
1226 1 2.400000000000 15.776513307330 19.733314479925 7.793051616665
1227 1 2.400000000000 16.783524795032 21.377757353253 4.453172352380
1228 1 2.400000000000 17.790536282734 23.022200226580 7.793051616665
1229 2 -1.200000000000 16.112183803231 21.788868071584 6.679758528570
1230 2 -1.200000000000 16.447854299131 19.322203761594 5.566465440475
1231 2 -1.200000000000 17.454865786833 20.966646634921 8.906344704760
1232 2 -1.200000000000 17.790536282734 18.499982324930 7.793051616665
1233 2 -1.200000000000 18.461877274535 22.611089508248 5.566465440475
1234 2 -1.200000000000 18.797547770436 20.144425198257 4.453172352380
1235 2 -1.200000000000 19.804559258138 21.788868071584 7.793051616665
1236 2 -1.200000000000 20.140229754038 19.322203761594 6.679758528570
1237 1 2.400000000000 14.769501819628 18.088871606598 4.453172352380
1238 1 2.400000000000 16.447854299131 14.799985859944 5.566465440475
1239 1 2.400000000000 17.454865786833 16.444428733271 2.226586176190
1240 1 2.400000000000 18.461877274535 18.088871606598 5.566465440475
1241 2 -1.200000000000 16.783524795032 16.855539451603 4.453172352380
1242 2 -1.200000000000 17.119195290933 14.388875141612 3.339879264285
1243 2 -1.200000000000 18.126206778635 16.033318014939 6.679758528570
1244 2 -1.200000000000 18.461877274535 13.566653704949 5.566465440475
1245 2 -1.200000000000 19.133218266336 17.677760888267 3.339879264285
1246 2 -1.200000000000 19.468888762237 15.211096578276 2.226586176190
1247 2 -1.200000000000 20.475900249939 16.855539451603 5.566465440475
1248 2 -1.200000000000 20.811570745840 14.388875141612 4.453172352380
1249 1 2.400000000000 15.440842811429 13.155542986617 2.226586176190
1250 1 2.400000000000 17.119195290933 9.866657239963 3.339879264285
1251 1 2.400000000000 18.126206778635 11.511100113290 0.000000000000
1252 1 2.400000000000 19.133218266336 13.155542986617 3.339879264285
1253 2 -1.200000000000 17.454865786833 11.922210831622 2.226586176190
1254 2 -1.200000000000 17.790536282734 9.455546521631 1.113293088095
1255 2 -1.200000000000 18.797547770436 11.099989394958 4.453172352380
1256 2 -1.200000000000 19.133218266336 8.633325084967 3.339879264285
1257 2 -1.200000000000 19.804559258138 12.744432268285 1.113293088095
1258 2 -1.200000000000 20.140229754038 10.277767958295 0.000000000000
1259 2 -1.200000000000 21.147241241740 11.922210831622 3.339879264285
1260 2 -1.200000000000 21.482911737641 9.455546521631 2.226586176190
1261 1 2.400000000000 16.112183803231 8.222214366636 0.000000000000
1262 1 2.400000000000 17.790536282734 4.933328619981 1.113293088095
1263 1 2.400000000000 18.797547770436 6.577771493308 24.492447938089
1264 1 2.400000000000 19.804559258138 8.222214366636 1.113293088095
1265 2 -1.200000000000 18.126206778635 6.988882211640 0.000000000000
1266 2 -1.200000000000 18.461877274535 4.522217901650 25.605741026184
1267 2 -1.200000000000 19.468888762237 6.166660774977 2.226586176190
1268 2 -1.200000000000 19.804559258138 3.699996464986 1.113293088095
1269 2 -1.200000000000 20.475900249939 7.811103648304 25.605741026184
1270 2 -1.200000000000 20.811570745840 5.344439338313 24.492447938089
1271 2 -1.200000000000 21.818582233542 6.988882211640 1.113293088095
1272 2 -1.200000000000 22.154252729442 4.522217901650 0.000000000000
1273 1 2.400000000000 15.440842811429 31.244414593215 15.586103233329
1274 1 2.400000000000 17.119195290933 27.955528846561 16.699396321424
1275 1 2.400000000000 18.126206778635 29.599971719888 13.359517057139
1276 1 2.400000000000 19.133218266336 31.244414593215 16.699396321424
1277 2 -1.200000000000 17.454865786833 30.011082438220 15.586103233329
1278 2 -1.200000000000 17.790536282734 27.544418128229 14.472810145234
1279 2 -1.200000000000 18.797547770436 29.188861001556 17.812689409519
1280 2 -1.200000000000 19.133218266336 26.722196691566 16.699396321424
1281 2 -1.200000000000 19.804559258138 30.833303874884 14.472810145234
1282 2 -1.200000000000 20.140229754038 28.366639564893 13.359517057139
1283 2 -1.200000000000 21.147241241740 30.011082438220 16.699396321424
1284 2 -1.200000000000 21.482911737641 27.544418128229 15.586103233329
1285 1 2.400000000000 16.112183803231 26.311085973234 13.359517057139
1286 1 2.400000000000 17.790536282734 23.022200226580 14.472810145234
1287 1 2.400000000000 18.797547770436 24.666643099907 11.132930880950
1288 1 2.400000000000 19.804559258138 26.311085973234 14.472810145234
1289 2 -1.200000000000 18.126206778635 25.077753818239 13.359517057139
1290 2 -1.200000000000 18.461877274535 22.611089508248 12.246223969045
1291 2 -1.200000000000 19.468888762237 24.255532381575 15.586103233329
1292 2 -1.200000000000 19.804559258138 21.788868071584 14.472810145234
1293 2 -1.200000000000 20.475900249939 25.899975254902 12.246223969045
1294 2 -1.200000000000 20.811570745840 23.433310944912 11.132930880950
1295 2 -1.200000000000 21.818582233542 25.077753818239 14.472810145234
1296 2 -1.200000000000 22.154252729442 22.611089508248 13.359517057139
1297 1 2.400000000000 16.783524795032 21.377757353253 11.132930880950
1298 1 2.400000000000 18.461877274535 18.088871606598 12.246223969045
1299 1 2.400000000000 19.468888762237 19.733314479925 8.906344704760
1300 1 2.400000000000 20.475900249939 21.377757353253 12.246223969045
1301 2 -1.200000000000 18.797547770436 20.144425198257 11.132930880950
1302 2 -1.200000000000 19.133218266336 17.677760888267 10.019637792855
1303 2 -1.200000000000 20.140229754038 19.322203761594 13.359517057139
1304 2 -1.200000000000 20.475900249939 16.855539451603 12.246223969045
1305 2 -1.200000000000 21.147241241740 20.966646634921 10.019637792855
1306 2 -1.200000000000 21.482911737641 18.499982324930 8.906344704760
1307 2 -1.200000000000 22.489923225343 20.144425198257 12.246223969045
1308 2 -1.200000000000 22.825593721244 17.677760888267 11.132930880950
1309 1 2.400000000000 17.454865786833 16.444428733271 8.906344704760
1310 1 2.400000000000 19.133218266336 13.155542986617 10.019637792855
1311 1 2.400000000000 20.140229754038 14.799985859944 6.679758528570
1312 1 2.400000000000 21.147241241740 16.444428733271 10.019637792855
1313 2 -1.200000000000 19.468888762237 15.211096578276 8.906344704760
1314 2 -1.200000000000 19.804559258138 12.744432268285 7.793051616665
1315 2 -1.200000000000 20.811570745840 14.388875141612 11.132930880950
1316 2 -1.200000000000 21.147241241740 11.922210831622 10.019637792855
1317 2 -1.200000000000 21.818582233542 16.033318014939 7.793051616665
1318 2 -1.200000000000 22.154252729442 13.566653704949 6.679758528570
1319 2 -1.200000000000 23.161264217144 15.211096578276 10.019637792855
1320 2 -1.200000000000 23.496934713045 12.744432268285 8.906344704760
1321 1 2.400000000000 18.126206778635 11.511100113290 6.679758528570
1322 1 2.400000000000 19.804559258138 8.222214366636 7.793051616665
1323 1 2.400000000000 20.811570745840 9.866657239963 4.453172352380
1324 1 2.400000000000 21.818582233542 11.511100113290 7.793051616665
1325 2 -1.200000000000 20.140229754038 10.277767958295 6.679758528570
1326 2 -1.200000000000 20.475900249939 7.811103648304 5.566465440475
1327 2 -1.200000000000 21.482911737641 9.455546521631 8.906344704760
1328 2 -1.200000000000 21.818582233542 6.988882211640 7.793051616665
1329 2 -1.200000000000 22.489923225343 11.099989394958 5.566465440475
1330 2 -1.200000000000 22.825593721244 8.633325084967 4.453172352380
1331 2 -1.200000000000 23.832605208945 10.277767958295 7.793051616665
1332 2 -1.200000000000 24.168275704846 7.811103648304 6.679758528570
1333 1 2.400000000000 18.797547770436 6.577771493308 4.453172352380
1334 1 2.400000000000 20.475900249939 3.288885746654 5.566465440475
1335 1 2.400000000000 21.482911737641 4.933328619981 2.226586176190
1336 1 2.400000000000 22.489923225343 6.577771493308 5.566465440475
1337 2 -1.200000000000 20.811570745840 5.344439338313 4.453172352380
1338 2 -1.200000000000 21.147241241740 2.877775028322 3.339879264285
1339 2 -1.200000000000 22.154252729442 4.522217901650 6.679758528570
1340 2 -1.200000000000 22.489923225343 2.055553591659 5.566465440475
1341 2 -1.200000000000 23.161264217144 6.166660774977 3.339879264285
1342 2 -1.200000000000 23.496934713045 3.699996464986 2.226586176190
1343 2 -1.200000000000 24.503946200747 5.344439338313 5.566465440475
1344 2 -1.200000000000 24.839616696647 2.877775028322 4.453172352380
1345 1 2.400000000000 19.468888762237 1.644442873327 2.226586176190
1346 1 2.400000000000 21.147241241740 34.533300339870 3.339879264285
1347 1 2.400000000000 22.154252729442 0.000000000000 0.000000000000
1348 1 2.400000000000 23.161264217144 1.644442873327 3.339879264285
1349 2 -1.200000000000 21.482911737641 0.411110718332 2.226586176190
1350 2 -1.200000000000 21.818582233542 34.122189621538 1.113293088095
1351 2 -1.200000000000 22.825593721244 35.766632494865 4.453172352380
1352 2 -1.200000000000 23.161264217144 33.299968184874 3.339879264285
1353 2 -1.200000000000 23.832605208945 1.233332154995 1.113293088095
1354 2 -1.200000000000 24.168275704846 34.944411058201 0.000000000000
1355 2 -1.200000000000 25.175287192548 0.411110718332 3.339879264285
1356 2 -1.200000000000 25.510957688449 34.122189621538 2.226586176190
1357 1 2.400000000000 17.454865786833 34.533300339870 22.265861761899
1358 1 2.400000000000 19.133218266336 31.244414593215 23.379154849994
1359 1 2.400000000000 20.140229754038 32.888857466542 20.039275585709
1360 1 2.400000000000 21.147241241740 34.533300339870 23.379154849994
1361 2 -1.200000000000 19.468888762237 33.299968184874 22.265861761899
1362 2 -1.200000000000 19.804559258138 30.833303874884 21.152568673804
1363 2 -1.200000000000 20.811570745840 32.477746748211 24.492447938089
1364 2 -1.200000000000 21.147241241740 30.011082438220 23.379154849994
1365 2 -1.200000000000 21.818582233542 34.122189621538 21.152568673804
1366 2 -1.200000000000 22.154252729442 31.655525311547 20.039275585709
1367 2 -1.200000000000 23.161264217144 33.299968184874 23.379154849994
1368 2 -1.200000000000 23.496934713045 30.833303874884 22.265861761899
1369 1 2.400000000000 18.126206778635 29.599971719888 20.039275585709
1370 1 2.400000000000 19.804559258138 26.311085973234 21.152568673804
1371 1 2.400000000000 20.811570745840 27.955528846561 17.812689409519
1372 1 2.400000000000 21.818582233542 29.599971719888 21.152568673804
1373 2 -1.200000000000 20.140229754038 28.366639564893 20.039275585709
1374 2 -1.200000000000 20.475900249939 25.899975254902 18.925982497614
1375 2 -1.200000000000 21.482911737641 27.544418128229 22.265861761899
1376 2 -1.200000000000 21.818582233542 25.077753818239 21.152568673804
1377 2 -1.200000000000 22.489923225343 29.188861001556 18.925982497614
1378 2 -1.200000000000 22.825593721244 26.722196691566 17.812689409519
1379 2 -1.200000000000 23.832605208945 28.366639564893 21.152568673804
1380 2 -1.200000000000 24.168275704846 25.899975254902 20.039275585709
1381 1 2.400000000000 18.797547770436 24.666643099907 17.812689409519
1382 1 2.400000000000 20.475900249939 21.377757353253 18.925982497614
1383 1 2.400000000000 21.482911737641 23.022200226580 15.586103233329
1384 1 2.400000000000 22.489923225343 24.666643099907 18.925982497614
1385 2 -1.200000000000 20.811570745840 23.433310944912 17.812689409519
1386 2 -1.200000000000 21.147241241740 20.966646634921 16.699396321424
1387 2 -1.200000000000 22.154252729442 22.611089508248 20.039275585709
1388 2 -1.200000000000 22.489923225343 20.144425198257 18.925982497614
1389 2 -1.200000000000 23.161264217144 24.255532381575 16.699396321424
1390 2 -1.200000000000 23.496934713045 21.788868071584 15.586103233329
1391 2 -1.200000000000 24.503946200747 23.433310944912 18.925982497614
1392 2 -1.200000000000 24.839616696647 20.966646634921 17.812689409519
1393 1 2.400000000000 19.468888762237 19.733314479925 15.586103233329
1394 1 2.400000000000 21.147241241740 16.444428733271 16.699396321424
1395 1 2.400000000000 22.154252729442 18.088871606598 13.359517057139
1396 1 2.400000000000 23.161264217144 19.733314479925 16.699396321424
1397 2 -1.200000000000 21.482911737641 18.499982324930 15.586103233329
1398 2 -1.200000000000 21.818582233542 16.033318014939 14.472810145234
1399 2 -1.200000000000 22.825593721244 17.677760888267 17.812689409519
1400 2 -1.200000000000 23.161264217144 15.211096578276 16.699396321424
1401 2 -1.200000000000 23.832605208945 19.322203761594 14.472810145234
1402 2 -1.200000000000 24.168275704846 16.855539451603 13.359517057139
1403 2 -1.200000000000 25.175287192548 18.499982324930 16.699396321424
1404 2 -1.200000000000 25.510957688449 16.033318014939 15.586103233329
1405 1 2.400000000000 20.140229754038 14.799985859944 13.359517057139
1406 1 2.400000000000 21.818582233542 11.511100113290 14.472810145234
1407 1 2.400000000000 22.825593721244 13.155542986617 11.132930880950
1408 1 2.400000000000 23.832605208945 14.799985859944 14.472810145234
1409 2 -1.200000000000 22.154252729442 13.566653704949 13.359517057139
1410 2 -1.200000000000 22.489923225343 11.099989394958 12.246223969044
1411 2 -1.200000000000 23.496934713045 12.744432268285 15.586103233329
1412 2 -1.200000000000 23.832605208945 10.277767958295 14.472810145234
1413 2 -1.200000000000 24.503946200747 14.388875141612 12.246223969044
1414 2 -1.200000000000 24.839616696647 11.922210831622 11.132930880950
1415 2 -1.200000000000 25.846628184349 13.566653704949 14.472810145234
1416 2 -1.200000000000 26.182298680250 11.099989394958 13.359517057139
1417 1 2.400000000000 20.811570745840 9.866657239963 11.132930880950
1418 1 2.400000000000 22.489923225343 6.577771493308 12.246223969045
1419 1 2.400000000000 23.496934713045 8.222214366636 8.906344704760
1420 1 2.400000000000 24.503946200747 9.866657239963 12.246223969045
1421 2 -1.200000000000 22.825593721244 8.633325084967 11.132930880950
1422 2 -1.200000000000 23.161264217144 6.166660774977 10.019637792855
1423 2 -1.200000000000 24.168275704846 7.811103648304 13.359517057139
1424 2 -1.200000000000 24.503946200747 5.344439338313 12.246223969044
1425 2 -1.200000000000 25.175287192548 9.455546521631 10.019637792855
1426 2 -1.200000000000 25.510957688449 6.988882211640 8.906344704760
1427 2 -1.200000000000 26.517969176151 8.633325084967 12.246223969044
1428 2 -1.200000000000 26.853639672051 6.166660774977 11.132930880950
1429 1 2.400000000000 21.482911737641 4.933328619981 8.906344704760
1430 1 2.400000000000 23.161264217144 1.644442873327 10.019637792855
1431 1 2.400000000000 24.168275704846 3.288885746654 6.679758528570
1432 1 2.400000000000 25.175287192548 4.933328619981 10.019637792855
1433 2 -1.200000000000 23.496934713045 3.699996464986 8.906344704760
1434 2 -1.200000000000 23.832605208945 1.233332154995 7.793051616665
1435 2 -1.200000000000 24.839616696647 2.877775028322 11.132930880950
1436 2 -1.200000000000 25.175287192548 0.411110718332 10.019637792855
1437 2 -1.200000000000 25.846628184349 4.522217901650 7.793051616665
1438 2 -1.200000000000 26.182298680250 2.055553591659 6.679758528570
1439 2 -1.200000000000 27.189310167952 3.699996464986 10.019637792855
1440 2 -1.200000000000 27.524980663853 1.233332154995 8.906344704760
1441 1 2.400000000000 22.154252729442 -0.000000000000 6.679758528570
1442 1 2.400000000000 23.832605208945 32.888857466542 7.793051616665
1443 1 2.400000000000 24.839616696647 34.533300339870 4.453172352380
1444 1 2.400000000000 25.846628184349 -0.000000000000 7.793051616665
1445 2 -1.200000000000 24.168275704846 34.944411058201 6.679758528570
1446 2 -1.200000000000 24.503946200747 32.477746748211 5.566465440475
1447 2 -1.200000000000 25.510957688449 34.122189621538 8.906344704760
1448 2 -1.200000000000 25.846628184349 31.655525311547 7.793051616665
1449 2 -1.200000000000 26.517969176151 35.766632494865 5.566465440475
1450 2 -1.200000000000 26.853639672051 33.299968184874 4.453172352380
1451 2 -1.200000000000 27.860651159753 34.944411058201 7.793051616665
1452 2 -1.200000000000 28.196321655654 32.477746748211 6.679758528570
1453 1 2.400000000000 20.811570745840 27.955528846561 24.492447938089
1454 1 2.400000000000 22.489923225343 24.666643099907 25.605741026184
1455 1 2.400000000000 23.496934713045 26.311085973234 22.265861761899
1456 1 2.400000000000 24.503946200747 27.955528846561 25.605741026184
1457 2 -1.200000000000 22.825593721244 26.722196691566 24.492447938089
1458 2 -1.200000000000 23.161264217144 24.255532381575 23.379154849994
1459 2 -1.200000000000 24.168275704846 25.899975254902 0.000000000000
1460 2 -1.200000000000 24.503946200747 23.433310944911 25.605741026184
1461 2 -1.200000000000 25.175287192548 27.544418128229 23.379154849994
1462 2 -1.200000000000 25.510957688449 25.077753818239 22.265861761899
1463 2 -1.200000000000 26.517969176151 26.722196691566 25.605741026184
1464 2 -1.200000000000 26.853639672051 24.255532381575 24.492447938089
1465 1 2.400000000000 21.482911737641 23.022200226580 22.265861761899
1466 1 2.400000000000 23.161264217144 19.733314479925 23.379154849994
1467 1 2.400000000000 24.168275704846 21.377757353253 20.039275585709
1468 1 2.400000000000 25.175287192548 23.022200226580 23.379154849994
1469 2 -1.200000000000 23.496934713045 21.788868071584 22.265861761899
1470 2 -1.200000000000 23.832605208945 19.322203761594 21.152568673804
1471 2 -1.200000000000 24.839616696647 20.966646634921 24.492447938089
1472 2 -1.200000000000 25.175287192548 18.499982324930 23.379154849994
1473 2 -1.200000000000 25.846628184349 22.611089508248 21.152568673804
1474 2 -1.200000000000 26.182298680250 20.144425198257 20.039275585709
1475 2 -1.200000000000 27.189310167952 21.788868071584 23.379154849994
1476 2 -1.200000000000 27.524980663853 19.322203761594 22.265861761899
1477 1 2.400000000000 22.154252729442 18.088871606598 20.039275585709
1478 1 2.400000000000 23.832605208945 14.799985859944 21.152568673804
1479 1 2.400000000000 24.839616696647 16.444428733271 17.812689409519
1480 1 2.400000000000 25.846628184349 18.088871606598 21.152568673804
1481 2 -1.200000000000 24.168275704846 16.855539451603 20.039275585709
1482 2 -1.200000000000 24.503946200747 14.388875141612 18.925982497614
1483 2 -1.200000000000 25.510957688449 16.033318014939 22.265861761899
1484 2 -1.200000000000 25.846628184349 13.566653704949 21.152568673804
1485 2 -1.200000000000 26.517969176151 17.677760888267 18.925982497614
1486 2 -1.200000000000 26.853639672051 15.211096578276 17.812689409519
1487 2 -1.200000000000 27.860651159753 16.855539451603 21.152568673804
1488 2 -1.200000000000 28.196321655654 14.388875141612 20.039275585709
1489 1 2.400000000000 22.825593721244 13.155542986617 17.812689409519
1490 1 2.400000000000 24.503946200747 9.866657239963 18.925982497614
1491 1 2.400000000000 25.510957688449 11.511100113290 15.586103233329
1492 1 2.400000000000 26.517969176151 13.155542986617 18.925982497614
1493 2 -1.200000000000 24.839616696647 11.922210831622 17.812689409519
1494 2 -1.200000000000 25.175287192548 9.455546521631 16.699396321424
1495 2 -1.200000000000 26.182298680250 11.099989394958 20.039275585709
1496 2 -1.200000000000 26.517969176151 8.633325084967 18.925982497614
1497 2 -1.200000000000 27.189310167952 12.744432268285 16.699396321424
1498 2 -1.200000000000 27.524980663853 10.277767958295 15.586103233329
1499 2 -1.200000000000 28.531992151554 11.922210831622 18.925982497614
1500 2 -1.200000000000 28.867662647455 9.455546521631 17.812689409519
1501 1 2.400000000000 23.496934713045 8.222214366636 15.586103233329
1502 1 2.400000000000 25.175287192548 4.933328619981 16.699396321424
1503 1 2.400000000000 26.182298680250 6.577771493308 13.359517057139
1504 1 2.400000000000 27.189310167952 8.222214366636 16.699396321424
1505 2 -1.200000000000 25.510957688449 6.988882211640 15.586103233329
1506 2 -1.200000000000 25.846628184349 4.522217901650 14.472810145234
1507 2 -1.200000000000 26.853639672051 6.166660774977 17.812689409519
1508 2 -1.200000000000 27.189310167952 3.699996464986 16.699396321424
1509 2 -1.200000000000 27.860651159753 7.811103648304 14.472810145234
1510 2 -1.200000000000 28.196321655654 5.344439338313 13.359517057139
1511 2 -1.200000000000 29.203333143356 6.988882211640 16.699396321424
1512 2 -1.200000000000 29.539003639256 4.522217901650 15.586103233329
1513 1 2.400000000000 24.168275704846 3.288885746654 13.359517057139
1514 1 2.400000000000 25.846628184349 -0.000000000000 14.472810145234
1515 1 2.400000000000 26.853639672051 1.644442873327 11.132930880950
1516 1 2.400000000000 27.860651159753 3.288885746654 14.472810145234
1517 2 -1.200000000000 26.182298680250 2.055553591659 13.359517057139
1518 2 -1.200000000000 26.517969176151 35.766632494865 12.246223969045
1519 2 -1.200000000000 27.524980663853 1.233332154995 15.586103233329
1520 2 -1.200000000000 27.860651159753 34.944411058201 14.472810145234
1521 2 -1.200000000000 28.531992151554 2.877775028322 12.246223969045
1522 2 -1.200000000000 28.867662647455 0.411110718332 11.132930880950
1523 2 -1.200000000000 29.874674135157 2.055553591659 14.472810145234
1524 2 -1.200000000000 30.210344631058 35.766632494865 13.359517057139
1525 1 2.400000000000 24.839616696647 16.444428733271 24.492447938089
1526 1 2.400000000000 26.517969176151 13.155542986617 25.605741026184
1527 1 2.400000000000 27.524980663853 14.799985859944 22.265861761899
1528 1 2.400000000000 28.531992151554 16.444428733271 25.605741026184
1529 2 -1.200000000000 26.853639672051 15.211096578276 24.492447938089
1530 2 -1.200000000000 27.189310167952 12.744432268285 23.379154849994
1531 2 -1.200000000000 28.196321655654 14.388875141612 0.000000000000
1532 2 -1.200000000000 28.531992151554 11.922210831622 25.605741026184
1533 2 -1.200000000000 29.203333143356 16.033318014939 23.379154849994
1534 2 -1.200000000000 29.539003639256 13.566653704949 22.265861761899
1535 2 -1.200000000000 30.546015126958 15.211096578276 25.605741026184
1536 2 -1.200000000000 30.881685622859 12.744432268285 24.492447938089
1537 1 2.400000000000 25.510957688449 11.511100113290 22.265861761899
1538 1 2.400000000000 27.189310167952 8.222214366636 23.379154849994
1539 1 2.400000000000 28.196321655654 9.866657239963 20.039275585709
1540 1 2.400000000000 29.203333143356 11.511100113290 23.379154849994
1541 2 -1.200000000000 27.524980663853 10.277767958295 22.265861761899
1542 2 -1.200000000000 27.860651159753 7.811103648304 21.152568673804
1543 2 -1.200000000000 28.867662647455 9.455546521631 24.492447938089
1544 2 -1.200000000000 29.203333143356 6.988882211640 23.379154849994
1545 2 -1.200000000000 29.874674135157 11.099989394958 21.152568673804
1546 2 -1.200000000000 30.210344631058 8.633325084967 20.039275585709
1547 2 -1.200000000000 31.217356118760 10.277767958295 23.379154849994
1548 2 -1.200000000000 31.553026614660 7.811103648304 22.265861761899
1549 1 2.400000000000 26.182298680250 6.577771493308 20.039275585709
1550 1 2.400000000000 27.860651159753 3.288885746654 21.152568673804
1551 1 2.400000000000 28.867662647455 4.933328619981 17.812689409519
1552 1 2.400000000000 29.874674135157 6.577771493308 21.152568673804
1553 2 -1.200000000000 28.196321655654 5.344439338313 20.039275585709
1554 2 -1.200000000000 28.531992151554 2.877775028322 18.925982497614
1555 2 -1.200000000000 29.539003639256 4.522217901650 22.265861761899
1556 2 -1.200000000000 29.874674135157 2.055553591659 21.152568673804
1557 2 -1.200000000000 30.546015126958 6.166660774977 18.925982497614
1558 2 -1.200000000000 30.881685622859 3.699996464986 17.812689409519
1559 2 -1.200000000000 31.888697110561 5.344439338313 21.152568673804
1560 2 -1.200000000000 32.224367606461 2.877775028322 20.039275585709
1561 1 2.400000000000 26.853639672051 1.644442873327 17.812689409519
1562 1 2.400000000000 28.531992151554 34.533300339870 18.925982497614
1563 1 2.400000000000 29.539003639256 -0.000000000000 15.586103233329
1564 1 2.400000000000 30.546015126958 1.644442873327 18.925982497614
1565 2 -1.200000000000 28.867662647455 0.411110718332 17.812689409519
1566 2 -1.200000000000 29.203333143356 34.122189621538 16.699396321424
1567 2 -1.200000000000 30.210344631058 35.766632494865 20.039275585709
1568 2 -1.200000000000 30.546015126958 33.299968184874 18.925982497614
1569 2 -1.200000000000 31.217356118760 1.233332154995 16.699396321424
1570 2 -1.200000000000 31.553026614660 34.944411058201 15.586103233329
1571 2 -1.200000000000 32.560038102362 0.411110718332 18.925982497614
1572 2 -1.200000000000 32.895708598263 34.122189621538 17.812689409519
1573 1 2.400000000000 28.867662647455 4.933328619981 24.492447938089
1574 1 2.400000000000 30.546015126958 1.644442873327 25.605741026184
1575 1 2.400000000000 31.553026614660 3.288885746654 22.265861761899
1576 1 2.400000000000 32.560038102362 4.933328619981 25.605741026184
1577 2 -1.200000000000 30.881685622859 3.699996464986 24.492447938089
1578 2 -1.200000000000 31.217356118760 1.233332154995 23.379154849994
1579 2 -1.200000000000 32.224367606461 2.877775028322 0.000000000000
1580 2 -1.200000000000 32.560038102362 0.411110718332 25.605741026184
1581 2 -1.200000000000 33.231379094163 4.522217901650 23.379154849994
1582 2 -1.200000000000 33.567049590064 2.055553591659 22.265861761899
1583 2 -1.200000000000 34.574061077766 3.699996464986 25.605741026184
1584 2 -1.200000000000 34.909731573667 1.233332154995 24.492447938089
1585 1 2.400000000000 29.539003639256 -0.000000000000 22.265861761899
1586 1 2.400000000000 31.217356118760 32.888857466542 23.379154849994
1587 1 2.400000000000 32.224367606461 34.533300339870 20.039275585709
1588 1 2.400000000000 33.231379094163 -0.000000000000 23.379154849994
1589 2 -1.200000000000 31.553026614660 34.944411058201 22.265861761899
1590 2 -1.200000000000 31.888697110561 32.477746748211 21.152568673804
1591 2 -1.200000000000 32.895708598263 34.122189621538 24.492447938089
1592 2 -1.200000000000 33.231379094163 31.655525311547 23.379154849994
1593 2 -1.200000000000 33.902720085965 35.766632494865 21.152568673804
1594 2 -1.200000000000 34.238390581865 33.299968184874 20.039275585709
1595 2 -1.200000000000 35.245402069567 34.944411058201 23.379154849994
1596 2 -1.200000000000 35.581072565468 32.477746748211 22.265861761899
1597 1 2.400000000000 15.440842811429 31.244414593215 2.226586176190
1598 1 2.400000000000 17.119195290933 27.955528846561 3.339879264285
1599 1 2.400000000000 18.126206778635 29.599971719888 0.000000000000
1600 1 2.400000000000 19.133218266336 31.244414593215 3.339879264285
1601 2 -1.200000000000 17.454865786833 30.011082438220 2.226586176190
1602 2 -1.200000000000 17.790536282734 27.544418128229 1.113293088095
1603 2 -1.200000000000 18.797547770436 29.188861001556 4.453172352380
1604 2 -1.200000000000 19.133218266336 26.722196691566 3.339879264285
1605 2 -1.200000000000 19.804559258138 30.833303874884 1.113293088095
1606 2 -1.200000000000 20.140229754038 28.366639564893 0.000000000000
1607 2 -1.200000000000 21.147241241740 30.011082438220 3.339879264285
1608 2 -1.200000000000 21.482911737641 27.544418128229 2.226586176190
1609 1 2.400000000000 16.112183803231 26.311085973234 0.000000000000
1610 1 2.400000000000 17.790536282734 23.022200226580 1.113293088095
1611 1 2.400000000000 18.797547770436 24.666643099907 24.492447938089
1612 1 2.400000000000 19.804559258138 26.311085973234 1.113293088095
1613 2 -1.200000000000 18.126206778635 25.077753818239 0.000000000000
1614 2 -1.200000000000 18.461877274535 22.611089508248 25.605741026184
1615 2 -1.200000000000 19.468888762237 24.255532381575 2.226586176190
1616 2 -1.200000000000 19.804559258138 21.788868071584 1.113293088095
1617 2 -1.200000000000 20.475900249939 25.899975254902 25.605741026184
1618 2 -1.200000000000 20.811570745840 23.433310944912 24.492447938089
1619 2 -1.200000000000 21.818582233542 25.077753818239 1.113293088095
1620 2 -1.200000000000 22.154252729442 22.611089508248 0.000000000000
1621 1 2.400000000000 17.454865786833 34.533300339870 8.906344704760
1622 1 2.400000000000 19.133218266336 31.244414593215 10.019637792855
1623 1 2.400000000000 20.140229754038 32.888857466542 6.679758528570
1624 1 2.400000000000 21.147241241740 34.533300339870 10.019637792855
1625 2 -1.200000000000 19.468888762237 33.299968184874 8.906344704760
1626 2 -1.200000000000 19.804559258138 30.833303874884 7.793051616665
1627 2 -1.200000000000 20.811570745840 32.477746748211 11.132930880950
1628 2 -1.200000000000 21.147241241740 30.011082438220 10.019637792855
1629 2 -1.200000000000 21.818582233542 34.122189621538 7.793051616665
1630 2 -1.200000000000 22.154252729442 31.655525311547 6.679758528570
1631 2 -1.200000000000 23.161264217144 33.299968184874 10.019637792855
1632 2 -1.200000000000 23.496934713045 30.833303874884 8.906344704760
1633 1 2.400000000000 18.126206778635 29.599971719888 6.679758528570
1634 1 2.400000000000 19.804559258138 26.311085973234 7.793051616665
1635 1 2.400000000000 20.811570745840 27.955528846561 4.453172352380
1636 1 2.400000000000 21.818582233542 29.599971719888 7.793051616665
1637 2 -1.200000000000 20.140229754038 28.366639564893 6.679758528570
1638 2 -1.200000000000 20.475900249939 25.899975254902 5.566465440475
1639 2 -1.200000000000 21.482911737641 27.544418128229 8.906344704760
1640 2 -1.200000000000 21.818582233542 25.077753818239 7.793051616665
1641 2 -1.200000000000 22.489923225343 29.188861001556 5.566465440475
1642 2 -1.200000000000 22.825593721244 26.722196691566 4.453172352380
1643 2 -1.200000000000 23.832605208945 28.366639564893 7.793051616665
1644 2 -1.200000000000 24.168275704846 25.899975254902 6.679758528570
1645 1 2.400000000000 18.797547770436 24.666643099907 4.453172352380
1646 1 2.400000000000 20.475900249939 21.377757353253 5.566465440475
1647 1 2.400000000000 21.482911737641 23.022200226580 2.226586176190
1648 1 2.400000000000 22.489923225343 24.666643099907 5.566465440475
1649 2 -1.200000000000 20.811570745840 23.433310944912 4.453172352380
1650 2 -1.200000000000 21.147241241740 20.966646634921 3.339879264285
1651 2 -1.200000000000 22.154252729442 22.611089508248 6.679758528570
1652 2 -1.200000000000 22.489923225343 20.144425198257 5.566465440475
1653 2 -1.200000000000 23.161264217144 24.255532381575 3.339879264285
1654 2 -1.200000000000 23.496934713045 21.788868071584 2.226586176190
1655 2 -1.200000000000 24.503946200747 23.433310944912 5.566465440475
1656 2 -1.200000000000 24.839616696647 20.966646634921 4.453172352380
1657 1 2.400000000000 19.468888762237 19.733314479925 2.226586176190
1658 1 2.400000000000 21.147241241740 16.444428733271 3.339879264285
1659 1 2.400000000000 22.154252729442 18.088871606598 0.000000000000
1660 1 2.400000000000 23.161264217144 19.733314479925 3.339879264285
1661 2 -1.200000000000 21.482911737641 18.499982324930 2.226586176190
1662 2 -1.200000000000 21.818582233542 16.033318014939 1.113293088095
1663 2 -1.200000000000 22.825593721244 17.677760888267 4.453172352380
1664 2 -1.200000000000 23.161264217144 15.211096578276 3.339879264285
1665 2 -1.200000000000 23.832605208945 19.322203761594 1.113293088095
1666 2 -1.200000000000 24.168275704846 16.855539451603 0.000000000000
1667 2 -1.200000000000 25.175287192548 18.499982324930 3.339879264285
1668 2 -1.200000000000 25.510957688449 16.033318014939 2.226586176190
1669 1 2.400000000000 20.140229754038 14.799985859944 0.000000000000
1670 1 2.400000000000 21.818582233542 11.511100113290 1.113293088095
1671 1 2.400000000000 22.825593721244 13.155542986617 24.492447938089
1672 1 2.400000000000 23.832605208945 14.799985859944 1.113293088095
1673 2 -1.200000000000 22.154252729442 13.566653704949 0.000000000000
1674 2 -1.200000000000 22.489923225343 11.099989394958 25.605741026184
1675 2 -1.200000000000 23.496934713045 12.744432268285 2.226586176190
1676 2 -1.200000000000 23.832605208945 10.277767958295 1.113293088095
1677 2 -1.200000000000 24.503946200747 14.388875141612 25.605741026184
1678 2 -1.200000000000 24.839616696647 11.922210831622 24.492447938089
1679 2 -1.200000000000 25.846628184349 13.566653704949 1.113293088095
1680 2 -1.200000000000 26.182298680250 11.099989394958 0.000000000000
1681 1 2.400000000000 20.140229754038 32.888857466542 13.359517057139
1682 1 2.400000000000 21.818582233542 29.599971719888 14.472810145234
1683 1 2.400000000000 22.825593721244 31.244414593215 11.132930880950
1684 1 2.400000000000 23.832605208945 32.888857466542 14.472810145234
1685 2 -1.200000000000 22.154252729442 31.655525311547 13.359517057139
1686 2 -1.200000000000 22.489923225343 29.188861001556 12.246223969045
1687 2 -1.200000000000 23.496934713045 30.833303874884 15.586103233329
1688 2 -1.200000000000 23.832605208945 28.366639564893 14.472810145234
1689 2 -1.200000000000 24.503946200747 32.477746748211 12.246223969045
1690 2 -1.200000000000 24.839616696647 30.011082438220 11.132930880950
1691 2 -1.200000000000 25.846628184349 31.655525311547 14.472810145234
1692 2 -1.200000000000 26.182298680250 29.188861001556 13.359517057139
1693 1 2.400000000000 20.811570745840 27.955528846561 11.132930880950
1694 1 2.400000000000 22.489923225343 24.666643099907 12.246223969045
1695 1 2.400000000000 23.496934713045 26.311085973234 8.906344704760
1696 1 2.400000000000 24.503946200747 27.955528846561 12.246223969045
1697 2 -1.200000000000 22.825593721244 26.722196691566 11.132930880950
1698 2 -1.200000000000 23.161264217144 24.255532381575 10.019637792855
1699 2 -1.200000000000 24.168275704846 25.899975254902 13.359517057139
1700 2 -1.200000000000 24.503946200747 23.433310944912 12.246223969045
1701 2 -1.200000000000 25.175287192548 27.544418128229 10.019637792855
1702 2 -1.200000000000 25.510957688449 25.077753818239 8.906344704760
1703 2 -1.200000000000 26.517969176151 26.722196691566 12.246223969045
1704 2 -1.200000000000 26.853639672051 24.255532381575 11.132930880950
1705 1 2.400000000000 21.482911737641 23.022200226580 8.906344704760
1706 1 2.400000000000 23.161264217144 19.733314479925 10.019637792855
1707 1 2.400000000000 24.168275704846 21.377757353253 6.679758528570
1708 1 2.400000000000 25.175287192548 23.022200226580 10.019637792855
1709 2 -1.200000000000 23.496934713045 21.788868071584 8.906344704760
1710 2 -1.200000000000 23.832605208945 19.322203761594 7.793051616665
1711 2 -1.200000000000 24.839616696647 20.966646634921 11.132930880950
1712 2 -1.200000000000 25.175287192548 18.499982324930 10.019637792855
1713 2 -1.200000000000 25.846628184349 22.611089508248 7.793051616665
1714 2 -1.200000000000 26.182298680250 20.144425198257 6.679758528570
1715 2 -1.200000000000 27.189310167952 21.788868071584 10.019637792855
1716 2 -1.200000000000 27.524980663853 19.322203761594 8.906344704760
1717 1 2.400000000000 22.154252729442 18.088871606598 6.679758528570
1718 1 2.400000000000 23.832605208945 14.799985859944 7.793051616665
1719 1 2.400000000000 24.839616696647 16.444428733271 4.453172352380
1720 1 2.400000000000 25.846628184349 18.088871606598 7.793051616665
1721 2 -1.200000000000 24.168275704846 16.855539451603 6.679758528570
1722 2 -1.200000000000 24.503946200747 14.388875141612 5.566465440475
1723 2 -1.200000000000 25.510957688449 16.033318014939 8.906344704760
1724 2 -1.200000000000 25.846628184349 13.566653704949 7.793051616665
1725 2 -1.200000000000 26.517969176151 17.677760888267 5.566465440475
1726 2 -1.200000000000 26.853639672051 15.211096578276 4.453172352380
1727 2 -1.200000000000 27.860651159753 16.855539451603 7.793051616665
1728 2 -1.200000000000 28.196321655654 14.388875141612 6.679758528570
1729 1 2.400000000000 22.825593721244 13.155542986617 4.453172352380
1730 1 2.400000000000 24.503946200747 9.866657239963 5.566465440475
1731 1 2.400000000000 25.510957688449 11.511100113290 2.226586176190
1732 1 2.400000000000 26.517969176151 13.155542986617 5.566465440475
1733 2 -1.200000000000 24.839616696647 11.922210831622 4.453172352380
1734 2 -1.200000000000 25.175287192548 9.455546521631 3.339879264285
1735 2 -1.200000000000 26.182298680250 11.099989394958 6.679758528570
1736 2 -1.200000000000 26.517969176151 8.633325084967 5.566465440475
1737 2 -1.200000000000 27.189310167952 12.744432268285 3.339879264285
1738 2 -1.200000000000 27.524980663853 10.277767958295 2.226586176190
1739 2 -1.200000000000 28.531992151554 11.922210831622 5.566465440475
1740 2 -1.200000000000 28.867662647455 9.455546521631 4.453172352380
1741 1 2.400000000000 23.496934713045 8.222214366636 2.226586176190
1742 1 2.400000000000 25.175287192548 4.933328619981 3.339879264285
1743 1 2.400000000000 26.182298680250 6.577771493308 0.000000000000
1744 1 2.400000000000 27.189310167952 8.222214366636 3.339879264285
1745 2 -1.200000000000 25.510957688449 6.988882211640 2.226586176190
1746 2 -1.200000000000 25.846628184349 4.522217901650 1.113293088095
1747 2 -1.200000000000 26.853639672051 6.166660774977 4.453172352380
1748 2 -1.200000000000 27.189310167952 3.699996464986 3.339879264285
1749 2 -1.200000000000 27.860651159753 7.811103648304 1.113293088095
1750 2 -1.200000000000 28.196321655654 5.344439338313 0.000000000000
1751 2 -1.200000000000 29.203333143356 6.988882211640 3.339879264285
1752 2 -1.200000000000 29.539003639256 4.522217901650 2.226586176190
1753 1 2.400000000000 24.168275704846 3.288885746654 0.000000000000
1754 1 2.400000000000 25.846628184349 -0.000000000000 1.113293088095
1755 1 2.400000000000 26.853639672051 1.644442873327 24.492447938089
1756 1 2.400000000000 27.860651159753 3.288885746654 1.113293088095
1757 2 -1.200000000000 26.182298680250 2.055553591659 0.000000000000
1758 2 -1.200000000000 26.517969176151 35.766632494865 25.605741026184
1759 2 -1.200000000000 27.524980663853 1.233332154995 2.226586176190
1760 2 -1.200000000000 27.860651159753 34.944411058201 1.113293088095
1761 2 -1.200000000000 28.531992151554 2.877775028322 25.605741026184
1762 2 -1.200000000000 28.867662647455 0.411110718332 24.492447938089
1763 2 -1.200000000000 29.874674135157 2.055553591659 1.113293088095
1764 2 -1.200000000000 30.210344631058 35.766632494865 0.000000000000
1765 1 2.400000000000 22.825593721244 31.244414593215 17.812689409519
1766 1 2.400000000000 24.503946200747 27.955528846561 18.925982497614
1767 1 2.400000000000 25.510957688449 29.599971719888 15.586103233329
1768 1 2.400000000000 26.517969176151 31.244414593215 18.925982497614
1769 2 -1.200000000000 24.839616696647 30.011082438220 17.812689409519
1770 2 -1.200000000000 25.175287192548 27.544418128229 16.699396321424
1771 2 -1.200000000000 26.182298680250 29.188861001556 20.039275585709
1772 2 -1.200000000000 26.517969176151 26.722196691566 18.925982497614
1773 2 -1.200000000000 27.189310167952 30.833303874884 16.699396321424
1774 2 -1.200000000000 27.524980663853 28.366639564893 15.586103233329
1775 2 -1.200000000000 28.531992151554 30.011082438220 18.925982497614
1776 2 -1.200000000000 28.867662647455 27.544418128229 17.812689409519
1777 1 2.400000000000 23.496934713045 26.311085973234 15.586103233329
1778 1 2.400000000000 25.175287192548 23.022200226580 16.699396321424
1779 1 2.400000000000 26.182298680250 24.666643099907 13.359517057139
1780 1 2.400000000000 27.189310167952 26.311085973234 16.699396321424
1781 2 -1.200000000000 25.510957688449 25.077753818239 15.586103233329
1782 2 -1.200000000000 25.846628184349 22.611089508248 14.472810145234
1783 2 -1.200000000000 26.853639672051 24.255532381575 17.812689409519
1784 2 -1.200000000000 27.189310167952 21.788868071584 16.699396321424
1785 2 -1.200000000000 27.860651159753 25.899975254902 14.472810145234
1786 2 -1.200000000000 28.196321655654 23.433310944912 13.359517057139
1787 2 -1.200000000000 29.203333143356 25.077753818239 16.699396321424
1788 2 -1.200000000000 29.539003639256 22.611089508248 15.586103233329
1789 1 2.400000000000 24.168275704846 21.377757353253 13.359517057139
1790 1 2.400000000000 25.846628184349 18.088871606598 14.472810145234
1791 1 2.400000000000 26.853639672051 19.733314479925 11.132930880950
1792 1 2.400000000000 27.860651159753 21.377757353253 14.472810145234
1793 2 -1.200000000000 26.182298680250 20.144425198257 13.359517057139
1794 2 -1.200000000000 26.517969176151 17.677760888267 12.246223969044
1795 2 -1.200000000000 27.524980663853 19.322203761594 15.586103233329
1796 2 -1.200000000000 27.860651159753 16.855539451603 14.472810145234
1797 2 -1.200000000000 28.531992151554 20.966646634921 12.246223969044
1798 2 -1.200000000000 28.867662647455 18.499982324930 11.132930880950
1799 2 -1.200000000000 29.874674135157 20.144425198257 14.472810145234
1800 2 -1.200000000000 30.210344631058 17.677760888267 13.359517057139
1801 1 2.400000000000 24.839616696647 16.444428733271 11.132930880950
1802 1 2.400000000000 26.517969176151 13.155542986617 12.246223969044
1803 1 2.400000000000 27.524980663853 14.799985859944 8.906344704760
1804 1 2.400000000000 28.531992151554 16.444428733271 12.246223969045
1805 2 -1.200000000000 26.853639672051 15.211096578276 11.132930880950
1806 2 -1.200000000000 27.189310167952 12.744432268285 10.019637792855
1807 2 -1.200000000000 28.196321655654 14.388875141612 13.359517057139
1808 2 -1.200000000000 28.531992151554 11.922210831622 12.246223969045
1809 2 -1.200000000000 29.203333143356 16.033318014939 10.019637792855
1810 2 -1.200000000000 29.539003639256 13.566653704949 8.906344704760
1811 2 -1.200000000000 30.546015126958 15.211096578276 12.246223969044
1812 2 -1.200000000000 30.881685622859 12.744432268285 11.132930880950
1813 1 2.400000000000 25.510957688449 11.511100113290 8.906344704760
1814 1 2.400000000000 27.189310167952 8.222214366636 10.019637792855
1815 1 2.400000000000 28.196321655654 9.866657239963 6.679758528570
1816 1 2.400000000000 29.203333143356 11.511100113290 10.019637792855
1817 2 -1.200000000000 27.524980663853 10.277767958295 8.906344704760
1818 2 -1.200000000000 27.860651159753 7.811103648304 7.793051616665
1819 2 -1.200000000000 28.867662647455 9.455546521631 11.132930880950
1820 2 -1.200000000000 29.203333143356 6.988882211640 10.019637792855
1821 2 -1.200000000000 29.874674135157 11.099989394958 7.793051616665
1822 2 -1.200000000000 30.210344631058 8.633325084967 6.679758528570
1823 2 -1.200000000000 31.217356118760 10.277767958295 10.019637792855
1824 2 -1.200000000000 31.553026614660 7.811103648304 8.906344704760
1825 1 2.400000000000 26.182298680250 6.577771493308 6.679758528570
1826 1 2.400000000000 27.860651159753 3.288885746654 7.793051616665
1827 1 2.400000000000 28.867662647455 4.933328619981 4.453172352380
1828 1 2.400000000000 29.874674135157 6.577771493308 7.793051616665
1829 2 -1.200000000000 28.196321655654 5.344439338313 6.679758528570
1830 2 -1.200000000000 28.531992151554 2.877775028322 5.566465440475
1831 2 -1.200000000000 29.539003639256 4.522217901650 8.906344704760
1832 2 -1.200000000000 29.874674135157 2.055553591659 7.793051616665
1833 2 -1.200000000000 30.546015126958 6.166660774977 5.566465440475
1834 2 -1.200000000000 30.881685622859 3.699996464986 4.453172352380
1835 2 -1.200000000000 31.888697110561 5.344439338313 7.793051616665
1836 2 -1.200000000000 32.224367606461 2.877775028322 6.679758528570
1837 1 2.400000000000 26.853639672051 1.644442873327 4.453172352380
1838 1 2.400000000000 28.531992151554 34.533300339870 5.566465440475
1839 1 2.400000000000 29.539003639256 -0.000000000000 2.226586176190
1840 1 2.400000000000 30.546015126958 1.644442873327 5.566465440475
1841 2 -1.200000000000 28.867662647455 0.411110718332 4.453172352380
1842 2 -1.200000000000 29.203333143356 34.122189621538 3.339879264285
1843 2 -1.200000000000 30.210344631058 35.766632494865 6.679758528570
1844 2 -1.200000000000 30.546015126958 33.299968184874 5.566465440475
1845 2 -1.200000000000 31.217356118760 1.233332154995 3.339879264285
1846 2 -1.200000000000 31.553026614660 34.944411058201 2.226586176190
1847 2 -1.200000000000 32.560038102362 0.411110718332 5.566465440475
1848 2 -1.200000000000 32.895708598263 34.122189621538 4.453172352380
1849 1 2.400000000000 24.839616696647 34.533300339870 24.492447938089
1850 1 2.400000000000 26.517969176151 31.244414593215 25.605741026184
1851 1 2.400000000000 27.524980663853 32.888857466542 22.265861761899
1852 1 2.400000000000 28.531992151554 34.533300339870 25.605741026184
1853 2 -1.200000000000 26.853639672051 33.299968184874 24.492447938089
1854 2 -1.200000000000 27.189310167952 30.833303874884 23.379154849994
1855 2 -1.200000000000 28.196321655654 32.477746748211 0.000000000000
1856 2 -1.200000000000 28.531992151554 30.011082438220 25.605741026184
1857 2 -1.200000000000 29.203333143356 34.122189621538 23.379154849994
1858 2 -1.200000000000 29.539003639256 31.655525311547 22.265861761899
1859 2 -1.200000000000 30.546015126958 33.299968184874 25.605741026184
1860 2 -1.200000000000 30.881685622859 30.833303874884 24.492447938089
1861 1 2.400000000000 25.510957688449 29.599971719888 22.265861761899
1862 1 2.400000000000 27.189310167952 26.311085973234 23.379154849994
1863 1 2.400000000000 28.196321655654 27.955528846561 20.039275585709
1864 1 2.400000000000 29.203333143356 29.599971719888 23.379154849994
1865 2 -1.200000000000 27.524980663853 28.366639564893 22.265861761899
1866 2 -1.200000000000 27.860651159753 25.899975254902 21.152568673804
1867 2 -1.200000000000 28.867662647455 27.544418128229 24.492447938089
1868 2 -1.200000000000 29.203333143356 25.077753818239 23.379154849994
1869 2 -1.200000000000 29.874674135157 29.188861001556 21.152568673804
1870 2 -1.200000000000 30.210344631058 26.722196691566 20.039275585709
1871 2 -1.200000000000 31.217356118760 28.366639564893 23.379154849994
1872 2 -1.200000000000 31.553026614660 25.899975254902 22.265861761899
1873 1 2.400000000000 26.182298680250 24.666643099907 20.039275585709
1874 1 2.400000000000 27.860651159753 21.377757353253 21.152568673804
1875 1 2.400000000000 28.867662647455 23.022200226580 17.812689409519
1876 1 2.400000000000 29.874674135157 24.666643099907 21.152568673804
1877 2 -1.200000000000 28.196321655654 23.433310944912 20.039275585709
1878 2 -1.200000000000 28.531992151554 20.966646634921 18.925982497614
1879 2 -1.200000000000 29.539003639256 22.611089508248 22.265861761899
1880 2 -1.200000000000 29.874674135157 20.144425198257 21.152568673804
1881 2 -1.200000000000 30.546015126958 24.255532381575 18.925982497614
1882 2 -1.200000000000 30.881685622859 21.788868071584 17.812689409519
1883 2 -1.200000000000 31.888697110561 23.433310944912 21.152568673804
1884 2 -1.200000000000 32.224367606461 20.966646634921 20.039275585709
1885 1 2.400000000000 26.853639672051 19.733314479925 17.812689409519
1886 1 2.400000000000 28.531992151554 16.444428733271 18.925982497614
1887 1 2.400000000000 29.539003639256 18.088871606598 15.586103233329
1888 1 2.400000000000 30.546015126958 19.733314479925 18.925982497614
1889 2 -1.200000000000 28.867662647455 18.499982324930 17.812689409519
1890 2 -1.200000000000 29.203333143356 16.033318014939 16.699396321424
1891 2 -1.200000000000 30.210344631058 17.677760888267 20.039275585709
1892 2 -1.200000000000 30.546015126958 15.211096578276 18.925982497614
1893 2 -1.200000000000 31.217356118760 19.322203761594 16.699396321424
1894 2 -1.200000000000 31.553026614660 16.855539451603 15.586103233329
1895 2 -1.200000000000 32.560038102362 18.499982324930 18.925982497614
1896 2 -1.200000000000 32.895708598263 16.033318014939 17.812689409519
1897 1 2.400000000000 27.524980663853 14.799985859944 15.586103233329
1898 1 2.400000000000 29.203333143356 11.511100113290 16.699396321424
1899 1 2.400000000000 30.210344631058 13.155542986617 13.359517057139
1900 1 2.400000000000 31.217356118760 14.799985859944 16.699396321424
1901 2 -1.200000000000 29.539003639256 13.566653704949 15.586103233329
1902 2 -1.200000000000 29.874674135157 11.099989394958 14.472810145234
1903 2 -1.200000000000 30.881685622859 12.744432268285 17.812689409519
1904 2 -1.200000000000 31.217356118760 10.277767958295 16.699396321424
1905 2 -1.200000000000 31.888697110561 14.388875141612 14.472810145234
1906 2 -1.200000000000 32.224367606461 11.922210831622 13.359517057139
1907 2 -1.200000000000 33.231379094163 13.566653704949 16.699396321424
1908 2 -1.200000000000 33.567049590064 11.099989394958 15.586103233329
1909 1 2.400000000000 28.196321655654 9.866657239963 13.359517057139
1910 1 2.400000000000 29.874674135157 6.577771493308 14.472810145234
1911 1 2.400000000000 30.881685622859 8.222214366636 11.132930880950
1912 1 2.400000000000 31.888697110561 9.866657239963 14.472810145234
1913 2 -1.200000000000 30.210344631058 8.633325084967 13.359517057139
1914 2 -1.200000000000 30.546015126958 6.166660774977 12.246223969045
1915 2 -1.200000000000 31.553026614660 7.811103648304 15.586103233329
1916 2 -1.200000000000 31.888697110561 5.344439338313 14.472810145234
1917 2 -1.200000000000 32.560038102362 9.455546521631 12.246223969044
1918 2 -1.200000000000 32.895708598263 6.988882211640 11.132930880950
1919 2 -1.200000000000 33.902720085965 8.633325084967 14.472810145234
1920 2 -1.200000000000 34.238390581865 6.166660774977 13.359517057139
1921 1 2.400000000000 28.867662647455 4.933328619981 11.132930880950
1922 1 2.400000000000 30.546015126958 1.644442873327 12.246223969045
1923 1 2.400000000000 31.553026614660 3.288885746654 8.906344704760
1924 1 2.400000000000 32.560038102362 4.933328619981 12.246223969045
1925 2 -1.200000000000 30.881685622859 3.699996464986 11.132930880950
1926 2 -1.200000000000 31.217356118760 1.233332154995 10.019637792855
1927 2 -1.200000000000 32.224367606461 2.877775028322 13.359517057139
1928 2 -1.200000000000 32.560038102362 0.411110718332 12.246223969045
1929 2 -1.200000000000 33.231379094163 4.522217901650 10.019637792855
1930 2 -1.200000000000 33.567049590064 2.055553591659 8.906344704760
1931 2 -1.200000000000 34.574061077766 3.699996464986 12.246223969044
1932 2 -1.200000000000 34.909731573667 1.233332154995 11.132930880950
1933 1 2.400000000000 29.539003639256 -0.000000000000 8.906344704760
1934 1 2.400000000000 31.217356118760 32.888857466542 10.019637792855
1935 1 2.400000000000 32.224367606461 34.533300339870 6.679758528570
1936 1 2.400000000000 33.231379094163 -0.000000000000 10.019637792855
1937 2 -1.200000000000 31.553026614660 34.944411058201 8.906344704760
1938 2 -1.200000000000 31.888697110561 32.477746748211 7.793051616665
1939 2 -1.200000000000 32.895708598263 34.122189621538 11.132930880950
1940 2 -1.200000000000 33.231379094163 31.655525311547 10.019637792855
1941 2 -1.200000000000 33.902720085965 35.766632494865 7.793051616665
1942 2 -1.200000000000 34.238390581865 33.299968184874 6.679758528570
1943 2 -1.200000000000 35.245402069567 34.944411058201 10.019637792855
1944 2 -1.200000000000 35.581072565468 32.477746748211 8.906344704760
1945 1 2.400000000000 28.867662647455 23.022200226580 24.492447938089
1946 1 2.400000000000 30.546015126958 19.733314479925 25.605741026184
1947 1 2.400000000000 31.553026614660 21.377757353253 22.265861761899
1948 1 2.400000000000 32.560038102362 23.022200226580 25.605741026184
1949 2 -1.200000000000 30.881685622859 21.788868071584 24.492447938089
1950 2 -1.200000000000 31.217356118760 19.322203761594 23.379154849994
1951 2 -1.200000000000 32.224367606461 20.966646634921 0.000000000000
1952 2 -1.200000000000 32.560038102362 18.499982324930 25.605741026184
1953 2 -1.200000000000 33.231379094163 22.611089508248 23.379154849994
1954 2 -1.200000000000 33.567049590064 20.144425198257 22.265861761899
1955 2 -1.200000000000 34.574061077766 21.788868071584 25.605741026184
1956 2 -1.200000000000 34.909731573667 19.322203761594 24.492447938089
1957 1 2.400000000000 29.539003639256 18.088871606598 22.265861761899
1958 1 2.400000000000 31.217356118760 14.799985859944 23.379154849994
1959 1 2.400000000000 32.224367606461 16.444428733271 20.039275585709
1960 1 2.400000000000 33.231379094163 18.088871606598 23.379154849994
1961 2 -1.200000000000 31.553026614660 16.855539451603 22.265861761899
1962 2 -1.200000000000 31.888697110561 14.388875141612 21.152568673804
1963 2 -1.200000000000 32.895708598263 16.033318014939 24.492447938089
1964 2 -1.200000000000 33.231379094163 13.566653704949 23.379154849994
1965 2 -1.200000000000 33.902720085965 17.677760888267 21.152568673804
1966 2 -1.200000000000 34.238390581865 15.211096578276 20.039275585709
1967 2 -1.200000000000 35.245402069567 16.855539451603 23.379154849994
1968 2 -1.200000000000 35.581072565468 14.388875141612 22.265861761899
1969 1 2.400000000000 30.210344631058 13.155542986617 20.039275585709
1970 1 2.400000000000 31.888697110561 9.866657239963 21.152568673804
1971 1 2.400000000000 32.895708598263 11.511100113290 17.812689409519
1972 1 2.400000000000 33.902720085965 13.155542986617 21.152568673804
1973 2 -1.200000000000 32.224367606461 11.922210831622 20.039275585709
1974 2 -1.200000000000 32.560038102362 9.455546521631 18.925982497614
1975 2 -1.200000000000 33.567049590064 11.099989394958 22.265861761899
1976 2 -1.200000000000 33.902720085965 8.633325084967 21.152568673804
1977 2 -1.200000000000 34.574061077766 12.744432268285 18.925982497614
1978 2 -1.200000000000 34.909731573667 10.277767958295 17.812689409519
1979 2 -1.200000000000 35.916743061369 11.922210831622 21.152568673804
1980 2 -1.200000000000 36.252413557269 9.455546521631 20.039275585709
1981 1 2.400000000000 30.881685622859 8.222214366636 17.812689409519
1982 1 2.400000000000 32.560038102362 4.933328619981 18.925982497614
1983 1 2.400000000000 33.567049590064 6.577771493308 15.586103233329
1984 1 2.400000000000 34.574061077766 8.222214366636 18.925982497614
1985 2 -1.200000000000 32.895708598263 6.988882211640 17.812689409519
1986 2 -1.200000000000 33.231379094163 4.522217901650 16.699396321424
1987 2 -1.200000000000 34.238390581865 6.166660774977 20.039275585709
1988 2 -1.200000000000 34.574061077766 3.699996464986 18.925982497614
1989 2 -1.200000000000 35.245402069567 7.811103648304 16.699396321424
1990 2 -1.200000000000 35.581072565468 5.344439338313 15.586103233329
1991 2 -1.200000000000 36.588084053170 6.988882211640 18.925982497614
1992 2 -1.200000000000 36.923754549070 4.522217901650 17.812689409519
1993 1 2.400000000000 31.553026614660 3.288885746654 15.586103233329
1994 1 2.400000000000 33.231379094163 -0.000000000000 16.699396321424
1995 1 2.400000000000 34.238390581865 1.644442873327 13.359517057139
1996 1 2.400000000000 35.245402069567 3.288885746654 16.699396321424
1997 2 -1.200000000000 33.567049590064 2.055553591659 15.586103233329
1998 2 -1.200000000000 33.902720085965 35.766632494865 14.472810145234
1999 2 -1.200000000000 34.909731573667 1.233332154995 17.812689409519
2000 2 -1.200000000000 35.245402069567 34.944411058201 16.699396321424
2001 2 -1.200000000000 35.916743061369 2.877775028322 14.472810145234
2002 2 -1.200000000000 36.252413557269 0.411110718332 13.359517057139
2003 2 -1.200000000000 37.259425044971 2.055553591659 16.699396321424
2004 2 -1.200000000000 37.595095540872 35.766632494865 15.586103233329
2005 1 2.400000000000 32.895708598263 11.511100113290 24.492447938089
2006 1 2.400000000000 34.574061077766 8.222214366636 25.605741026184
2007 1 2.400000000000 35.581072565468 9.866657239963 22.265861761899
2008 1 2.400000000000 36.588084053170 11.511100113290 25.605741026184
2009 2 -1.200000000000 34.909731573667 10.277767958295 24.492447938089
2010 2 -1.200000000000 35.245402069567 7.811103648304 23.379154849994
2011 2 -1.200000000000 36.252413557269 9.455546521631 0.000000000000
2012 2 -1.200000000000 36.588084053170 6.988882211640 25.605741026184
2013 2 -1.200000000000 37.259425044971 11.099989394958 23.379154849994
2014 2 -1.200000000000 37.595095540872 8.633325084967 22.265861761899
2015 2 -1.200000000000 38.602107028574 10.277767958295 25.605741026184
2016 2 -1.200000000000 38.937777524474 7.811103648304 24.492447938089
2017 1 2.400000000000 33.567049590064 6.577771493308 22.265861761899
2018 1 2.400000000000 35.245402069567 3.288885746654 23.379154849994
2019 1 2.400000000000 36.252413557269 4.933328619981 20.039275585709
2020 1 2.400000000000 37.259425044971 6.577771493308 23.379154849994
2021 2 -1.200000000000 35.581072565468 5.344439338313 22.265861761899
2022 2 -1.200000000000 35.916743061369 2.877775028322 21.152568673804
2023 2 -1.200000000000 36.923754549070 4.522217901650 24.492447938089
2024 2 -1.200000000000 37.259425044971 2.055553591659 23.379154849994
2025 2 -1.200000000000 37.930766036772 6.166660774977 21.152568673804
2026 2 -1.200000000000 38.266436532673 3.699996464986 20.039275585709
2027 2 -1.200000000000 39.273448020375 5.344439338313 23.379154849994
2028 2 -1.200000000000 39.609118516276 2.877775028322 22.265861761899
2029 1 2.400000000000 34.238390581865 1.644442873327 20.039275585709
2030 1 2.400000000000 35.916743061369 34.533300339870 21.152568673804
2031 1 2.400000000000 36.923754549070 -0.000000000000 17.812689409519
2032 1 2.400000000000 37.930766036772 1.644442873327 21.152568673804
2033 2 -1.200000000000 36.252413557269 0.411110718332 20.039275585709
2034 2 -1.200000000000 36.588084053170 34.122189621538 18.925982497614
2035 2 -1.200000000000 37.595095540872 35.766632494865 22.265861761899
2036 2 -1.200000000000 37.930766036772 33.299968184874 21.152568673804
2037 2 -1.200000000000 38.602107028574 1.233332154995 18.925982497614
2038 2 -1.200000000000 38.937777524474 34.944411058201 17.812689409519
2039 2 -1.200000000000 39.944789012176 0.411110718332 21.152568673804
2040 2 -1.200000000000 40.280459508077 34.122189621538 20.039275585709
2041 1 2.400000000000 36.923754549070 -0.000000000000 24.492447938089
2042 1 2.400000000000 38.602107028574 32.888857466542 25.605741026184
2043 1 2.400000000000 39.609118516276 34.533300339870 22.265861761899
2044 1 2.400000000000 40.616130003977 -0.000000000000 25.605741026184
2045 2 -1.200000000000 38.937777524474 34.944411058201 24.492447938089
2046 2 -1.200000000000 39.273448020375 32.477746748211 23.379154849994
2047 2 -1.200000000000 40.280459508077 34.122189621538 0.000000000000
2048 2 -1.200000000000 40.616130003977 31.655525311547 25.605741026184
2049 2 -1.200000000000 41.287470995779 35.766632494865 23.379154849994
2050 2 -1.200000000000 41.623141491679 33.299968184874 22.265861761899
2051 2 -1.200000000000 42.630152979381 34.944411058201 25.605741026184
2052 2 -1.200000000000 42.965823475282 32.477746748211 24.492447938089
2053 1 2.400000000000 20.140229754038 32.888857466542 0.000000000000
2054 1 2.400000000000 21.818582233542 29.599971719888 1.113293088095
2055 1 2.400000000000 22.825593721244 31.244414593215 24.492447938089
2056 1 2.400000000000 23.832605208945 32.888857466542 1.113293088095
2057 2 -1.200000000000 22.154252729442 31.655525311547 0.000000000000
2058 2 -1.200000000000 22.489923225343 29.188861001556 25.605741026184
2059 2 -1.200000000000 23.496934713045 30.833303874884 2.226586176190
2060 2 -1.200000000000 23.832605208945 28.366639564893 1.113293088095
2061 2 -1.200000000000 24.503946200747 32.477746748211 25.605741026184
2062 2 -1.200000000000 24.839616696647 30.011082438220 24.492447938089
2063 2 -1.200000000000 25.846628184349 31.655525311547 1.113293088095
2064 2 -1.200000000000 26.182298680250 29.188861001556 0.000000000000
2065 1 2.400000000000 22.825593721244 31.244414593215 4.453172352380
2066 1 2.400000000000 24.503946200747 27.955528846561 5.566465440475
2067 1 2.400000000000 25.510957688449 29.599971719888 2.226586176190
2068 1 2.400000000000 26.517969176151 31.244414593215 5.566465440475
2069 2 -1.200000000000 24.839616696647 30.011082438220 4.453172352380
2070 2 -1.200000000000 25.175287192548 27.544418128229 3.339879264285
2071 2 -1.200000000000 26.182298680250 29.188861001556 6.679758528570
2072 2 -1.200000000000 26.517969176151 26.722196691566 5.566465440475
2073 2 -1.200000000000 27.189310167952 30.833303874884 3.339879264285
2074 2 -1.200000000000 27.524980663853 28.366639564893 2.226586176190
2075 2 -1.200000000000 28.531992151554 30.011082438220 5.566465440475
2076 2 -1.200000000000 28.867662647455 27.544418128229 4.453172352380
2077 1 2.400000000000 23.496934713045 26.311085973234 2.226586176190
2078 1 2.400000000000 25.175287192548 23.022200226580 3.339879264285
2079 1 2.400000000000 26.182298680250 24.666643099907 0.000000000000
2080 1 2.400000000000 27.189310167952 26.311085973234 3.339879264285
2081 2 -1.200000000000 25.510957688449 25.077753818239 2.226586176190
2082 2 -1.200000000000 25.846628184349 22.611089508248 1.113293088095
2083 2 -1.200000000000 26.853639672051 24.255532381575 4.453172352380
2084 2 -1.200000000000 27.189310167952 21.788868071584 3.339879264285
2085 2 -1.200000000000 27.860651159753 25.899975254902 1.113293088095
2086 2 -1.200000000000 28.196321655654 23.433310944912 0.000000000000
2087 2 -1.200000000000 29.203333143356 25.077753818239 3.339879264285
2088 2 -1.200000000000 29.539003639256 22.611089508248 2.226586176190
2089 1 2.400000000000 24.168275704846 21.377757353253 0.000000000000
2090 1 2.400000000000 25.846628184349 18.088871606598 1.113293088095
2091 1 2.400000000000 26.853639672051 19.733314479925 24.492447938089
2092 1 2.400000000000 27.860651159753 21.377757353253 1.113293088095
2093 2 -1.200000000000 26.182298680250 20.144425198257 0.000000000000
2094 2 -1.200000000000 26.517969176151 17.677760888267 25.605741026184
2095 2 -1.200000000000 27.524980663853 19.322203761594 2.226586176190
2096 2 -1.200000000000 27.860651159753 16.855539451603 1.113293088095
2097 2 -1.200000000000 28.531992151554 20.966646634921 25.605741026184
2098 2 -1.200000000000 28.867662647455 18.499982324930 24.492447938089
2099 2 -1.200000000000 29.874674135157 20.144425198257 1.113293088095
2100 2 -1.200000000000 30.210344631058 17.677760888267 0.000000000000
2101 1 2.400000000000 24.839616696647 34.533300339870 11.132930880950
2102 1 2.400000000000 26.517969176151 31.244414593215 12.246223969044
2103 1 2.400000000000 27.524980663853 32.888857466542 8.906344704760
2104 1 2.400000000000 28.531992151554 34.533300339870 12.246223969044
2105 2 -1.200000000000 26.853639672051 33.299968184874 11.132930880950
2106 2 -1.200000000000 27.189310167952 30.833303874884 10.019637792855
2107 2 -1.200000000000 28.196321655654 32.477746748211 13.359517057139
2108 2 -1.200000000000 28.531992151554 30.011082438220 12.246223969045
2109 2 -1.200000000000 29.203333143356 34.122189621538 10.019637792855
2110 2 -1.200000000000 29.539003639256 31.655525311547 8.906344704760
2111 2 -1.200000000000 30.546015126958 33.299968184874 12.246223969045
2112 2 -1.200000000000 30.881685622859 30.833303874884 11.132930880950
2113 1 2.400000000000 25.510957688449 29.599971719888 8.906344704760
2114 1 2.400000000000 27.189310167952 26.311085973234 10.019637792855
2115 1 2.400000000000 28.196321655654 27.955528846561 6.679758528570
2116 1 2.400000000000 29.203333143356 29.599971719888 10.019637792855
2117 2 -1.200000000000 27.524980663853 28.366639564893 8.906344704760
2118 2 -1.200000000000 27.860651159753 25.899975254902 7.793051616665
2119 2 -1.200000000000 28.867662647455 27.544418128229 11.132930880950
2120 2 -1.200000000000 29.203333143356 25.077753818239 10.019637792855
2121 2 -1.200000000000 29.874674135157 29.188861001556 7.793051616665
2122 2 -1.200000000000 30.210344631058 26.722196691566 6.679758528570
2123 2 -1.200000000000 31.217356118760 28.366639564893 10.019637792855
2124 2 -1.200000000000 31.553026614660 25.899975254902 8.906344704760
2125 1 2.400000000000 26.182298680250 24.666643099907 6.679758528570
2126 1 2.400000000000 27.860651159753 21.377757353253 7.793051616665
2127 1 2.400000000000 28.867662647455 23.022200226580 4.453172352380
2128 1 2.400000000000 29.874674135157 24.666643099907 7.793051616665
2129 2 -1.200000000000 28.196321655654 23.433310944912 6.679758528570
2130 2 -1.200000000000 28.531992151554 20.966646634921 5.566465440475
2131 2 -1.200000000000 29.539003639256 22.611089508248 8.906344704760
2132 2 -1.200000000000 29.874674135157 20.144425198257 7.793051616665
2133 2 -1.200000000000 30.546015126958 24.255532381575 5.566465440475
2134 2 -1.200000000000 30.881685622859 21.788868071584 4.453172352380
2135 2 -1.200000000000 31.888697110561 23.433310944912 7.793051616665
2136 2 -1.200000000000 32.224367606461 20.966646634921 6.679758528570
2137 1 2.400000000000 26.853639672051 19.733314479925 4.453172352380
2138 1 2.400000000000 28.531992151554 16.444428733271 5.566465440475
2139 1 2.400000000000 29.539003639256 18.088871606598 2.226586176190
2140 1 2.400000000000 30.546015126958 19.733314479925 5.566465440475
2141 2 -1.200000000000 28.867662647455 18.499982324930 4.453172352380
2142 2 -1.200000000000 29.203333143356 16.033318014939 3.339879264285
2143 2 -1.200000000000 30.210344631058 17.677760888267 6.679758528570
2144 2 -1.200000000000 30.546015126958 15.211096578276 5.566465440475
2145 2 -1.200000000000 31.217356118760 19.322203761594 3.339879264285
2146 2 -1.200000000000 31.553026614660 16.855539451603 2.226586176190
2147 2 -1.200000000000 32.560038102362 18.499982324930 5.566465440475
2148 2 -1.200000000000 32.895708598263 16.033318014939 4.453172352380
2149 1 2.400000000000 27.524980663853 14.799985859944 2.226586176190
2150 1 2.400000000000 29.203333143356 11.511100113290 3.339879264285
2151 1 2.400000000000 30.210344631058 13.155542986617 0.000000000000
2152 1 2.400000000000 31.217356118760 14.799985859944 3.339879264285
2153 2 -1.200000000000 29.539003639256 13.566653704949 2.226586176190
2154 2 -1.200000000000 29.874674135157 11.099989394958 1.113293088095
2155 2 -1.200000000000 30.881685622859 12.744432268285 4.453172352380
2156 2 -1.200000000000 31.217356118760 10.277767958295 3.339879264285
2157 2 -1.200000000000 31.888697110561 14.388875141612 1.113293088095
2158 2 -1.200000000000 32.224367606461 11.922210831622 0.000000000000
2159 2 -1.200000000000 33.231379094163 13.566653704949 3.339879264285
2160 2 -1.200000000000 33.567049590064 11.099989394958 2.226586176190
2161 1 2.400000000000 28.196321655654 9.866657239963 0.000000000000
2162 1 2.400000000000 29.874674135157 6.577771493308 1.113293088095
2163 1 2.400000000000 30.881685622859 8.222214366636 24.492447938089
2164 1 2.400000000000 31.888697110561 9.866657239963 1.113293088095
2165 2 -1.200000000000 30.210344631058 8.633325084967 0.000000000000
2166 2 -1.200000000000 30.546015126958 6.166660774977 25.605741026184
2167 2 -1.200000000000 31.553026614660 7.811103648304 2.226586176190
2168 2 -1.200000000000 31.888697110561 5.344439338313 1.113293088095
2169 2 -1.200000000000 32.560038102362 9.455546521631 25.605741026184
2170 2 -1.200000000000 32.895708598263 6.988882211640 24.492447938089
2171 2 -1.200000000000 33.902720085965 8.633325084967 1.113293088095
2172 2 -1.200000000000 34.238390581865 6.166660774977 0.000000000000
2173 1 2.400000000000 27.524980663853 32.888857466542 15.586103233329
2174 1 2.400000000000 29.203333143356 29.599971719888 16.699396321424
2175 1 2.400000000000 30.210344631058 31.244414593215 13.359517057139
2176 1 2.400000000000 31.217356118760 32.888857466542 16.699396321424
2177 2 -1.200000000000 29.539003639256 31.655525311547 15.586103233329
2178 2 -1.200000000000 29.874674135157 29.188861001556 14.472810145234
2179 2 -1.200000000000 30.881685622859 30.833303874884 17.812689409519
2180 2 -1.200000000000 31.217356118760 28.366639564893 16.699396321424
2181 2 -1.200000000000 31.888697110561 32.477746748211 14.472810145234
2182 2 -1.200000000000 32.224367606461 30.011082438220 13.359517057139
2183 2 -1.200000000000 33.231379094163 31.655525311547 16.699396321424
2184 2 -1.200000000000 33.567049590064 29.188861001556 15.586103233329
2185 1 2.400000000000 28.196321655654 27.955528846561 13.359517057139
2186 1 2.400000000000 29.874674135157 24.666643099907 14.472810145234
2187 1 2.400000000000 30.881685622859 26.311085973234 11.132930880950
2188 1 2.400000000000 31.888697110561 27.955528846561 14.472810145234
2189 2 -1.200000000000 30.210344631058 26.722196691566 13.359517057139
2190 2 -1.200000000000 30.546015126958 24.255532381575 12.246223969044
2191 2 -1.200000000000 31.553026614660 25.899975254902 15.586103233329
2192 2 -1.200000000000 31.888697110561 23.433310944912 14.472810145234
2193 2 -1.200000000000 32.560038102362 27.544418128229 12.246223969045
2194 2 -1.200000000000 32.895708598263 25.077753818239 11.132930880950
2195 2 -1.200000000000 33.902720085965 26.722196691566 14.472810145234
2196 2 -1.200000000000 34.238390581865 24.255532381575 13.359517057139
2197 1 2.400000000000 28.867662647455 23.022200226580 11.132930880950
2198 1 2.400000000000 30.546015126958 19.733314479925 12.246223969044
2199 1 2.400000000000 31.553026614660 21.377757353253 8.906344704760
2200 1 2.400000000000 32.560038102362 23.022200226580 12.246223969045
2201 2 -1.200000000000 30.881685622859 21.788868071584 11.132930880950
2202 2 -1.200000000000 31.217356118760 19.322203761594 10.019637792855
2203 2 -1.200000000000 32.224367606461 20.966646634921 13.359517057139
2204 2 -1.200000000000 32.560038102362 18.499982324930 12.246223969044
2205 2 -1.200000000000 33.231379094163 22.611089508248 10.019637792855
2206 2 -1.200000000000 33.567049590064 20.144425198257 8.906344704760
2207 2 -1.200000000000 34.574061077766 21.788868071584 12.246223969045
2208 2 -1.200000000000 34.909731573667 19.322203761594 11.132930880950
2209 1 2.400000000000 29.539003639256 18.088871606598 8.906344704760
2210 1 2.400000000000 31.217356118760 14.799985859944 10.019637792855
2211 1 2.400000000000 32.224367606461 16.444428733271 6.679758528570
2212 1 2.400000000000 33.231379094163 18.088871606598 10.019637792855
2213 2 -1.200000000000 31.553026614660 16.855539451603 8.906344704760
2214 2 -1.200000000000 31.888697110561 14.388875141612 7.793051616665
2215 2 -1.200000000000 32.895708598263 16.033318014939 11.132930880950
2216 2 -1.200000000000 33.231379094163 13.566653704949 10.019637792855
2217 2 -1.200000000000 33.902720085965 17.677760888267 7.793051616665
2218 2 -1.200000000000 34.238390581865 15.211096578276 6.679758528570
2219 2 -1.200000000000 35.245402069567 16.855539451603 10.019637792855
2220 2 -1.200000000000 35.581072565468 14.388875141612 8.906344704760
2221 1 2.400000000000 30.210344631058 13.155542986617 6.679758528570
2222 1 2.400000000000 31.888697110561 9.866657239963 7.793051616665
2223 1 2.400000000000 32.895708598263 11.511100113290 4.453172352380
2224 1 2.400000000000 33.902720085965 13.155542986617 7.793051616665
2225 2 -1.200000000000 32.224367606461 11.922210831622 6.679758528570
2226 2 -1.200000000000 32.560038102362 9.455546521631 5.566465440475
2227 2 -1.200000000000 33.567049590064 11.099989394958 8.906344704760
2228 2 -1.200000000000 33.902720085965 8.633325084967 7.793051616665
2229 2 -1.200000000000 34.574061077766 12.744432268285 5.566465440475
2230 2 -1.200000000000 34.909731573667 10.277767958295 4.453172352380
2231 2 -1.200000000000 35.916743061369 11.922210831622 7.793051616665
2232 2 -1.200000000000 36.252413557269 9.455546521631 6.679758528570
2233 1 2.400000000000 30.881685622859 8.222214366636 4.453172352380
2234 1 2.400000000000 32.560038102362 4.933328619981 5.566465440475
2235 1 2.400000000000 33.567049590064 6.577771493308 2.226586176190
2236 1 2.400000000000 34.574061077766 8.222214366636 5.566465440475
2237 2 -1.200000000000 32.895708598263 6.988882211640 4.453172352380
2238 2 -1.200000000000 33.231379094163 4.522217901650 3.339879264285
2239 2 -1.200000000000 34.238390581865 6.166660774977 6.679758528570
2240 2 -1.200000000000 34.574061077766 3.699996464986 5.566465440475
2241 2 -1.200000000000 35.245402069567 7.811103648304 3.339879264285
2242 2 -1.200000000000 35.581072565468 5.344439338313 2.226586176190
2243 2 -1.200000000000 36.588084053170 6.988882211640 5.566465440475
2244 2 -1.200000000000 36.923754549070 4.522217901650 4.453172352380
2245 1 2.400000000000 31.553026614660 3.288885746654 2.226586176190
2246 1 2.400000000000 33.231379094163 -0.000000000000 3.339879264285
2247 1 2.400000000000 34.238390581865 1.644442873327 0.000000000000
2248 1 2.400000000000 35.245402069567 3.288885746654 3.339879264285
2249 2 -1.200000000000 33.567049590064 2.055553591659 2.226586176190
2250 2 -1.200000000000 33.902720085965 35.766632494865 1.113293088095
2251 2 -1.200000000000 34.909731573667 1.233332154995 4.453172352380
2252 2 -1.200000000000 35.245402069567 34.944411058201 3.339879264285
2253 2 -1.200000000000 35.916743061369 2.877775028322 1.113293088095
2254 2 -1.200000000000 36.252413557269 0.411110718332 0.000000000000
2255 2 -1.200000000000 37.259425044971 2.055553591659 3.339879264285
2256 2 -1.200000000000 37.595095540872 35.766632494865 2.226586176190
2257 1 2.400000000000 30.210344631058 31.244414593215 20.039275585709
2258 1 2.400000000000 31.888697110561 27.955528846561 21.152568673804
2259 1 2.400000000000 32.895708598263 29.599971719888 17.812689409519
2260 1 2.400000000000 33.902720085965 31.244414593215 21.152568673804
2261 2 -1.200000000000 32.224367606461 30.011082438220 20.039275585709
2262 2 -1.200000000000 32.560038102362 27.544418128229 18.925982497614
2263 2 -1.200000000000 33.567049590064 29.188861001556 22.265861761899
2264 2 -1.200000000000 33.902720085965 26.722196691566 21.152568673804
2265 2 -1.200000000000 34.574061077766 30.833303874884 18.925982497614
2266 2 -1.200000000000 34.909731573667 28.366639564893 17.812689409519
2267 2 -1.200000000000 35.916743061369 30.011082438220 21.152568673804
2268 2 -1.200000000000 36.252413557269 27.544418128229 20.039275585709
2269 1 2.400000000000 30.881685622859 26.311085973234 17.812689409519
2270 1 2.400000000000 32.560038102362 23.022200226580 18.925982497614
2271 1 2.400000000000 33.567049590064 24.666643099907 15.586103233329
2272 1 2.400000000000 34.574061077766 26.311085973234 18.925982497614
2273 2 -1.200000000000 32.895708598263 25.077753818239 17.812689409519
2274 2 -1.200000000000 33.231379094163 22.611089508248 16.699396321424
2275 2 -1.200000000000 34.238390581865 24.255532381575 20.039275585709
2276 2 -1.200000000000 34.574061077766 21.788868071584 18.925982497614
2277 2 -1.200000000000 35.245402069567 25.899975254902 16.699396321424
2278 2 -1.200000000000 35.581072565468 23.433310944912 15.586103233329
2279 2 -1.200000000000 36.588084053170 25.077753818239 18.925982497614
2280 2 -1.200000000000 36.923754549070 22.611089508248 17.812689409519
2281 1 2.400000000000 31.553026614660 21.377757353253 15.586103233329
2282 1 2.400000000000 33.231379094163 18.088871606598 16.699396321424
2283 1 2.400000000000 34.238390581865 19.733314479925 13.359517057139
2284 1 2.400000000000 35.245402069567 21.377757353253 16.699396321424
2285 2 -1.200000000000 33.567049590064 20.144425198257 15.586103233329
2286 2 -1.200000000000 33.902720085965 17.677760888267 14.472810145234
2287 2 -1.200000000000 34.909731573667 19.322203761594 17.812689409519
2288 2 -1.200000000000 35.245402069567 16.855539451603 16.699396321424
2289 2 -1.200000000000 35.916743061369 20.966646634921 14.472810145234
2290 2 -1.200000000000 36.252413557269 18.499982324930 13.359517057139
2291 2 -1.200000000000 37.259425044971 20.144425198257 16.699396321424
2292 2 -1.200000000000 37.595095540872 17.677760888267 15.586103233329
2293 1 2.400000000000 32.224367606461 16.444428733271 13.359517057139
2294 1 2.400000000000 33.902720085965 13.155542986617 14.472810145234
2295 1 2.400000000000 34.909731573667 14.799985859944 11.132930880950
2296 1 2.400000000000 35.916743061369 16.444428733271 14.472810145234
2297 2 -1.200000000000 34.238390581865 15.211096578276 13.359517057139
2298 2 -1.200000000000 34.574061077766 12.744432268285 12.246223969044
2299 2 -1.200000000000 35.581072565468 14.388875141612 15.586103233329
2300 2 -1.200000000000 35.916743061369 11.922210831622 14.472810145234
2301 2 -1.200000000000 36.588084053170 16.033318014939 12.246223969044
2302 2 -1.200000000000 36.923754549070 13.566653704949 11.132930880950
2303 2 -1.200000000000 37.930766036772 15.211096578276 14.472810145234
2304 2 -1.200000000000 38.266436532673 12.744432268285 13.359517057139
2305 1 2.400000000000 32.895708598263 11.511100113290 11.132930880950
2306 1 2.400000000000 34.574061077766 8.222214366636 12.246223969045
2307 1 2.400000000000 35.581072565468 9.866657239963 8.906344704760
2308 1 2.400000000000 36.588084053170 11.511100113290 12.246223969045
2309 2 -1.200000000000 34.909731573667 10.277767958295 11.132930880950
2310 2 -1.200000000000 35.245402069567 7.811103648304 10.019637792855
2311 2 -1.200000000000 36.252413557269 9.455546521631 13.359517057139
2312 2 -1.200000000000 36.588084053170 6.988882211640 12.246223969044
2313 2 -1.200000000000 37.259425044971 11.099989394958 10.019637792855
2314 2 -1.200000000000 37.595095540872 8.633325084967 8.906344704760
2315 2 -1.200000000000 38.602107028574 10.277767958295 12.246223969044
2316 2 -1.200000000000 38.937777524474 7.811103648304 11.132930880950
2317 1 2.400000000000 33.567049590064 6.577771493308 8.906344704760
2318 1 2.400000000000 35.245402069567 3.288885746654 10.019637792855
2319 1 2.400000000000 36.252413557269 4.933328619981 6.679758528570
2320 1 2.400000000000 37.259425044971 6.577771493308 10.019637792855
2321 2 -1.200000000000 35.581072565468 5.344439338313 8.906344704760
2322 2 -1.200000000000 35.916743061369 2.877775028322 7.793051616665
2323 2 -1.200000000000 36.923754549070 4.522217901650 11.132930880950
2324 2 -1.200000000000 37.259425044971 2.055553591659 10.019637792855
2325 2 -1.200000000000 37.930766036772 6.166660774977 7.793051616665
2326 2 -1.200000000000 38.266436532673 3.699996464986 6.679758528570
2327 2 -1.200000000000 39.273448020375 5.344439338313 10.019637792855
2328 2 -1.200000000000 39.609118516276 2.877775028322 8.906344704760
2329 1 2.400000000000 34.238390581865 1.644442873327 6.679758528570
2330 1 2.400000000000 35.916743061369 34.533300339870 7.793051616665
2331 1 2.400000000000 36.923754549070 -0.000000000000 4.453172352380
2332 1 2.400000000000 37.930766036772 1.644442873327 7.793051616665
2333 2 -1.200000000000 36.252413557269 0.411110718332 6.679758528570
2334 2 -1.200000000000 36.588084053170 34.122189621538 5.566465440475
2335 2 -1.200000000000 37.595095540872 35.766632494865 8.906344704760
2336 2 -1.200000000000 37.930766036772 33.299968184874 7.793051616665
2337 2 -1.200000000000 38.602107028574 1.233332154995 5.566465440475
2338 2 -1.200000000000 38.937777524474 34.944411058201 4.453172352380
2339 2 -1.200000000000 39.944789012176 0.411110718332 7.793051616665
2340 2 -1.200000000000 40.280459508077 34.122189621538 6.679758528570
2341 1 2.400000000000 32.895708598263 29.599971719888 24.492447938089
2342 1 2.400000000000 34.574061077766 26.311085973234 25.605741026184
2343 1 2.400000000000 35.581072565468 27.955528846561 22.265861761899
2344 1 2.400000000000 36.588084053170 29.599971719888 25.605741026184
2345 2 -1.200000000000 34.909731573667 28.366639564893 24.492447938089
2346 2 -1.200000000000 35.245402069567 25.899975254902 23.379154849994
2347 2 -1.200000000000 36.252413557269 27.544418128229 0.000000000000
2348 2 -1.200000000000 36.588084053170 25.077753818239 25.605741026184
2349 2 -1.200000000000 37.259425044971 29.188861001556 23.379154849994
2350 2 -1.200000000000 37.595095540872 26.722196691566 22.265861761899
2351 2 -1.200000000000 38.602107028574 28.366639564893 25.605741026184
2352 2 -1.200000000000 38.937777524474 25.899975254902 24.492447938089
2353 1 2.400000000000 33.567049590064 24.666643099907 22.265861761899
2354 1 2.400000000000 35.245402069567 21.377757353253 23.379154849994
2355 1 2.400000000000 36.252413557269 23.022200226580 20.039275585709
2356 1 2.400000000000 37.259425044971 24.666643099907 23.379154849994
2357 2 -1.200000000000 35.581072565468 23.433310944912 22.265861761899
2358 2 -1.200000000000 35.916743061369 20.966646634921 21.152568673804
2359 2 -1.200000000000 36.923754549070 22.611089508248 24.492447938089
2360 2 -1.200000000000 37.259425044971 20.144425198257 23.379154849994
2361 2 -1.200000000000 37.930766036772 24.255532381575 21.152568673804
2362 2 -1.200000000000 38.266436532673 21.788868071584 20.039275585709
2363 2 -1.200000000000 39.273448020375 23.433310944912 23.379154849994
2364 2 -1.200000000000 39.609118516276 20.966646634921 22.265861761899
2365 1 2.400000000000 34.238390581865 19.733314479925 20.039275585709
2366 1 2.400000000000 35.916743061369 16.444428733271 21.152568673804
2367 1 2.400000000000 36.923754549070 18.088871606598 17.812689409519
2368 1 2.400000000000 37.930766036772 19.733314479925 21.152568673804
2369 2 -1.200000000000 36.252413557269 18.499982324930 20.039275585709
2370 2 -1.200000000000 36.588084053170 16.033318014939 18.925982497614
2371 2 -1.200000000000 37.595095540872 17.677760888267 22.265861761899
2372 2 -1.200000000000 37.930766036772 15.211096578276 21.152568673804
2373 2 -1.200000000000 38.602107028574 19.322203761594 18.925982497614
2374 2 -1.200000000000 38.937777524474 16.855539451603 17.812689409519
2375 2 -1.200000000000 39.944789012176 18.499982324930 21.152568673804
2376 2 -1.200000000000 40.280459508077 16.033318014939 20.039275585709
2377 1 2.400000000000 34.909731573667 14.799985859944 17.812689409519
2378 1 2.400000000000 36.588084053170 11.511100113290 18.925982497614
2379 1 2.400000000000 37.595095540872 13.155542986617 15.586103233329
2380 1 2.400000000000 38.602107028574 14.799985859944 18.925982497614
2381 2 -1.200000000000 36.923754549070 13.566653704949 17.812689409519
2382 2 -1.200000000000 37.259425044971 11.099989394958 16.699396321424
2383 2 -1.200000000000 38.266436532673 12.744432268285 20.039275585709
2384 2 -1.200000000000 38.602107028574 10.277767958295 18.925982497614
2385 2 -1.200000000000 39.273448020375 14.388875141612 16.699396321424
2386 2 -1.200000000000 39.609118516276 11.922210831622 15.586103233329
2387 2 -1.200000000000 40.616130003977 13.566653704949 18.925982497614
2388 2 -1.200000000000 40.951800499878 11.099989394958 17.812689409519
2389 1 2.400000000000 35.581072565468 9.866657239963 15.586103233329
2390 1 2.400000000000 37.259425044971 6.577771493308 16.699396321424
2391 1 2.400000000000 38.266436532673 8.222214366636 13.359517057139
2392 1 2.400000000000 39.273448020375 9.866657239963 16.699396321424
2393 2 -1.200000000000 37.595095540872 8.633325084967 15.586103233329
2394 2 -1.200000000000 37.930766036772 6.166660774977 14.472810145234
2395 2 -1.200000000000 38.937777524474 7.811103648304 17.812689409519
2396 2 -1.200000000000 39.273448020375 5.344439338313 16.699396321424
2397 2 -1.200000000000 39.944789012176 9.455546521631 14.472810145234
2398 2 -1.200000000000 40.280459508077 6.988882211640 13.359517057139
2399 2 -1.200000000000 41.287470995779 8.633325084967 16.699396321424
2400 2 -1.200000000000 41.623141491679 6.166660774977 15.586103233329
2401 1 2.400000000000 36.252413557269 4.933328619981 13.359517057139
2402 1 2.400000000000 37.930766036772 1.644442873327 14.472810145234
2403 1 2.400000000000 38.937777524474 3.288885746654 11.132930880950
2404 1 2.400000000000 39.944789012176 4.933328619981 14.472810145234
2405 2 -1.200000000000 38.266436532673 3.699996464986 13.359517057139
2406 2 -1.200000000000 38.602107028574 1.233332154995 12.246223969045
2407 2 -1.200000000000 39.609118516276 2.877775028322 15.586103233329
2408 2 -1.200000000000 39.944789012176 0.411110718332 14.472810145234
2409 2 -1.200000000000 40.616130003977 4.522217901650 12.246223969045
2410 2 -1.200000000000 40.951800499878 2.055553591659 11.132930880950
2411 2 -1.200000000000 41.958811987580 3.699996464986 14.472810145234
2412 2 -1.200000000000 42.294482483481 1.233332154995 13.359517057139
2413 1 2.400000000000 36.923754549070 -0.000000000000 11.132930880950
2414 1 2.400000000000 38.602107028574 32.888857466542 12.246223969045
2415 1 2.400000000000 39.609118516276 34.533300339870 8.906344704760
2416 1 2.400000000000 40.616130003977 -0.000000000000 12.246223969045
2417 2 -1.200000000000 38.937777524474 34.944411058201 11.132930880950
2418 2 -1.200000000000 39.273448020375 32.477746748211 10.019637792855
2419 2 -1.200000000000 40.280459508077 34.122189621538 13.359517057139
2420 2 -1.200000000000 40.616130003977 31.655525311547 12.246223969045
2421 2 -1.200000000000 41.287470995779 35.766632494865 10.019637792855
2422 2 -1.200000000000 41.623141491679 33.299968184874 8.906344704760
2423 2 -1.200000000000 42.630152979381 34.944411058201 12.246223969045
2424 2 -1.200000000000 42.965823475282 32.477746748211 11.132930880950
2425 1 2.400000000000 36.923754549070 18.088871606598 24.492447938089
2426 1 2.400000000000 38.602107028574 14.799985859944 25.605741026184
2427 1 2.400000000000 39.609118516276 16.444428733271 22.265861761899
2428 1 2.400000000000 40.616130003977 18.088871606598 25.605741026184
2429 2 -1.200000000000 38.937777524474 16.855539451603 24.492447938089
2430 2 -1.200000000000 39.273448020375 14.388875141612 23.379154849994
2431 2 -1.200000000000 40.280459508077 16.033318014939 0.000000000000
2432 2 -1.200000000000 40.616130003977 13.566653704949 25.605741026184
2433 2 -1.200000000000 41.287470995779 17.677760888267 23.379154849994
2434 2 -1.200000000000 41.623141491679 15.211096578276 22.265861761899
2435 2 -1.200000000000 42.630152979381 16.855539451603 25.605741026184
2436 2 -1.200000000000 42.965823475282 14.388875141612 24.492447938089
2437 1 2.400000000000 37.595095540872 13.155542986617 22.265861761899
2438 1 2.400000000000 39.273448020375 9.866657239963 23.379154849994
2439 1 2.400000000000 40.280459508077 11.511100113290 20.039275585709
2440 1 2.400000000000 41.287470995779 13.155542986617 23.379154849994
2441 2 -1.200000000000 39.609118516276 11.922210831622 22.265861761899
2442 2 -1.200000000000 39.944789012176 9.455546521631 21.152568673804
2443 2 -1.200000000000 40.951800499878 11.099989394958 24.492447938089
2444 2 -1.200000000000 41.287470995779 8.633325084967 23.379154849994
2445 2 -1.200000000000 41.958811987580 12.744432268285 21.152568673804
2446 2 -1.200000000000 42.294482483481 10.277767958295 20.039275585709
2447 2 -1.200000000000 43.301493971183 11.922210831622 23.379154849994
2448 2 -1.200000000000 43.637164467083 9.455546521631 22.265861761899
2449 1 2.400000000000 38.266436532673 8.222214366636 20.039275585709
2450 1 2.400000000000 39.944789012176 4.933328619981 21.152568673804
2451 1 2.400000000000 40.951800499878 6.577771493308 17.812689409519
2452 1 2.400000000000 41.958811987580 8.222214366636 21.152568673804
2453 2 -1.200000000000 40.280459508077 6.988882211640 20.039275585709
2454 2 -1.200000000000 40.616130003977 4.522217901650 18.925982497614
2455 2 -1.200000000000 41.623141491679 6.166660774977 22.265861761899
2456 2 -1.200000000000 41.958811987580 3.699996464986 21.152568673804
2457 2 -1.200000000000 42.630152979381 7.811103648304 18.925982497614
2458 2 -1.200000000000 42.965823475282 5.344439338313 17.812689409519
2459 2 -1.200000000000 43.972834962984 6.988882211640 21.152568673804
2460 2 -1.200000000000 44.308505458885 4.522217901650 20.039275585709
2461 1 2.400000000000 38.937777524474 3.288885746654 17.812689409519
2462 1 2.400000000000 40.616130003977 -0.000000000000 18.925982497614
2463 1 2.400000000000 41.623141491679 1.644442873327 15.586103233329
2464 1 2.400000000000 42.630152979381 3.288885746654 18.925982497614
2465 2 -1.200000000000 40.951800499878 2.055553591659 17.812689409519
2466 2 -1.200000000000 41.287470995779 35.766632494865 16.699396321424
2467 2 -1.200000000000 42.294482483481 1.233332154995 20.039275585709
2468 2 -1.200000000000 42.630152979381 34.944411058201 18.925982497614
2469 2 -1.200000000000 43.301493971183 2.877775028322 16.699396321424
2470 2 -1.200000000000 43.637164467083 0.411110718332 15.586103233329
2471 2 -1.200000000000 44.644175954785 2.055553591659 18.925982497614
2472 2 -1.200000000000 44.979846450686 35.766632494865 17.812689409519
2473 1 2.400000000000 40.951800499878 6.577771493308 24.492447938089
2474 1 2.400000000000 42.630152979381 3.288885746654 25.605741026184
2475 1 2.400000000000 43.637164467083 4.933328619981 22.265861761899
2476 1 2.400000000000 44.644175954785 6.577771493308 25.605741026184
2477 2 -1.200000000000 42.965823475282 5.344439338313 24.492447938089
2478 2 -1.200000000000 43.301493971183 2.877775028322 23.379154849994
2479 2 -1.200000000000 44.308505458885 4.522217901650 0.000000000000
2480 2 -1.200000000000 44.644175954785 2.055553591659 25.605741026184
2481 2 -1.200000000000 45.315516946586 6.166660774977 23.379154849994
2482 2 -1.200000000000 45.651187442487 3.699996464986 22.265861761899
2483 2 -1.200000000000 46.658198930189 5.344439338313 25.605741026184
2484 2 -1.200000000000 46.993869426090 2.877775028322 24.492447938089
2485 1 2.400000000000 41.623141491679 1.644442873327 22.265861761899
2486 1 2.400000000000 43.301493971183 34.533300339870 23.379154849994
2487 1 2.400000000000 44.308505458885 -0.000000000000 20.039275585709
2488 1 2.400000000000 45.315516946586 1.644442873327 23.379154849994
2489 2 -1.200000000000 43.637164467083 0.411110718332 22.265861761899
2490 2 -1.200000000000 43.972834962984 34.122189621538 21.152568673804
2491 2 -1.200000000000 44.979846450686 35.766632494865 24.492447938089
2492 2 -1.200000000000 45.315516946586 33.299968184874 23.379154849994
2493 2 -1.200000000000 45.986857938388 1.233332154995 21.152568673804
2494 2 -1.200000000000 46.322528434288 34.944411058201 20.039275585709
2495 2 -1.200000000000 47.329539921990 0.411110718332 23.379154849994
2496 2 -1.200000000000 47.665210417891 34.122189621538 22.265861761899
2497 1 2.400000000000 27.524980663853 32.888857466542 2.226586176190
2498 1 2.400000000000 29.203333143356 29.599971719888 3.339879264285
2499 1 2.400000000000 30.210344631058 31.244414593215 0.000000000000
2500 1 2.400000000000 31.217356118760 32.888857466542 3.339879264285
2501 2 -1.200000000000 29.539003639256 31.655525311547 2.226586176190
2502 2 -1.200000000000 29.874674135157 29.188861001556 1.113293088095
2503 2 -1.200000000000 30.881685622859 30.833303874884 4.453172352380
2504 2 -1.200000000000 31.217356118760 28.366639564893 3.339879264285
2505 2 -1.200000000000 31.888697110561 32.477746748211 1.113293088095
2506 2 -1.200000000000 32.224367606461 30.011082438220 0.000000000000
2507 2 -1.200000000000 33.231379094163 31.655525311547 3.339879264285
2508 2 -1.200000000000 33.567049590064 29.188861001556 2.226586176190
2509 1 2.400000000000 28.196321655654 27.955528846561 0.000000000000
2510 1 2.400000000000 29.874674135157 24.666643099907 1.113293088095
2511 1 2.400000000000 30.881685622859 26.311085973234 24.492447938089
2512 1 2.400000000000 31.888697110561 27.955528846561 1.113293088095
2513 2 -1.200000000000 30.210344631058 26.722196691566 0.000000000000
2514 2 -1.200000000000 30.546015126958 24.255532381575 25.605741026184
2515 2 -1.200000000000 31.553026614660 25.899975254902 2.226586176190
2516 2 -1.200000000000 31.888697110561 23.433310944912 1.113293088095
2517 2 -1.200000000000 32.560038102362 27.544418128229 25.605741026184
2518 2 -1.200000000000 32.895708598263 25.077753818239 24.492447938089
2519 2 -1.200000000000 33.902720085965 26.722196691566 1.113293088095
2520 2 -1.200000000000 34.238390581865 24.255532381575 0.000000000000
2521 1 2.400000000000 30.210344631058 31.244414593215 6.679758528570
2522 1 2.400000000000 31.888697110561 27.955528846561 7.793051616665
2523 1 2.400000000000 32.895708598263 29.599971719888 4.453172352380
2524 1 2.400000000000 33.902720085965 31.244414593215 7.793051616665
2525 2 -1.200000000000 32.224367606461 30.011082438220 6.679758528570
2526 2 -1.200000000000 32.560038102362 27.544418128229 5.566465440475
2527 2 -1.200000000000 33.567049590064 29.188861001556 8.906344704760
2528 2 -1.200000000000 33.902720085965 26.722196691566 7.793051616665
2529 2 -1.200000000000 34.574061077766 30.833303874884 5.566465440475
2530 2 -1.200000000000 34.909731573667 28.366639564893 4.453172352380
2531 2 -1.200000000000 35.916743061369 30.011082438220 7.793051616665
2532 2 -1.200000000000 36.252413557269 27.544418128229 6.679758528570
2533 1 2.400000000000 30.881685622859 26.311085973234 4.453172352380
2534 1 2.400000000000 32.560038102362 23.022200226580 5.566465440475
2535 1 2.400000000000 33.567049590064 24.666643099907 2.226586176190
2536 1 2.400000000000 34.574061077766 26.311085973234 5.566465440475
2537 2 -1.200000000000 32.895708598263 25.077753818239 4.453172352380
2538 2 -1.200000000000 33.231379094163 22.611089508248 3.339879264285
2539 2 -1.200000000000 34.238390581865 24.255532381575 6.679758528570
2540 2 -1.200000000000 34.574061077766 21.788868071584 5.566465440475
2541 2 -1.200000000000 35.245402069567 25.899975254902 3.339879264285
2542 2 -1.200000000000 35.581072565468 23.433310944912 2.226586176190
2543 2 -1.200000000000 36.588084053170 25.077753818239 5.566465440475
2544 2 -1.200000000000 36.923754549070 22.611089508248 4.453172352380
2545 1 2.400000000000 31.553026614660 21.377757353253 2.226586176190
2546 1 2.400000000000 33.231379094163 18.088871606598 3.339879264285
2547 1 2.400000000000 34.238390581865 19.733314479925 0.000000000000
2548 1 2.400000000000 35.245402069567 21.377757353253 3.339879264285
2549 2 -1.200000000000 33.567049590064 20.144425198257 2.226586176190
2550 2 -1.200000000000 33.902720085965 17.677760888267 1.113293088095
2551 2 -1.200000000000 34.909731573667 19.322203761594 4.453172352380
2552 2 -1.200000000000 35.245402069567 16.855539451603 3.339879264285
2553 2 -1.200000000000 35.916743061369 20.966646634921 1.113293088095
2554 2 -1.200000000000 36.252413557269 18.499982324930 0.000000000000
2555 2 -1.200000000000 37.259425044971 20.144425198257 3.339879264285
2556 2 -1.200000000000 37.595095540872 17.677760888267 2.226586176190
2557 1 2.400000000000 32.224367606461 16.444428733271 0.000000000000
2558 1 2.400000000000 33.902720085965 13.155542986617 1.113293088095
2559 1 2.400000000000 34.909731573667 14.799985859944 24.492447938089
2560 1 2.400000000000 35.916743061369 16.444428733271 1.113293088095
2561 2 -1.200000000000 34.238390581865 15.211096578276 0.000000000000
2562 2 -1.200000000000 34.574061077766 12.744432268285 25.605741026184
2563 2 -1.200000000000 35.581072565468 14.388875141612 2.226586176190
2564 2 -1.200000000000 35.916743061369 11.922210831622 1.113293088095
2565 2 -1.200000000000 36.588084053170 16.033318014939 25.605741026184
2566 2 -1.200000000000 36.923754549070 13.566653704949 24.492447938089
2567 2 -1.200000000000 37.930766036772 15.211096578276 1.113293088095
2568 2 -1.200000000000 38.266436532673 12.744432268285 0.000000000000
2569 1 2.400000000000 32.224367606461 34.533300339870 13.359517057139
2570 1 2.400000000000 33.902720085965 31.244414593215 14.472810145234
2571 1 2.400000000000 34.909731573667 32.888857466542 11.132930880950
2572 1 2.400000000000 35.916743061369 34.533300339870 14.472810145234
2573 2 -1.200000000000 34.238390581865 33.299968184874 13.359517057139
2574 2 -1.200000000000 34.574061077766 30.833303874884 12.246223969044
2575 2 -1.200000000000 35.581072565468 32.477746748211 15.586103233329
2576 2 -1.200000000000 35.916743061369 30.011082438220 14.472810145234
2577 2 -1.200000000000 36.588084053170 34.122189621538 12.246223969045
2578 2 -1.200000000000 36.923754549070 31.655525311547 11.132930880950
2579 2 -1.200000000000 37.930766036772 33.299968184874 14.472810145234
2580 2 -1.200000000000 38.266436532673 30.833303874884 13.359517057139
2581 1 2.400000000000 32.895708598263 29.599971719888 11.132930880950
2582 1 2.400000000000 34.574061077766 26.311085973234 12.246223969045
2583 1 2.400000000000 35.581072565468 27.955528846561 8.906344704760
2584 1 2.400000000000 36.588084053170 29.599971719888 12.246223969045
2585 2 -1.200000000000 34.909731573667 28.366639564893 11.132930880950
2586 2 -1.200000000000 35.245402069567 25.899975254902 10.019637792855
2587 2 -1.200000000000 36.252413557269 27.544418128229 13.359517057139
2588 2 -1.200000000000 36.588084053170 25.077753818239 12.246223969044
2589 2 -1.200000000000 37.259425044971 29.188861001556 10.019637792855
2590 2 -1.200000000000 37.595095540872 26.722196691566 8.906344704760
2591 2 -1.200000000000 38.602107028574 28.366639564893 12.246223969045
2592 2 -1.200000000000 38.937777524474 25.899975254902 11.132930880950
2593 1 2.400000000000 33.567049590064 24.666643099907 8.906344704760
2594 1 2.400000000000 35.245402069567 21.377757353253 10.019637792855
2595 1 2.400000000000 36.252413557269 23.022200226580 6.679758528570
2596 1 2.400000000000 37.259425044971 24.666643099907 10.019637792855
2597 2 -1.200000000000 35.581072565468 23.433310944912 8.906344704760
2598 2 -1.200000000000 35.916743061369 20.966646634921 7.793051616665
2599 2 -1.200000000000 36.923754549070 22.611089508248 11.132930880950
2600 2 -1.200000000000 37.259425044971 20.144425198257 10.019637792855
2601 2 -1.200000000000 37.930766036772 24.255532381575 7.793051616665
2602 2 -1.200000000000 38.266436532673 21.788868071584 6.679758528570
2603 2 -1.200000000000 39.273448020375 23.433310944912 10.019637792855
2604 2 -1.200000000000 39.609118516276 20.966646634921 8.906344704760
2605 1 2.400000000000 34.238390581865 19.733314479925 6.679758528570
2606 1 2.400000000000 35.916743061369 16.444428733271 7.793051616665
2607 1 2.400000000000 36.923754549070 18.088871606598 4.453172352380
2608 1 2.400000000000 37.930766036772 19.733314479925 7.793051616665
2609 2 -1.200000000000 36.252413557269 18.499982324930 6.679758528570
2610 2 -1.200000000000 36.588084053170 16.033318014939 5.566465440475
2611 2 -1.200000000000 37.595095540872 17.677760888267 8.906344704760
2612 2 -1.200000000000 37.930766036772 15.211096578276 7.793051616665
2613 2 -1.200000000000 38.602107028574 19.322203761594 5.566465440475
2614 2 -1.200000000000 38.937777524474 16.855539451603 4.453172352380
2615 2 -1.200000000000 39.944789012176 18.499982324930 7.793051616665
2616 2 -1.200000000000 40.280459508077 16.033318014939 6.679758528570
2617 1 2.400000000000 34.909731573667 14.799985859944 4.453172352380
2618 1 2.400000000000 36.588084053170 11.511100113290 5.566465440475
2619 1 2.400000000000 37.595095540872 13.155542986617 2.226586176190
2620 1 2.400000000000 38.602107028574 14.799985859944 5.566465440475
2621 2 -1.200000000000 36.923754549070 13.566653704949 4.453172352380
2622 2 -1.200000000000 37.259425044971 11.099989394958 3.339879264285
2623 2 -1.200000000000 38.266436532673 12.744432268285 6.679758528570
2624 2 -1.200000000000 38.602107028574 10.277767958295 5.566465440475
2625 2 -1.200000000000 39.273448020375 14.388875141612 3.339879264285
2626 2 -1.200000000000 39.609118516276 11.922210831622 2.226586176190
2627 2 -1.200000000000 40.616130003977 13.566653704949 5.566465440475
2628 2 -1.200000000000 40.951800499878 11.099989394958 4.453172352380
2629 1 2.400000000000 35.581072565468 9.866657239963 2.226586176190
2630 1 2.400000000000 37.259425044971 6.577771493308 3.339879264285
2631 1 2.400000000000 38.266436532673 8.222214366636 0.000000000000
2632 1 2.400000000000 39.273448020375 9.866657239963 3.339879264285
2633 2 -1.200000000000 37.595095540872 8.633325084967 2.226586176190
2634 2 -1.200000000000 37.930766036772 6.166660774977 1.113293088095
2635 2 -1.200000000000 38.937777524474 7.811103648304 4.453172352380
2636 2 -1.200000000000 39.273448020375 5.344439338313 3.339879264285
2637 2 -1.200000000000 39.944789012176 9.455546521631 1.113293088095
2638 2 -1.200000000000 40.280459508077 6.988882211640 0.000000000000
2639 2 -1.200000000000 41.287470995779 8.633325084967 3.339879264285
2640 2 -1.200000000000 41.623141491679 6.166660774977 2.226586176190
2641 1 2.400000000000 36.252413557269 4.933328619981 0.000000000000
2642 1 2.400000000000 37.930766036772 1.644442873327 1.113293088095
2643 1 2.400000000000 38.937777524474 3.288885746654 24.492447938089
2644 1 2.400000000000 39.944789012176 4.933328619981 1.113293088095
2645 2 -1.200000000000 38.266436532673 3.699996464986 0.000000000000
2646 2 -1.200000000000 38.602107028574 1.233332154995 25.605741026184
2647 2 -1.200000000000 39.609118516276 2.877775028322 2.226586176190
2648 2 -1.200000000000 39.944789012176 0.411110718332 1.113293088095
2649 2 -1.200000000000 40.616130003977 4.522217901650 25.605741026184
2650 2 -1.200000000000 40.951800499878 2.055553591659 24.492447938089
2651 2 -1.200000000000 41.958811987580 3.699996464986 1.113293088095
2652 2 -1.200000000000 42.294482483481 1.233332154995 0.000000000000
2653 1 2.400000000000 34.909731573667 32.888857466542 17.812689409519
2654 1 2.400000000000 36.588084053170 29.599971719888 18.925982497614
2655 1 2.400000000000 37.595095540872 31.244414593215 15.586103233329
2656 1 2.400000000000 38.602107028574 32.888857466542 18.925982497614
2657 2 -1.200000000000 36.923754549070 31.655525311547 17.812689409519
2658 2 -1.200000000000 37.259425044971 29.188861001556 16.699396321424
2659 2 -1.200000000000 38.266436532673 30.833303874884 20.039275585709
2660 2 -1.200000000000 38.602107028574 28.366639564893 18.925982497614
2661 2 -1.200000000000 39.273448020375 32.477746748211 16.699396321424
2662 2 -1.200000000000 39.609118516276 30.011082438220 15.586103233329
2663 2 -1.200000000000 40.616130003977 31.655525311547 18.925982497614
2664 2 -1.200000000000 40.951800499878 29.188861001556 17.812689409519
2665 1 2.400000000000 35.581072565468 27.955528846561 15.586103233329
2666 1 2.400000000000 37.259425044971 24.666643099907 16.699396321424
2667 1 2.400000000000 38.266436532673 26.311085973234 13.359517057139
2668 1 2.400000000000 39.273448020375 27.955528846561 16.699396321424
2669 2 -1.200000000000 37.595095540872 26.722196691566 15.586103233329
2670 2 -1.200000000000 37.930766036772 24.255532381575 14.472810145234
2671 2 -1.200000000000 38.937777524474 25.899975254902 17.812689409519
2672 2 -1.200000000000 39.273448020375 23.433310944912 16.699396321424
2673 2 -1.200000000000 39.944789012176 27.544418128229 14.472810145234
2674 2 -1.200000000000 40.280459508077 25.077753818239 13.359517057139
2675 2 -1.200000000000 41.287470995779 26.722196691566 16.699396321424
2676 2 -1.200000000000 41.623141491679 24.255532381575 15.586103233329
2677 1 2.400000000000 36.252413557269 23.022200226580 13.359517057139
2678 1 2.400000000000 37.930766036772 19.733314479925 14.472810145234
2679 1 2.400000000000 38.937777524474 21.377757353253 11.132930880950
2680 1 2.400000000000 39.944789012176 23.022200226580 14.472810145234
2681 2 -1.200000000000 38.266436532673 21.788868071584 13.359517057139
2682 2 -1.200000000000 38.602107028574 19.322203761594 12.246223969044
2683 2 -1.200000000000 39.609118516276 20.966646634921 15.586103233329
2684 2 -1.200000000000 39.944789012176 18.499982324930 14.472810145234
2685 2 -1.200000000000 40.616130003977 22.611089508248 12.246223969045
2686 2 -1.200000000000 40.951800499878 20.144425198257 11.132930880950
2687 2 -1.200000000000 41.958811987580 21.788868071584 14.472810145234
2688 2 -1.200000000000 42.294482483481 19.322203761594 13.359517057139
2689 1 2.400000000000 36.923754549070 18.088871606598 11.132930880950
2690 1 2.400000000000 38.602107028574 14.799985859944 12.246223969045
2691 1 2.400000000000 39.609118516276 16.444428733271 8.906344704760
2692 1 2.400000000000 40.616130003977 18.088871606598 12.246223969045
2693 2 -1.200000000000 38.937777524474 16.855539451603 11.132930880950
2694 2 -1.200000000000 39.273448020375 14.388875141612 10.019637792855
2695 2 -1.200000000000 40.280459508077 16.033318014939 13.359517057139
2696 2 -1.200000000000 40.616130003977 13.566653704949 12.246223969044
2697 2 -1.200000000000 41.287470995779 17.677760888267 10.019637792855
2698 2 -1.200000000000 41.623141491679 15.211096578276 8.906344704760
2699 2 -1.200000000000 42.630152979381 16.855539451603 12.246223969045
2700 2 -1.200000000000 42.965823475282 14.388875141612 11.132930880950
2701 1 2.400000000000 37.595095540872 13.155542986617 8.906344704760
2702 1 2.400000000000 39.273448020375 9.866657239963 10.019637792855
2703 1 2.400000000000 40.280459508077 11.511100113290 6.679758528570
2704 1 2.400000000000 41.287470995779 13.155542986617 10.019637792855
2705 2 -1.200000000000 39.609118516276 11.922210831622 8.906344704760
2706 2 -1.200000000000 39.944789012176 9.455546521631 7.793051616665
2707 2 -1.200000000000 40.951800499878 11.099989394958 11.132930880950
2708 2 -1.200000000000 41.287470995779 8.633325084967 10.019637792855
2709 2 -1.200000000000 41.958811987580 12.744432268285 7.793051616665
2710 2 -1.200000000000 42.294482483481 10.277767958295 6.679758528570
2711 2 -1.200000000000 43.301493971183 11.922210831622 10.019637792855
2712 2 -1.200000000000 43.637164467083 9.455546521631 8.906344704760
2713 1 2.400000000000 38.266436532673 8.222214366636 6.679758528570
2714 1 2.400000000000 39.944789012176 4.933328619981 7.793051616665
2715 1 2.400000000000 40.951800499878 6.577771493308 4.453172352380
2716 1 2.400000000000 41.958811987580 8.222214366636 7.793051616665
2717 2 -1.200000000000 40.280459508077 6.988882211640 6.679758528570
2718 2 -1.200000000000 40.616130003977 4.522217901650 5.566465440475
2719 2 -1.200000000000 41.623141491679 6.166660774977 8.906344704760
2720 2 -1.200000000000 41.958811987580 3.699996464986 7.793051616665
2721 2 -1.200000000000 42.630152979381 7.811103648304 5.566465440475
2722 2 -1.200000000000 42.965823475282 5.344439338313 4.453172352380
2723 2 -1.200000000000 43.972834962984 6.988882211640 7.793051616665
2724 2 -1.200000000000 44.308505458885 4.522217901650 6.679758528570
2725 1 2.400000000000 38.937777524474 3.288885746654 4.453172352380
2726 1 2.400000000000 40.616130003977 -0.000000000000 5.566465440475
2727 1 2.400000000000 41.623141491679 1.644442873327 2.226586176190
2728 1 2.400000000000 42.630152979381 3.288885746654 5.566465440475
2729 2 -1.200000000000 40.951800499878 2.055553591659 4.453172352380
2730 2 -1.200000000000 41.287470995779 35.766632494865 3.339879264285
2731 2 -1.200000000000 42.294482483481 1.233332154995 6.679758528570
2732 2 -1.200000000000 42.630152979381 34.944411058201 5.566465440475
2733 2 -1.200000000000 43.301493971183 2.877775028322 3.339879264285
2734 2 -1.200000000000 43.637164467083 0.411110718332 2.226586176190
2735 2 -1.200000000000 44.644175954785 2.055553591659 5.566465440475
2736 2 -1.200000000000 44.979846450686 35.766632494865 4.453172352380
2737 1 2.400000000000 37.595095540872 31.244414593215 22.265861761899
2738 1 2.400000000000 39.273448020375 27.955528846561 23.379154849994
2739 1 2.400000000000 40.280459508077 29.599971719888 20.039275585709
2740 1 2.400000000000 41.287470995779 31.244414593215 23.379154849994
2741 2 -1.200000000000 39.609118516276 30.011082438220 22.265861761899
2742 2 -1.200000000000 39.944789012176 27.544418128229 21.152568673804
2743 2 -1.200000000000 40.951800499878 29.188861001556 24.492447938089
2744 2 -1.200000000000 41.287470995779 26.722196691566 23.379154849994
2745 2 -1.200000000000 41.958811987580 30.833303874884 21.152568673804
2746 2 -1.200000000000 42.294482483481 28.366639564893 20.039275585709
2747 2 -1.200000000000 43.301493971183 30.011082438220 23.379154849994
2748 2 -1.200000000000 43.637164467083 27.544418128229 22.265861761899
2749 1 2.400000000000 38.266436532673 26.311085973234 20.039275585709
2750 1 2.400000000000 39.944789012176 23.022200226580 21.152568673804
2751 1 2.400000000000 40.951800499878 24.666643099907 17.812689409519
2752 1 2.400000000000 41.958811987580 26.311085973234 21.152568673804
2753 2 -1.200000000000 40.280459508077 25.077753818239 20.039275585709
2754 2 -1.200000000000 40.616130003977 22.611089508248 18.925982497614
2755 2 -1.200000000000 41.623141491679 24.255532381575 22.265861761899
2756 2 -1.200000000000 41.958811987580 21.788868071584 21.152568673804
2757 2 -1.200000000000 42.630152979381 25.899975254902 18.925982497614
2758 2 -1.200000000000 42.965823475282 23.433310944912 17.812689409519
2759 2 -1.200000000000 43.972834962984 25.077753818239 21.152568673804
2760 2 -1.200000000000 44.308505458885 22.611089508248 20.039275585709
2761 1 2.400000000000 38.937777524474 21.377757353253 17.812689409519
2762 1 2.400000000000 40.616130003977 18.088871606598 18.925982497614
2763 1 2.400000000000 41.623141491679 19.733314479925 15.586103233329
2764 1 2.400000000000 42.630152979381 21.377757353253 18.925982497614
2765 2 -1.200000000000 40.951800499878 20.144425198257 17.812689409519
2766 2 -1.200000000000 41.287470995779 17.677760888267 16.699396321424
2767 2 -1.200000000000 42.294482483481 19.322203761594 20.039275585709
2768 2 -1.200000000000 42.630152979381 16.855539451603 18.925982497614
2769 2 -1.200000000000 43.301493971183 20.966646634921 16.699396321424
2770 2 -1.200000000000 43.637164467083 18.499982324930 15.586103233329
2771 2 -1.200000000000 44.644175954785 20.144425198257 18.925982497614
2772 2 -1.200000000000 44.979846450686 17.677760888267 17.812689409519
2773 1 2.400000000000 39.609118516276 16.444428733271 15.586103233329
2774 1 2.400000000000 41.287470995779 13.155542986617 16.699396321424
2775 1 2.400000000000 42.294482483481 14.799985859944 13.359517057139
2776 1 2.400000000000 43.301493971183 16.444428733271 16.699396321424
2777 2 -1.200000000000 41.623141491679 15.211096578276 15.586103233329
2778 2 -1.200000000000 41.958811987580 12.744432268285 14.472810145234
2779 2 -1.200000000000 42.965823475282 14.388875141612 17.812689409519
2780 2 -1.200000000000 43.301493971183 11.922210831622 16.699396321424
2781 2 -1.200000000000 43.972834962984 16.033318014939 14.472810145234
2782 2 -1.200000000000 44.308505458885 13.566653704949 13.359517057139
2783 2 -1.200000000000 45.315516946586 15.211096578276 16.699396321424
2784 2 -1.200000000000 45.651187442487 12.744432268285 15.586103233329
2785 1 2.400000000000 40.280459508077 11.511100113290 13.359517057139
2786 1 2.400000000000 41.958811987580 8.222214366636 14.472810145234
2787 1 2.400000000000 42.965823475282 9.866657239963 11.132930880950
2788 1 2.400000000000 43.972834962984 11.511100113290 14.472810145234
2789 2 -1.200000000000 42.294482483481 10.277767958295 13.359517057139
2790 2 -1.200000000000 42.630152979381 7.811103648304 12.246223969044
2791 2 -1.200000000000 43.637164467083 9.455546521631 15.586103233329
2792 2 -1.200000000000 43.972834962984 6.988882211640 14.472810145234
2793 2 -1.200000000000 44.644175954785 11.099989394958 12.246223969045
2794 2 -1.200000000000 44.979846450686 8.633325084967 11.132930880950
2795 2 -1.200000000000 45.986857938388 10.277767958295 14.472810145234
2796 2 -1.200000000000 46.322528434288 7.811103648304 13.359517057139
2797 1 2.400000000000 40.951800499878 6.577771493308 11.132930880950
2798 1 2.400000000000 42.630152979381 3.288885746654 12.246223969045
2799 1 2.400000000000 43.637164467083 4.933328619981 8.906344704760
2800 1 2.400000000000 44.644175954785 6.577771493308 12.246223969045
2801 2 -1.200000000000 42.965823475282 5.344439338313 11.132930880950
2802 2 -1.200000000000 43.301493971183 2.877775028322 10.019637792855
2803 2 -1.200000000000 44.308505458885 4.522217901650 13.359517057139
2804 2 -1.200000000000 44.644175954785 2.055553591659 12.246223969045
2805 2 -1.200000000000 45.315516946586 6.166660774977 10.019637792855
2806 2 -1.200000000000 45.651187442487 3.699996464986 8.906344704760
2807 2 -1.200000000000 46.658198930189 5.344439338313 12.246223969045
2808 2 -1.200000000000 46.993869426090 2.877775028322 11.132930880950
2809 1 2.400000000000 41.623141491679 1.644442873327 8.906344704760
2810 1 2.400000000000 43.301493971183 34.533300339870 10.019637792855
2811 1 2.400000000000 44.308505458885 -0.000000000000 6.679758528570
2812 1 2.400000000000 45.315516946586 1.644442873327 10.019637792855
2813 2 -1.200000000000 43.637164467083 0.411110718332 8.906344704760
2814 2 -1.200000000000 43.972834962984 34.122189621538 7.793051616665
2815 2 -1.200000000000 44.979846450686 35.766632494865 11.132930880950
2816 2 -1.200000000000 45.315516946586 33.299968184874 10.019637792855
2817 2 -1.200000000000 45.986857938388 1.233332154995 7.793051616665
2818 2 -1.200000000000 46.322528434288 34.944411058201 6.679758528570
2819 2 -1.200000000000 47.329539921990 0.411110718332 10.019637792855
2820 2 -1.200000000000 47.665210417891 34.122189621538 8.906344704760
2821 1 2.400000000000 40.951800499878 24.666643099907 24.492447938089
2822 1 2.400000000000 42.630152979381 21.377757353253 25.605741026184
2823 1 2.400000000000 43.637164467083 23.022200226580 22.265861761899
2824 1 2.400000000000 44.644175954785 24.666643099907 25.605741026184
2825 2 -1.200000000000 42.965823475282 23.433310944912 24.492447938089
2826 2 -1.200000000000 43.301493971183 20.966646634921 23.379154849994
2827 2 -1.200000000000 44.308505458885 22.611089508248 0.000000000000
2828 2 -1.200000000000 44.644175954785 20.144425198257 25.605741026184
2829 2 -1.200000000000 45.315516946586 24.255532381575 23.379154849994
2830 2 -1.200000000000 45.651187442487 21.788868071584 22.265861761899
2831 2 -1.200000000000 46.658198930189 23.433310944912 25.605741026184
2832 2 -1.200000000000 46.993869426090 20.966646634921 24.492447938089
2833 1 2.400000000000 41.623141491679 19.733314479925 22.265861761899
2834 1 2.400000000000 43.301493971183 16.444428733271 23.379154849994
2835 1 2.400000000000 44.308505458885 18.088871606598 20.039275585709
2836 1 2.400000000000 45.315516946586 19.733314479925 23.379154849994
2837 2 -1.200000000000 43.637164467083 18.499982324930 22.265861761899
2838 2 -1.200000000000 43.972834962984 16.033318014939 21.152568673804
2839 2 -1.200000000000 44.979846450686 17.677760888267 24.492447938089
2840 2 -1.200000000000 45.315516946586 15.211096578276 23.379154849994
2841 2 -1.200000000000 45.986857938388 19.322203761594 21.152568673804
2842 2 -1.200000000000 46.322528434288 16.855539451603 20.039275585709
2843 2 -1.200000000000 47.329539921990 18.499982324930 23.379154849994
2844 2 -1.200000000000 47.665210417891 16.033318014939 22.265861761899
2845 1 2.400000000000 42.294482483481 14.799985859944 20.039275585709
2846 1 2.400000000000 43.972834962984 11.511100113290 21.152568673804
2847 1 2.400000000000 44.979846450686 13.155542986617 17.812689409519
2848 1 2.400000000000 45.986857938388 14.799985859944 21.152568673804
2849 2 -1.200000000000 44.308505458885 13.566653704949 20.039275585709
2850 2 -1.200000000000 44.644175954785 11.099989394958 18.925982497614
2851 2 -1.200000000000 45.651187442487 12.744432268285 22.265861761899
2852 2 -1.200000000000 45.986857938388 10.277767958295 21.152568673804
2853 2 -1.200000000000 46.658198930189 14.388875141612 18.925982497614
2854 2 -1.200000000000 46.993869426090 11.922210831622 17.812689409519
2855 2 -1.200000000000 48.000880913792 13.566653704949 21.152568673804
2856 2 -1.200000000000 48.336551409692 11.099989394958 20.039275585709
2857 1 2.400000000000 42.965823475282 9.866657239963 17.812689409519
2858 1 2.400000000000 44.644175954785 6.577771493308 18.925982497614
2859 1 2.400000000000 45.651187442487 8.222214366636 15.586103233329
2860 1 2.400000000000 46.658198930189 9.866657239963 18.925982497614
2861 2 -1.200000000000 44.979846450686 8.633325084967 17.812689409519
2862 2 -1.200000000000 45.315516946586 6.166660774977 16.699396321424
2863 2 -1.200000000000 46.322528434288 7.811103648304 20.039275585709
2864 2 -1.200000000000 46.658198930189 5.344439338313 18.925982497614
2865 2 -1.200000000000 47.329539921990 9.455546521631 16.699396321424
2866 2 -1.200000000000 47.665210417891 6.988882211640 15.586103233329
2867 2 -1.200000000000 48.672221905593 8.633325084967 18.925982497614
2868 2 -1.200000000000 49.007892401493 6.166660774977 17.812689409519
2869 1 2.400000000000 43.637164467083 4.933328619981 15.586103233329
2870 1 2.400000000000 45.315516946586 1.644442873327 16.699396321424
2871 1 2.400000000000 46.322528434288 3.288885746654 13.359517057139
2872 1 2.400000000000 47.329539921990 4.933328619981 16.699396321424
2873 2 -1.200000000000 45.651187442487 3.699996464986 15.586103233329
2874 2 -1.200000000000 45.986857938388 1.233332154995 14.472810145234
2875 2 -1.200000000000 46.993869426090 2.877775028322 17.812689409519
2876 2 -1.200000000000 47.329539921990 0.411110718332 16.699396321424
2877 2 -1.200000000000 48.000880913792 4.522217901650 14.472810145234
2878 2 -1.200000000000 48.336551409692 2.055553591659 13.359517057139
2879 2 -1.200000000000 49.343562897394 3.699996464986 16.699396321424
2880 2 -1.200000000000 49.679233393295 1.233332154995 15.586103233329
2881 1 2.400000000000 44.308505458885 -0.000000000000 13.359517057139
2882 1 2.400000000000 45.986857938388 32.888857466542 14.472810145234
2883 1 2.400000000000 46.993869426090 34.533300339870 11.132930880950
2884 1 2.400000000000 48.000880913792 -0.000000000000 14.472810145234
2885 2 -1.200000000000 46.322528434288 34.944411058201 13.359517057139
2886 2 -1.200000000000 46.658198930189 32.477746748211 12.246223969045
2887 2 -1.200000000000 47.665210417891 34.122189621538 15.586103233329
2888 2 -1.200000000000 48.000880913792 31.655525311547 14.472810145234
2889 2 -1.200000000000 48.672221905593 35.766632494865 12.246223969045
2890 2 -1.200000000000 49.007892401493 33.299968184874 11.132930880950
2891 2 -1.200000000000 50.014903889195 34.944411058201 14.472810145234
2892 2 -1.200000000000 50.350574385096 32.477746748211 13.359517057139
2893 1 2.400000000000 44.979846450686 13.155542986617 24.492447938089
2894 1 2.400000000000 46.658198930189 9.866657239963 25.605741026184
2895 1 2.400000000000 47.665210417891 11.511100113290 22.265861761899
2896 1 2.400000000000 48.672221905593 13.155542986617 25.605741026184
2897 2 -1.200000000000 46.993869426090 11.922210831622 24.492447938089
2898 2 -1.200000000000 47.329539921990 9.455546521631 23.379154849994
2899 2 -1.200000000000 48.336551409692 11.099989394958 0.000000000000
2900 2 -1.200000000000 48.672221905593 8.633325084967 25.605741026184
2901 2 -1.200000000000 49.343562897394 12.744432268285 23.379154849994
2902 2 -1.200000000000 49.679233393295 10.277767958295 22.265861761899
2903 2 -1.200000000000 50.686244880997 11.922210831622 25.605741026184
2904 2 -1.200000000000 51.021915376897 9.455546521631 24.492447938089
2905 1 2.400000000000 45.651187442487 8.222214366636 22.265861761899
2906 1 2.400000000000 47.329539921990 4.933328619981 23.379154849994
2907 1 2.400000000000 48.336551409692 6.577771493308 20.039275585709
2908 1 2.400000000000 49.343562897394 8.222214366636 23.379154849994
2909 2 -1.200000000000 47.665210417891 6.988882211640 22.265861761899
2910 2 -1.200000000000 48.000880913792 4.522217901650 21.152568673804
2911 2 -1.200000000000 49.007892401493 6.166660774977 24.492447938089
2912 2 -1.200000000000 49.343562897394 3.699996464986 23.379154849994
2913 2 -1.200000000000 50.014903889195 7.811103648304 21.152568673804
2914 2 -1.200000000000 50.350574385096 5.344439338313 20.039275585709
2915 2 -1.200000000000 51.357585872798 6.988882211640 23.379154849994
2916 2 -1.200000000000 51.693256368699 4.522217901650 22.265861761899
2917 1 2.400000000000 46.322528434288 3.288885746654 20.039275585709
2918 1 2.400000000000 48.000880913792 -0.000000000000 21.152568673804
2919 1 2.400000000000 49.007892401493 1.644442873327 17.812689409519
2920 1 2.400000000000 50.014903889195 3.288885746654 21.152568673804
2921 2 -1.200000000000 48.336551409692 2.055553591659 20.039275585709
2922 2 -1.200000000000 48.672221905593 35.766632494865 18.925982497614
2923 2 -1.200000000000 49.679233393295 1.233332154995 22.265861761899
2924 2 -1.200000000000 50.014903889195 34.944411058201 21.152568673804
2925 2 -1.200000000000 50.686244880997 2.877775028322 18.925982497614
2926 2 -1.200000000000 51.021915376897 0.411110718332 17.812689409519
2927 2 -1.200000000000 52.028926864599 2.055553591659 21.152568673804
2928 2 -1.200000000000 52.364597360500 35.766632494865 20.039275585709
2929 1 2.400000000000 49.007892401493 1.644442873327 24.492447938089
2930 1 2.400000000000 50.686244880997 34.533300339870 25.605741026184
2931 1 2.400000000000 51.693256368699 -0.000000000000 22.265861761899
2932 1 2.400000000000 52.700267856401 1.644442873327 25.605741026184
2933 2 -1.200000000000 51.021915376897 0.411110718332 24.492447938089
2934 2 -1.200000000000 51.357585872798 34.122189621538 23.379154849994
2935 2 -1.200000000000 52.364597360500 35.766632494865 0.000000000000
2936 2 -1.200000000000 52.700267856401 33.299968184874 25.605741026184
2937 2 -1.200000000000 53.371608848202 1.233332154995 23.379154849994
2938 2 -1.200000000000 53.707279344102 34.944411058201 22.265861761899
2939 2 -1.200000000000 54.714290831804 0.411110718332 25.605741026184
2940 2 -1.200000000000 55.049961327705 34.122189621538 24.492447938089
2941 1 2.400000000000 32.224367606461 34.533300339870 0.000000000000
2942 1 2.400000000000 33.902720085965 31.244414593215 1.113293088095
2943 1 2.400000000000 34.909731573667 32.888857466542 24.492447938089
2944 1 2.400000000000 35.916743061369 34.533300339870 1.113293088095
2945 2 -1.200000000000 34.238390581865 33.299968184874 0.000000000000
2946 2 -1.200000000000 34.574061077766 30.833303874884 25.605741026184
2947 2 -1.200000000000 35.581072565468 32.477746748211 2.226586176190
2948 2 -1.200000000000 35.916743061369 30.011082438220 1.113293088095
2949 2 -1.200000000000 36.588084053170 34.122189621538 25.605741026184
2950 2 -1.200000000000 36.923754549070 31.655525311547 24.492447938089
2951 2 -1.200000000000 37.930766036772 33.299968184874 1.113293088095
2952 2 -1.200000000000 38.266436532673 30.833303874884 0.000000000000
2953 1 2.400000000000 34.909731573667 32.888857466542 4.453172352380
2954 1 2.400000000000 36.588084053170 29.599971719888 5.566465440475
2955 1 2.400000000000 37.595095540872 31.244414593215 2.226586176190
2956 1 2.400000000000 38.602107028574 32.888857466542 5.566465440475
2957 2 -1.200000000000 36.923754549070 31.655525311547 4.453172352380
2958 2 -1.200000000000 37.259425044971 29.188861001556 3.339879264285
2959 2 -1.200000000000 38.266436532673 30.833303874884 6.679758528570
2960 2 -1.200000000000 38.602107028574 28.366639564893 5.566465440475
2961 2 -1.200000000000 39.273448020375 32.477746748211 3.339879264285
2962 2 -1.200000000000 39.609118516276 30.011082438220 2.226586176190
2963 2 -1.200000000000 40.616130003977 31.655525311547 5.566465440475
2964 2 -1.200000000000 40.951800499878 29.188861001556 4.453172352380
2965 1 2.400000000000 35.581072565468 27.955528846561 2.226586176190
2966 1 2.400000000000 37.259425044971 24.666643099907 3.339879264285
2967 1 2.400000000000 38.266436532673 26.311085973234 0.000000000000
2968 1 2.400000000000 39.273448020375 27.955528846561 3.339879264285
2969 2 -1.200000000000 37.595095540872 26.722196691566 2.226586176190
2970 2 -1.200000000000 37.930766036772 24.255532381575 1.113293088095
2971 2 -1.200000000000 38.937777524474 25.899975254902 4.453172352380
2972 2 -1.200000000000 39.273448020375 23.433310944912 3.339879264285
2973 2 -1.200000000000 39.944789012176 27.544418128229 1.113293088095
2974 2 -1.200000000000 40.280459508077 25.077753818239 0.000000000000
2975 2 -1.200000000000 41.287470995779 26.722196691566 3.339879264285
2976 2 -1.200000000000 41.623141491679 24.255532381575 2.226586176190
2977 1 2.400000000000 36.252413557269 23.022200226580 0.000000000000
2978 1 2.400000000000 37.930766036772 19.733314479925 1.113293088095
2979 1 2.400000000000 38.937777524474 21.377757353253 24.492447938089
2980 1 2.400000000000 39.944789012176 23.022200226580 1.113293088095
2981 2 -1.200000000000 38.266436532673 21.788868071584 0.000000000000
2982 2 -1.200000000000 38.602107028574 19.322203761594 25.605741026184
2983 2 -1.200000000000 39.609118516276 20.966646634921 2.226586176190
2984 2 -1.200000000000 39.944789012176 18.499982324930 1.113293088095
2985 2 -1.200000000000 40.616130003977 22.611089508248 25.605741026184
2986 2 -1.200000000000 40.951800499878 20.144425198257 24.492447938089
2987 2 -1.200000000000 41.958811987580 21.788868071584 1.113293088095
2988 2 -1.200000000000 42.294482483481 19.322203761594 0.000000000000
2989 1 2.400000000000 37.595095540872 31.244414593215 8.906344704760
2990 1 2.400000000000 39.273448020375 27.955528846561 10.019637792855
2991 1 2.400000000000 40.280459508077 29.599971719888 6.679758528570
2992 1 2.400000000000 41.287470995779 31.244414593215 10.019637792855
2993 2 -1.200000000000 39.609118516276 30.011082438220 8.906344704760
2994 2 -1.200000000000 39.944789012176 27.544418128229 7.793051616665
2995 2 -1.200000000000 40.951800499878 29.188861001556 11.132930880950
2996 2 -1.200000000000 41.287470995779 26.722196691566 10.019637792855
2997 2 -1.200000000000 41.958811987580 30.833303874884 7.793051616665
2998 2 -1.200000000000 42.294482483481 28.366639564893 6.679758528570
2999 2 -1.200000000000 43.301493971183 30.011082438220 10.019637792855
3000 2 -1.200000000000 43.637164467083 27.544418128229 8.906344704760
3001 1 2.400000000000 38.266436532673 26.311085973234 6.679758528570
3002 1 2.400000000000 39.944789012176 23.022200226580 7.793051616665
3003 1 2.400000000000 40.951800499878 24.666643099907 4.453172352380
3004 1 2.400000000000 41.958811987580 26.311085973234 7.793051616665
3005 2 -1.200000000000 40.280459508077 25.077753818239 6.679758528570
3006 2 -1.200000000000 40.616130003977 22.611089508248 5.566465440475
3007 2 -1.200000000000 41.623141491679 24.255532381575 8.906344704760
3008 2 -1.200000000000 41.958811987580 21.788868071584 7.793051616665
3009 2 -1.200000000000 42.630152979381 25.899975254902 5.566465440475
3010 2 -1.200000000000 42.965823475282 23.433310944912 4.453172352380
3011 2 -1.200000000000 43.972834962984 25.077753818239 7.793051616665
3012 2 -1.200000000000 44.308505458885 22.611089508248 6.679758528570
3013 1 2.400000000000 38.937777524474 21.377757353253 4.453172352380
3014 1 2.400000000000 40.616130003977 18.088871606598 5.566465440475
3015 1 2.400000000000 41.623141491679 19.733314479925 2.226586176190
3016 1 2.400000000000 42.630152979381 21.377757353253 5.566465440475
3017 2 -1.200000000000 40.951800499878 20.144425198257 4.453172352380
3018 2 -1.200000000000 41.287470995779 17.677760888267 3.339879264285
3019 2 -1.200000000000 42.294482483481 19.322203761594 6.679758528570
3020 2 -1.200000000000 42.630152979381 16.855539451603 5.566465440475
3021 2 -1.200000000000 43.301493971183 20.966646634921 3.339879264285
3022 2 -1.200000000000 43.637164467083 18.499982324930 2.226586176190
3023 2 -1.200000000000 44.644175954785 20.144425198257 5.566465440475
3024 2 -1.200000000000 44.979846450686 17.677760888267 4.453172352380
3025 1 2.400000000000 39.609118516276 16.444428733271 2.226586176190
3026 1 2.400000000000 41.287470995779 13.155542986617 3.339879264285
3027 1 2.400000000000 42.294482483481 14.799985859944 0.000000000000
3028 1 2.400000000000 43.301493971183 16.444428733271 3.339879264285
3029 2 -1.200000000000 41.623141491679 15.211096578276 2.226586176190
3030 2 -1.200000000000 41.958811987580 12.744432268285 1.113293088095
3031 2 -1.200000000000 42.965823475282 14.388875141612 4.453172352380
3032 2 -1.200000000000 43.301493971183 11.922210831622 3.339879264285
3033 2 -1.200000000000 43.972834962984 16.033318014939 1.113293088095
3034 2 -1.200000000000 44.308505458885 13.566653704949 0.000000000000
3035 2 -1.200000000000 45.315516946586 15.211096578276 3.339879264285
3036 2 -1.200000000000 45.651187442487 12.744432268285 2.226586176190
3037 1 2.400000000000 40.280459508077 11.511100113290 0.000000000000
3038 1 2.400000000000 41.958811987580 8.222214366636 1.113293088095
3039 1 2.400000000000 42.965823475282 9.866657239963 24.492447938089
3040 1 2.400000000000 43.972834962984 11.511100113290 1.113293088095
3041 2 -1.200000000000 42.294482483481 10.277767958295 0.000000000000
3042 2 -1.200000000000 42.630152979381 7.811103648304 25.605741026184
3043 2 -1.200000000000 43.637164467083 9.455546521631 2.226586176190
3044 2 -1.200000000000 43.972834962984 6.988882211640 1.113293088095
3045 2 -1.200000000000 44.644175954785 11.099989394958 25.605741026184
3046 2 -1.200000000000 44.979846450686 8.633325084967 24.492447938089
3047 2 -1.200000000000 45.986857938388 10.277767958295 1.113293088095
3048 2 -1.200000000000 46.322528434288 7.811103648304 0.000000000000
3049 1 2.400000000000 39.609118516276 34.533300339870 15.586103233329
3050 1 2.400000000000 41.287470995779 31.244414593215 16.699396321424
3051 1 2.400000000000 42.294482483481 32.888857466542 13.359517057139
3052 1 2.400000000000 43.301493971183 34.533300339870 16.699396321424
3053 2 -1.200000000000 41.623141491679 33.299968184874 15.586103233329
3054 2 -1.200000000000 41.958811987580 30.833303874884 14.472810145234
3055 2 -1.200000000000 42.965823475282 32.477746748211 17.812689409519
3056 2 -1.200000000000 43.301493971183 30.011082438220 16.699396321424
3057 2 -1.200000000000 43.972834962984 34.122189621538 14.472810145234
3058 2 -1.200000000000 44.308505458885 31.655525311547 13.359517057139
3059 2 -1.200000000000 45.315516946586 33.299968184874 16.699396321424
3060 2 -1.200000000000 45.651187442487 30.833303874884 15.586103233329
3061 1 2.400000000000 40.280459508077 29.599971719888 13.359517057139
3062 1 2.400000000000 41.958811987580 26.311085973234 14.472810145234
3063 1 2.400000000000 42.965823475282 27.955528846561 11.132930880950
3064 1 2.400000000000 43.972834962984 29.599971719888 14.472810145234
3065 2 -1.200000000000 42.294482483481 28.366639564893 13.359517057139
3066 2 -1.200000000000 42.630152979381 25.899975254902 12.246223969044
3067 2 -1.200000000000 43.637164467083 27.544418128229 15.586103233329
3068 2 -1.200000000000 43.972834962984 25.077753818239 14.472810145234
3069 2 -1.200000000000 44.644175954785 29.188861001556 12.246223969045
3070 2 -1.200000000000 44.979846450686 26.722196691566 11.132930880950
3071 2 -1.200000000000 45.986857938388 28.366639564893 14.472810145234
3072 2 -1.200000000000 46.322528434288 25.899975254902 13.359517057139
3073 1 2.400000000000 40.951800499878 24.666643099907 11.132930880950
3074 1 2.400000000000 42.630152979381 21.377757353253 12.246223969045
3075 1 2.400000000000 43.637164467083 23.022200226580 8.906344704760
3076 1 2.400000000000 44.644175954785 24.666643099907 12.246223969045
3077 2 -1.200000000000 42.965823475282 23.433310944912 11.132930880950
3078 2 -1.200000000000 43.301493971183 20.966646634921 10.019637792855
3079 2 -1.200000000000 44.308505458885 22.611089508248 13.359517057139
3080 2 -1.200000000000 44.644175954785 20.144425198257 12.246223969044
3081 2 -1.200000000000 45.315516946586 24.255532381575 10.019637792855
3082 2 -1.200000000000 45.651187442487 21.788868071584 8.906344704760
3083 2 -1.200000000000 46.658198930189 23.433310944912 12.246223969045
3084 2 -1.200000000000 46.993869426090 20.966646634921 11.132930880950
3085 1 2.400000000000 41.623141491679 19.733314479925 8.906344704760
3086 1 2.400000000000 43.301493971183 16.444428733271 10.019637792855
3087 1 2.400000000000 44.308505458885 18.088871606598 6.679758528570
3088 1 2.400000000000 45.315516946586 19.733314479925 10.019637792855
3089 2 -1.200000000000 43.637164467083 18.499982324930 8.906344704760
3090 2 -1.200000000000 43.972834962984 16.033318014939 7.793051616665
3091 2 -1.200000000000 44.979846450686 17.677760888267 11.132930880950
3092 2 -1.200000000000 45.315516946586 15.211096578276 10.019637792855
3093 2 -1.200000000000 45.986857938388 19.322203761594 7.793051616665
3094 2 -1.200000000000 46.322528434288 16.855539451603 6.679758528570
3095 2 -1.200000000000 47.329539921990 18.499982324930 10.019637792855
3096 2 -1.200000000000 47.665210417891 16.033318014939 8.906344704760
3097 1 2.400000000000 42.294482483481 14.799985859944 6.679758528570
3098 1 2.400000000000 43.972834962984 11.511100113290 7.793051616665
3099 1 2.400000000000 44.979846450686 13.155542986617 4.453172352380
3100 1 2.400000000000 45.986857938388 14.799985859944 7.793051616665
3101 2 -1.200000000000 44.308505458885 13.566653704949 6.679758528570
3102 2 -1.200000000000 44.644175954785 11.099989394958 5.566465440475
3103 2 -1.200000000000 45.651187442487 12.744432268285 8.906344704760
3104 2 -1.200000000000 45.986857938388 10.277767958295 7.793051616665
3105 2 -1.200000000000 46.658198930189 14.388875141612 5.566465440475
3106 2 -1.200000000000 46.993869426090 11.922210831622 4.453172352380
3107 2 -1.200000000000 48.000880913792 13.566653704949 7.793051616665
3108 2 -1.200000000000 48.336551409692 11.099989394958 6.679758528570
3109 1 2.400000000000 42.965823475282 9.866657239963 4.453172352380
3110 1 2.400000000000 44.644175954785 6.577771493308 5.566465440475
3111 1 2.400000000000 45.651187442487 8.222214366636 2.226586176190
3112 1 2.400000000000 46.658198930189 9.866657239963 5.566465440475
3113 2 -1.200000000000 44.979846450686 8.633325084967 4.453172352380
3114 2 -1.200000000000 45.315516946586 6.166660774977 3.339879264285
3115 2 -1.200000000000 46.322528434288 7.811103648304 6.679758528570
3116 2 -1.200000000000 46.658198930189 5.344439338313 5.566465440475
3117 2 -1.200000000000 47.329539921990 9.455546521631 3.339879264285
3118 2 -1.200000000000 47.665210417891 6.988882211640 2.226586176190
3119 2 -1.200000000000 48.672221905593 8.633325084967 5.566465440475
3120 2 -1.200000000000 49.007892401493 6.166660774977 4.453172352380
3121 1 2.400000000000 43.637164467083 4.933328619981 2.226586176190
3122 1 2.400000000000 45.315516946586 1.644442873327 3.339879264285
3123 1 2.400000000000 46.322528434288 3.288885746654 0.000000000000
3124 1 2.400000000000 47.329539921990 4.933328619981 3.339879264285
3125 2 -1.200000000000 45.651187442487 3.699996464986 2.226586176190
3126 2 -1.200000000000 45.986857938388 1.233332154995 1.113293088095
3127 2 -1.200000000000 46.993869426090 2.877775028322 4.453172352380
3128 2 -1.200000000000 47.329539921990 0.411110718332 3.339879264285
3129 2 -1.200000000000 48.000880913792 4.522217901650 1.113293088095
3130 2 -1.200000000000 48.336551409692 2.055553591659 0.000000000000
3131 2 -1.200000000000 49.343562897394 3.699996464986 3.339879264285
3132 2 -1.200000000000 49.679233393295 1.233332154995 2.226586176190
3133 1 2.400000000000 44.308505458885 0.000000000000 0.000000000000
3134 1 2.400000000000 45.986857938388 32.888857466542 1.113293088095
3135 1 2.400000000000 46.993869426090 34.533300339870 24.492447938089
3136 1 2.400000000000 48.000880913792 -0.000000000000 1.113293088095
3137 2 -1.200000000000 46.322528434288 34.944411058201 0.000000000000
3138 2 -1.200000000000 46.658198930189 32.477746748211 25.605741026184
3139 2 -1.200000000000 47.665210417891 34.122189621538 2.226586176190
3140 2 -1.200000000000 48.000880913792 31.655525311547 1.113293088095
3141 2 -1.200000000000 48.672221905593 35.766632494865 25.605741026184
3142 2 -1.200000000000 49.007892401493 33.299968184874 24.492447938089
3143 2 -1.200000000000 50.014903889195 34.944411058201 1.113293088095
3144 2 -1.200000000000 50.350574385096 32.477746748211 0.000000000000
3145 1 2.400000000000 42.294482483481 32.888857466542 20.039275585709
3146 1 2.400000000000 43.972834962984 29.599971719888 21.152568673804
3147 1 2.400000000000 44.979846450686 31.244414593215 17.812689409519
3148 1 2.400000000000 45.986857938388 32.888857466542 21.152568673804
3149 2 -1.200000000000 44.308505458885 31.655525311547 20.039275585709
3150 2 -1.200000000000 44.644175954785 29.188861001556 18.925982497614
3151 2 -1.200000000000 45.651187442487 30.833303874884 22.265861761899
3152 2 -1.200000000000 45.986857938388 28.366639564893 21.152568673804
3153 2 -1.200000000000 46.658198930189 32.477746748211 18.925982497614
3154 2 -1.200000000000 46.993869426090 30.011082438220 17.812689409519
3155 2 -1.200000000000 48.000880913792 31.655525311547 21.152568673804
3156 2 -1.200000000000 48.336551409692 29.188861001556 20.039275585709
3157 1 2.400000000000 42.965823475282 27.955528846561 17.812689409519
3158 1 2.400000000000 44.644175954785 24.666643099907 18.925982497614
3159 1 2.400000000000 45.651187442487 26.311085973234 15.586103233329
3160 1 2.400000000000 46.658198930189 27.955528846561 18.925982497614
3161 2 -1.200000000000 44.979846450686 26.722196691566 17.812689409519
3162 2 -1.200000000000 45.315516946586 24.255532381575 16.699396321424
3163 2 -1.200000000000 46.322528434288 25.899975254902 20.039275585709
3164 2 -1.200000000000 46.658198930189 23.433310944912 18.925982497614
3165 2 -1.200000000000 47.329539921990 27.544418128229 16.699396321424
3166 2 -1.200000000000 47.665210417891 25.077753818239 15.586103233329
3167 2 -1.200000000000 48.672221905593 26.722196691566 18.925982497614
3168 2 -1.200000000000 49.007892401493 24.255532381575 17.812689409519
3169 1 2.400000000000 43.637164467083 23.022200226580 15.586103233329
3170 1 2.400000000000 45.315516946586 19.733314479925 16.699396321424
3171 1 2.400000000000 46.322528434288 21.377757353253 13.359517057139
3172 1 2.400000000000 47.329539921990 23.022200226580 16.699396321424
3173 2 -1.200000000000 45.651187442487 21.788868071584 15.586103233329
3174 2 -1.200000000000 45.986857938388 19.322203761594 14.472810145234
3175 2 -1.200000000000 46.993869426090 20.966646634921 17.812689409519
3176 2 -1.200000000000 47.329539921990 18.499982324930 16.699396321424
3177 2 -1.200000000000 48.000880913792 22.611089508248 14.472810145234
3178 2 -1.200000000000 48.336551409692 20.144425198257 13.359517057139
3179 2 -1.200000000000 49.343562897394 21.788868071584 16.699396321424
3180 2 -1.200000000000 49.679233393295 19.322203761594 15.586103233329
3181 1 2.400000000000 44.308505458885 18.088871606598 13.359517057139
3182 1 2.400000000000 45.986857938388 14.799985859944 14.472810145234
3183 1 2.400000000000 46.993869426090 16.444428733271 11.132930880950
3184 1 2.400000000000 48.000880913792 18.088871606598 14.472810145234
3185 2 -1.200000000000 46.322528434288 16.855539451603 13.359517057139
3186 2 -1.200000000000 46.658198930189 14.388875141612 12.246223969044
3187 2 -1.200000000000 47.665210417891 16.033318014939 15.586103233329
3188 2 -1.200000000000 48.000880913792 13.566653704949 14.472810145234
3189 2 -1.200000000000 48.672221905593 17.677760888267 12.246223969045
3190 2 -1.200000000000 49.007892401493 15.211096578276 11.132930880950
3191 2 -1.200000000000 50.014903889195 16.855539451603 14.472810145234
3192 2 -1.200000000000 50.350574385096 14.388875141612 13.359517057139
3193 1 2.400000000000 44.979846450686 13.155542986617 11.132930880950
3194 1 2.400000000000 46.658198930189 9.866657239963 12.246223969045
3195 1 2.400000000000 47.665210417891 11.511100113290 8.906344704760
3196 1 2.400000000000 48.672221905593 13.155542986617 12.246223969045
3197 2 -1.200000000000 46.993869426090 11.922210831622 11.132930880950
3198 2 -1.200000000000 47.329539921990 9.455546521631 10.019637792855
3199 2 -1.200000000000 48.336551409692 11.099989394958 13.359517057139
3200 2 -1.200000000000 48.672221905593 8.633325084967 12.246223969044
3201 2 -1.200000000000 49.343562897394 12.744432268285 10.019637792855
3202 2 -1.200000000000 49.679233393295 10.277767958295 8.906344704760
3203 2 -1.200000000000 50.686244880997 11.922210831622 12.246223969045
3204 2 -1.200000000000 51.021915376897 9.455546521631 11.132930880950
3205 1 2.400000000000 45.651187442487 8.222214366636 8.906344704760
3206 1 2.400000000000 47.329539921990 4.933328619981 10.019637792855
3207 1 2.400000000000 48.336551409692 6.577771493308 6.679758528570
3208 1 2.400000000000 49.343562897394 8.222214366636 10.019637792855
3209 2 -1.200000000000 47.665210417891 6.988882211640 8.906344704760
3210 2 -1.200000000000 48.000880913792 4.522217901650 7.793051616665
3211 2 -1.200000000000 49.007892401493 6.166660774977 11.132930880950
3212 2 -1.200000000000 49.343562897394 3.699996464986 10.019637792855
3213 2 -1.200000000000 50.014903889195 7.811103648304 7.793051616665
3214 2 -1.200000000000 50.350574385096 5.344439338313 6.679758528570
3215 2 -1.200000000000 51.357585872798 6.988882211640 10.019637792855
3216 2 -1.200000000000 51.693256368699 4.522217901650 8.906344704760
3217 1 2.400000000000 46.322528434288 3.288885746654 6.679758528570
3218 1 2.400000000000 48.000880913792 -0.000000000000 7.793051616665
3219 1 2.400000000000 49.007892401493 1.644442873327 4.453172352380
3220 1 2.400000000000 50.014903889195 3.288885746654 7.793051616665
3221 2 -1.200000000000 48.336551409692 2.055553591659 6.679758528570
3222 2 -1.200000000000 48.672221905593 35.766632494865 5.566465440475
3223 2 -1.200000000000 49.679233393295 1.233332154995 8.906344704760
3224 2 -1.200000000000 50.014903889195 34.944411058201 7.793051616665
3225 2 -1.200000000000 50.686244880997 2.877775028322 5.566465440475
3226 2 -1.200000000000 51.021915376897 0.411110718332 4.453172352380
3227 2 -1.200000000000 52.028926864599 2.055553591659 7.793051616665
3228 2 -1.200000000000 52.364597360500 35.766632494865 6.679758528570
3229 1 2.400000000000 44.979846450686 31.244414593215 24.492447938089
3230 1 2.400000000000 46.658198930189 27.955528846561 25.605741026184
3231 1 2.400000000000 47.665210417891 29.599971719888 22.265861761899
3232 1 2.400000000000 48.672221905593 31.244414593215 25.605741026184
3233 2 -1.200000000000 46.993869426090 30.011082438220 24.492447938089
3234 2 -1.200000000000 47.329539921990 27.544418128229 23.379154849994
3235 2 -1.200000000000 48.336551409692 29.188861001556 0.000000000000
3236 2 -1.200000000000 48.672221905593 26.722196691566 25.605741026184
3237 2 -1.200000000000 49.343562897394 30.833303874884 23.379154849994
3238 2 -1.200000000000 49.679233393295 28.366639564893 22.265861761899
3239 2 -1.200000000000 50.686244880997 30.011082438220 25.605741026184
3240 2 -1.200000000000 51.021915376897 27.544418128229 24.492447938089
3241 1 2.400000000000 45.651187442487 26.311085973234 22.265861761899
3242 1 2.400000000000 47.329539921990 23.022200226580 23.379154849994
3243 1 2.400000000000 48.336551409692 24.666643099907 20.039275585709
3244 1 2.400000000000 49.343562897394 26.311085973234 23.379154849994
3245 2 -1.200000000000 47.665210417891 25.077753818239 22.265861761899
3246 2 -1.200000000000 48.000880913792 22.611089508248 21.152568673804
3247 2 -1.200000000000 49.007892401493 24.255532381575 24.492447938089
3248 2 -1.200000000000 49.343562897394 21.788868071584 23.379154849994
3249 2 -1.200000000000 50.014903889195 25.899975254902 21.152568673804
3250 2 -1.200000000000 50.350574385096 23.433310944912 20.039275585709
3251 2 -1.200000000000 51.357585872798 25.077753818239 23.379154849994
3252 2 -1.200000000000 51.693256368699 22.611089508248 22.265861761899
3253 1 2.400000000000 46.322528434288 21.377757353253 20.039275585709
3254 1 2.400000000000 48.000880913792 18.088871606598 21.152568673804
3255 1 2.400000000000 49.007892401493 19.733314479925 17.812689409519
3256 1 2.400000000000 50.014903889195 21.377757353253 21.152568673804
3257 2 -1.200000000000 48.336551409692 20.144425198257 20.039275585709
3258 2 -1.200000000000 48.672221905593 17.677760888267 18.925982497614
3259 2 -1.200000000000 49.679233393295 19.322203761594 22.265861761899
3260 2 -1.200000000000 50.014903889195 16.855539451603 21.152568673804
3261 2 -1.200000000000 50.686244880997 20.966646634921 18.925982497614
3262 2 -1.200000000000 51.021915376897 18.499982324930 17.812689409519
3263 2 -1.200000000000 52.028926864599 20.144425198257 21.152568673804
3264 2 -1.200000000000 52.364597360500 17.677760888267 20.039275585709
3265 1 2.400000000000 46.993869426090 16.444428733271 17.812689409519
3266 1 2.400000000000 48.672221905593 13.155542986617 18.925982497614
3267 1 2.400000000000 49.679233393295 14.799985859944 15.586103233329
3268 1 2.400000000000 50.686244880997 16.444428733271 18.925982497614
3269 2 -1.200000000000 49.007892401493 15.211096578276 17.812689409519
3270 2 -1.200000000000 49.343562897394 12.744432268285 16.699396321424
3271 2 -1.200000000000 50.350574385096 14.388875141612 20.039275585709
3272 2 -1.200000000000 50.686244880997 11.922210831622 18.925982497614
3273 2 -1.200000000000 51.357585872798 16.033318014939 16.699396321424
3274 2 -1.200000000000 51.693256368699 13.566653704949 15.586103233329
3275 2 -1.200000000000 52.700267856401 15.211096578276 18.925982497614
3276 2 -1.200000000000 53.035938352301 12.744432268285 17.812689409519
3277 1 2.400000000000 47.665210417891 11.511100113290 15.586103233329
3278 1 2.400000000000 49.343562897394 8.222214366636 16.699396321424
3279 1 2.400000000000 50.350574385096 9.866657239963 13.359517057139
3280 1 2.400000000000 51.357585872798 11.511100113290 16.699396321424
3281 2 -1.200000000000 49.679233393295 10.277767958295 15.586103233329
3282 2 -1.200000000000 50.014903889195 7.811103648304 14.472810145234
3283 2 -1.200000000000 51.021915376897 9.455546521631 17.812689409519
3284 2 -1.200000000000 51.357585872798 6.988882211640 16.699396321424
3285 2 -1.200000000000 52.028926864599 11.099989394958 14.472810145234
3286 2 -1.200000000000 52.364597360500 8.633325084967 13.359517057139
3287 2 -1.200000000000 53.371608848202 10.277767958295 16.699396321424
3288 2 -1.200000000000 53.707279344102 7.811103648304 15.586103233329
3289 1 2.400000000000 48.336551409692 6.577771493308 13.359517057139
3290 1 2.400000000000 50.014903889195 3.288885746654 14.472810145234
3291 1 2.400000000000 51.021915376897 4.933328619981 11.132930880950
3292 1 2.400000000000 52.028926864599 6.577771493308 14.472810145234
3293 2 -1.200000000000 50.350574385096 5.344439338313 13.359517057139
3294 2 -1.200000000000 50.686244880997 2.877775028322 12.246223969045
3295 2 -1.200000000000 51.693256368699 4.522217901650 15.586103233329
3296 2 -1.200000000000 52.028926864599 2.055553591659 14.472810145234
3297 2 -1.200000000000 52.700267856401 6.166660774977 12.246223969045
3298 2 -1.200000000000 53.035938352301 3.699996464986 11.132930880950
3299 2 -1.200000000000 54.042949840003 5.344439338313 14.472810145234
3300 2 -1.200000000000 54.378620335904 2.877775028322 13.359517057139
3301 1 2.400000000000 49.007892401493 1.644442873327 11.132930880950
3302 1 2.400000000000 50.686244880997 34.533300339870 12.246223969044
3303 1 2.400000000000 51.693256368699 -0.000000000000 8.906344704760
3304 1 2.400000000000 52.700267856401 1.644442873327 12.246223969044
3305 2 -1.200000000000 51.021915376897 0.411110718332 11.132930880950
3306 2 -1.200000000000 51.357585872798 34.122189621538 10.019637792855
3307 2 -1.200000000000 52.364597360500 35.766632494865 13.359517057139
3308 2 -1.200000000000 52.700267856401 33.299968184874 12.246223969044
3309 2 -1.200000000000 53.371608848202 1.233332154995 10.019637792855
3310 2 -1.200000000000 53.707279344102 34.944411058201 8.906344704760
3311 2 -1.200000000000 54.714290831804 0.411110718332 12.246223969044
3312 2 -1.200000000000 55.049961327705 34.122189621538 11.132930880950
3313 1 2.400000000000 49.007892401493 19.733314479925 24.492447938089
3314 1 2.400000000000 50.686244880997 16.444428733271 25.605741026184
3315 1 2.400000000000 51.693256368699 18.088871606598 22.265861761899
3316 1 2.400000000000 52.700267856401 19.733314479925 25.605741026184
3317 2 -1.200000000000 51.021915376897 18.499982324930 24.492447938089
3318 2 -1.200000000000 51.357585872798 16.033318014939 23.379154849994
3319 2 -1.200000000000 52.364597360500 17.677760888267 0.000000000000
3320 2 -1.200000000000 52.700267856401 15.211096578276 25.605741026184
3321 2 -1.200000000000 53.371608848202 19.322203761594 23.379154849994
3322 2 -1.200000000000 53.707279344102 16.855539451603 22.265861761899
3323 2 -1.200000000000 54.714290831804 18.499982324930 25.605741026184
3324 2 -1.200000000000 55.049961327705 16.033318014939 24.492447938089
3325 1 2.400000000000 49.679233393295 14.799985859944 22.265861761899
3326 1 2.400000000000 51.357585872798 11.511100113290 23.379154849994
3327 1 2.400000000000 52.364597360500 13.155542986617 20.039275585709
3328 1 2.400000000000 53.371608848202 14.799985859944 23.379154849994
3329 2 -1.200000000000 51.693256368699 13.566653704949 22.265861761899
3330 2 -1.200000000000 52.028926864599 11.099989394958 21.152568673804
3331 2 -1.200000000000 53.035938352301 12.744432268285 24.492447938089
3332 2 -1.200000000000 53.371608848202 10.277767958295 23.379154849994
3333 2 -1.200000000000 54.042949840003 14.388875141612 21.152568673804
3334 2 -1.200000000000 54.378620335904 11.922210831622 20.039275585709
3335 2 -1.200000000000 55.385631823606 13.566653704949 23.379154849994
3336 2 -1.200000000000 55.721302319506 11.099989394958 22.265861761899
3337 1 2.400000000000 50.350574385096 9.866657239963 20.039275585709
3338 1 2.400000000000 52.028926864599 6.577771493308 21.152568673804
3339 1 2.400000000000 53.035938352301 8.222214366636 17.812689409519
3340 1 2.400000000000 54.042949840003 9.866657239963 21.152568673804
3341 2 -1.200000000000 52.364597360500 8.633325084967 20.039275585709
3342 2 -1.200000000000 52.700267856401 6.166660774977 18.925982497614
3343 2 -1.200000000000 53.707279344102 7.811103648304 22.265861761899
3344 2 -1.200000000000 54.042949840003 5.344439338313 21.152568673804
3345 2 -1.200000000000 54.714290831804 9.455546521631 18.925982497614
3346 2 -1.200000000000 55.049961327705 6.988882211640 17.812689409519
3347 2 -1.200000000000 56.056972815407 8.633325084967 21.152568673804
3348 2 -1.200000000000 56.392643311308 6.166660774977 20.039275585709
3349 1 2.400000000000 51.021915376897 4.933328619981 17.812689409519
3350 1 2.400000000000 52.700267856401 1.644442873327 18.925982497614
3351 1 2.400000000000 53.707279344102 3.288885746654 15.586103233329
3352 1 2.400000000000 54.714290831804 4.933328619981 18.925982497614
3353 2 -1.200000000000 53.035938352301 3.699996464986 17.812689409519
3354 2 -1.200000000000 53.371608848202 1.233332154995 16.699396321424
3355 2 -1.200000000000 54.378620335904 2.877775028322 20.039275585709
3356 2 -1.200000000000 54.714290831804 0.411110718332 18.925982497614
3357 2 -1.200000000000 55.385631823606 4.522217901650 16.699396321424
3358 2 -1.200000000000 55.721302319506 2.055553591659 15.586103233329
3359 2 -1.200000000000 56.728313807208 3.699996464986 18.925982497614
3360 2 -1.200000000000 57.063984303109 1.233332154995 17.812689409519
3361 1 2.400000000000 51.693256368699 -0.000000000000 15.586103233329
3362 1 2.400000000000 53.371608848202 32.888857466542 16.699396321424
3363 1 2.400000000000 54.378620335904 34.533300339870 13.359517057139
3364 1 2.400000000000 55.385631823606 -0.000000000000 16.699396321424
3365 2 -1.200000000000 53.707279344102 34.944411058201 15.586103233329
3366 2 -1.200000000000 54.042949840003 32.477746748211 14.472810145234
3367 2 -1.200000000000 55.049961327705 34.122189621538 17.812689409519
3368 2 -1.200000000000 55.385631823606 31.655525311547 16.699396321424
3369 2 -1.200000000000 56.056972815407 35.766632494865 14.472810145234
3370 2 -1.200000000000 56.392643311308 33.299968184874 13.359517057139
3371 2 -1.200000000000 57.399654799009 34.944411058201 16.699396321424
3372 2 -1.200000000000 57.735325294910 32.477746748211 15.586103233329
3373 1 2.400000000000 53.035938352301 8.222214366636 24.492447938089
3374 1 2.400000000000 54.714290831804 4.933328619981 25.605741026184
3375 1 2.400000000000 55.721302319506 6.577771493308 22.265861761899
3376 1 2.400000000000 56.728313807208 8.222214366636 25.605741026184
3377 2 -1.200000000000 55.049961327705 6.988882211640 24.492447938089
3378 2 -1.200000000000 55.385631823606 4.522217901650 23.379154849994
3379 2 -1.200000000000 56.392643311308 6.166660774977 0.000000000000
3380 2 -1.200000000000 56.728313807208 3.699996464986 25.605741026184
3381 2 -1.200000000000 57.399654799009 7.811103648304 23.379154849994
3382 2 -1.200000000000 57.735325294910 5.344439338313 22.265861761899
3383 2 -1.200000000000 58.742336782612 6.988882211640 25.605741026184
3384 2 -1.200000000000 59.078007278513 4.522217901650 24.492447938089
3385 1 2.400000000000 53.707279344102 3.288885746654 22.265861761899
3386 1 2.400000000000 55.385631823606 -0.000000000000 23.379154849994
3387 1 2.400000000000 56.392643311308 1.644442873327 20.039275585709
3388 1 2.400000000000 57.399654799009 3.288885746654 23.379154849994
3389 2 -1.200000000000 55.721302319506 2.055553591659 22.265861761899
3390 2 -1.200000000000 56.056972815407 35.766632494865 21.152568673804
3391 2 -1.200000000000 57.063984303109 1.233332154995 24.492447938089
3392 2 -1.200000000000 57.399654799009 34.944411058201 23.379154849994
3393 2 -1.200000000000 58.070995790811 2.877775028322 21.152568673804
3394 2 -1.200000000000 58.406666286711 0.411110718332 20.039275585709
3395 2 -1.200000000000 59.413677774413 2.055553591659 23.379154849994
3396 2 -1.200000000000 59.749348270314 35.766632494865 22.265861761899
3397 1 2.400000000000 39.609118516276 34.533300339870 2.226586176190
3398 1 2.400000000000 41.287470995779 31.244414593215 3.339879264285
3399 1 2.400000000000 42.294482483481 32.888857466542 0.000000000000
3400 1 2.400000000000 43.301493971183 34.533300339870 3.339879264285
3401 2 -1.200000000000 41.623141491679 33.299968184874 2.226586176190
3402 2 -1.200000000000 41.958811987580 30.833303874884 1.113293088095
3403 2 -1.200000000000 42.965823475282 32.477746748211 4.453172352380
3404 2 -1.200000000000 43.301493971183 30.011082438220 3.339879264285
3405 2 -1.200000000000 43.972834962984 34.122189621538 1.113293088095
3406 2 -1.200000000000 44.308505458885 31.655525311547 0.000000000000
3407 2 -1.200000000000 45.315516946586 33.299968184874 3.339879264285
3408 2 -1.200000000000 45.651187442487 30.833303874884 2.226586176190
3409 1 2.400000000000 40.280459508077 29.599971719888 0.000000000000
3410 1 2.400000000000 41.958811987580 26.311085973234 1.113293088095
3411 1 2.400000000000 42.965823475282 27.955528846561 24.492447938089
3412 1 2.400000000000 43.972834962984 29.599971719888 1.113293088095
3413 2 -1.200000000000 42.294482483481 28.366639564893 0.000000000000
3414 2 -1.200000000000 42.630152979381 25.899975254902 25.605741026184
3415 2 -1.200000000000 43.637164467083 27.544418128229 2.226586176190
3416 2 -1.200000000000 43.972834962984 25.077753818239 1.113293088095
3417 2 -1.200000000000 44.644175954785 29.188861001556 25.605741026184
3418 2 -1.200000000000 44.979846450686 26.722196691566 24.492447938089
3419 2 -1.200000000000 45.986857938388 28.366639564893 1.113293088095
3420 2 -1.200000000000 46.322528434288 25.899975254902 0.000000000000
3421 1 2.400000000000 42.294482483481 32.888857466542 6.679758528570
3422 1 2.400000000000 43.972834962984 29.599971719888 7.793051616665
3423 1 2.400000000000 44.979846450686 31.244414593215 4.453172352380
3424 1 2.400000000000 45.986857938388 32.888857466542 7.793051616665
3425 2 -1.200000000000 44.308505458885 31.655525311547 6.679758528570
3426 2 -1.200000000000 44.644175954785 29.188861001556 5.566465440475
3427 2 -1.200000000000 45.651187442487 30.833303874884 8.906344704760
3428 2 -1.200000000000 45.986857938388 28.366639564893 7.793051616665
3429 2 -1.200000000000 46.658198930189 32.477746748211 5.566465440475
3430 2 -1.200000000000 46.993869426090 30.011082438220 4.453172352380
3431 2 -1.200000000000 48.000880913792 31.655525311547 7.793051616665
3432 2 -1.200000000000 48.336551409692 29.188861001556 6.679758528570
3433 1 2.400000000000 42.965823475282 27.955528846561 4.453172352380
3434 1 2.400000000000 44.644175954785 24.666643099907 5.566465440475
3435 1 2.400000000000 45.651187442487 26.311085973234 2.226586176190
3436 1 2.400000000000 46.658198930189 27.955528846561 5.566465440475
3437 2 -1.200000000000 44.979846450686 26.722196691566 4.453172352380
3438 2 -1.200000000000 45.315516946586 24.255532381575 3.339879264285
3439 2 -1.200000000000 46.322528434288 25.899975254902 6.679758528570
3440 2 -1.200000000000 46.658198930189 23.433310944912 5.566465440475
3441 2 -1.200000000000 47.329539921990 27.544418128229 3.339879264285
3442 2 -1.200000000000 47.665210417891 25.077753818239 2.226586176190
3443 2 -1.200000000000 48.672221905593 26.722196691566 5.566465440475
3444 2 -1.200000000000 49.007892401493 24.255532381575 4.453172352380
3445 1 2.400000000000 43.637164467083 23.022200226580 2.226586176190
3446 1 2.400000000000 45.315516946586 19.733314479925 3.339879264285
3447 1 2.400000000000 46.322528434288 21.377757353253 0.000000000000
3448 1 2.400000000000 47.329539921990 23.022200226580 3.339879264285
3449 2 -1.200000000000 45.651187442487 21.788868071584 2.226586176190
3450 2 -1.200000000000 45.986857938388 19.322203761594 1.113293088095
3451 2 -1.200000000000 46.993869426090 20.966646634921 4.453172352380
3452 2 -1.200000000000 47.329539921990 18.499982324930 3.339879264285
3453 2 -1.200000000000 48.000880913792 22.611089508248 1.113293088095
3454 2 -1.200000000000 48.336551409692 20.144425198257 0.000000000000
3455 2 -1.200000000000 49.343562897394 21.788868071584 3.339879264285
3456 2 -1.200000000000 49.679233393295 19.322203761594 2.226586176190
3457 1 2.400000000000 44.308505458885 18.088871606598 0.000000000000
3458 1 2.400000000000 45.986857938388 14.799985859944 1.113293088095
3459 1 2.400000000000 46.993869426090 16.444428733271 24.492447938089
3460 1 2.400000000000 48.000880913792 18.088871606598 1.113293088095
3461 2 -1.200000000000 46.322528434288 16.855539451603 0.000000000000
3462 2 -1.200000000000 46.658198930189 14.388875141612 25.605741026184
3463 2 -1.200000000000 47.665210417891 16.033318014939 2.226586176190
3464 2 -1.200000000000 48.000880913792 13.566653704949 1.113293088095
3465 2 -1.200000000000 48.672221905593 17.677760888267 25.605741026184
3466 2 -1.200000000000 49.007892401493 15.211096578276 24.492447938089
3467 2 -1.200000000000 50.014903889195 16.855539451603 1.113293088095
3468 2 -1.200000000000 50.350574385096 14.388875141612 0.000000000000
3469 1 2.400000000000 44.979846450686 31.244414593215 11.132930880950
3470 1 2.400000000000 46.658198930189 27.955528846561 12.246223969045
3471 1 2.400000000000 47.665210417891 29.599971719888 8.906344704760
3472 1 2.400000000000 48.672221905593 31.244414593215 12.246223969045
3473 2 -1.200000000000 46.993869426090 30.011082438220 11.132930880950
3474 2 -1.200000000000 47.329539921990 27.544418128229 10.019637792855
3475 2 -1.200000000000 48.336551409692 29.188861001556 13.359517057139
3476 2 -1.200000000000 48.672221905593 26.722196691566 12.246223969045
3477 2 -1.200000000000 49.343562897394 30.833303874884 10.019637792855
3478 2 -1.200000000000 49.679233393295 28.366639564893 8.906344704760
3479 2 -1.200000000000 50.686244880997 30.011082438220 12.246223969045
3480 2 -1.200000000000 51.021915376897 27.544418128229 11.132930880950
3481 1 2.400000000000 45.651187442487 26.311085973234 8.906344704760
3482 1 2.400000000000 47.329539921990 23.022200226580 10.019637792855
3483 1 2.400000000000 48.336551409692 24.666643099907 6.679758528570
3484 1 2.400000000000 49.343562897394 26.311085973234 10.019637792855
3485 2 -1.200000000000 47.665210417891 25.077753818239 8.906344704760
3486 2 -1.200000000000 48.000880913792 22.611089508248 7.793051616665
3487 2 -1.200000000000 49.007892401493 24.255532381575 11.132930880950
3488 2 -1.200000000000 49.343562897394 21.788868071584 10.019637792855
3489 2 -1.200000000000 50.014903889195 25.899975254902 7.793051616665
3490 2 -1.200000000000 50.350574385096 23.433310944912 6.679758528570
3491 2 -1.200000000000 51.357585872798 25.077753818239 10.019637792855
3492 2 -1.200000000000 51.693256368699 22.611089508248 8.906344704760
3493 1 2.400000000000 46.322528434288 21.377757353253 6.679758528570
3494 1 2.400000000000 48.000880913792 18.088871606598 7.793051616665
3495 1 2.400000000000 49.007892401493 19.733314479925 4.453172352380
3496 1 2.400000000000 50.014903889195 21.377757353253 7.793051616665
3497 2 -1.200000000000 48.336551409692 20.144425198257 6.679758528570
3498 2 -1.200000000000 48.672221905593 17.677760888267 5.566465440475
3499 2 -1.200000000000 49.679233393295 19.322203761594 8.906344704760
3500 2 -1.200000000000 50.014903889195 16.855539451603 7.793051616665
3501 2 -1.200000000000 50.686244880997 20.966646634921 5.566465440475
3502 2 -1.200000000000 51.021915376897 18.499982324930 4.453172352380
3503 2 -1.200000000000 52.028926864599 20.144425198257 7.793051616665
3504 2 -1.200000000000 52.364597360500 17.677760888267 6.679758528570
3505 1 2.400000000000 46.993869426090 16.444428733271 4.453172352380
3506 1 2.400000000000 48.672221905593 13.155542986617 5.566465440475
3507 1 2.400000000000 49.679233393295 14.799985859944 2.226586176190
3508 1 2.400000000000 50.686244880997 16.444428733271 5.566465440475
3509 2 -1.200000000000 49.007892401493 15.211096578276 4.453172352380
3510 2 -1.200000000000 49.343562897394 12.744432268285 3.339879264285
3511 2 -1.200000000000 50.350574385096 14.388875141612 6.679758528570
3512 2 -1.200000000000 50.686244880997 11.922210831622 5.566465440475
3513 2 -1.200000000000 51.357585872798 16.033318014939 3.339879264285
3514 2 -1.200000000000 51.693256368699 13.566653704949 2.226586176190
3515 2 -1.200000000000 52.700267856401 15.211096578276 5.566465440475
3516 2 -1.200000000000 53.035938352301 12.744432268285 4.453172352380
3517 1 2.400000000000 47.665210417891 11.511100113290 2.226586176190
3518 1 2.400000000000 49.343562897394 8.222214366636 3.339879264285
3519 1 2.400000000000 50.350574385096 9.866657239963 0.000000000000
3520 1 2.400000000000 51.357585872798 11.511100113290 3.339879264285
3521 2 -1.200000000000 49.679233393295 10.277767958295 2.226586176190
3522 2 -1.200000000000 50.014903889195 7.811103648304 1.113293088095
3523 2 -1.200000000000 51.021915376897 9.455546521631 4.453172352380
3524 2 -1.200000000000 51.357585872798 6.988882211640 3.339879264285
3525 2 -1.200000000000 52.028926864599 11.099989394958 1.113293088095
3526 2 -1.200000000000 52.364597360500 8.633325084967 0.000000000000
3527 2 -1.200000000000 53.371608848202 10.277767958295 3.339879264285
3528 2 -1.200000000000 53.707279344102 7.811103648304 2.226586176190
3529 1 2.400000000000 48.336551409692 6.577771493308 0.000000000000
3530 1 2.400000000000 50.014903889195 3.288885746654 1.113293088095
3531 1 2.400000000000 51.021915376897 4.933328619981 24.492447938089
3532 1 2.400000000000 52.028926864599 6.577771493308 1.113293088095
3533 2 -1.200000000000 50.350574385096 5.344439338313 0.000000000000
3534 2 -1.200000000000 50.686244880997 2.877775028322 25.605741026184
3535 2 -1.200000000000 51.693256368699 4.522217901650 2.226586176190
3536 2 -1.200000000000 52.028926864599 2.055553591659 1.113293088095
3537 2 -1.200000000000 52.700267856401 6.166660774977 25.605741026184
3538 2 -1.200000000000 53.035938352301 3.699996464986 24.492447938089
3539 2 -1.200000000000 54.042949840003 5.344439338313 1.113293088095
3540 2 -1.200000000000 54.378620335904 2.877775028322 0.000000000000
3541 1 2.400000000000 46.993869426090 34.533300339870 17.812689409519
3542 1 2.400000000000 48.672221905593 31.244414593215 18.925982497614
3543 1 2.400000000000 49.679233393295 32.888857466542 15.586103233329
3544 1 2.400000000000 50.686244880997 34.533300339870 18.925982497614
3545 2 -1.200000000000 49.007892401493 33.299968184874 17.812689409519
3546 2 -1.200000000000 49.343562897394 30.833303874884 16.699396321424
3547 2 -1.200000000000 50.350574385096 32.477746748211 20.039275585709
3548 2 -1.200000000000 50.686244880997 30.011082438220 18.925982497614
3549 2 -1.200000000000 51.357585872798 34.122189621538 16.699396321424
3550 2 -1.200000000000 51.693256368699 31.655525311547 15.586103233329
3551 2 -1.200000000000 52.700267856401 33.299968184874 18.925982497614
3552 2 -1.200000000000 53.035938352301 30.833303874884 17.812689409519
3553 1 2.400000000000 47.665210417891 29.599971719888 15.586103233329
3554 1 2.400000000000 49.343562897394 26.311085973234 16.699396321424
3555 1 2.400000000000 50.350574385096 27.955528846561 13.359517057139
3556 1 2.400000000000 51.357585872798 29.599971719888 16.699396321424
3557 2 -1.200000000000 49.679233393295 28.366639564893 15.586103233329
3558 2 -1.200000000000 50.014903889195 25.899975254902 14.472810145234
3559 2 -1.200000000000 51.021915376897 27.544418128229 17.812689409519
3560 2 -1.200000000000 51.357585872798 25.077753818239 16.699396321424
3561 2 -1.200000000000 52.028926864599 29.188861001556 14.472810145234
3562 2 -1.200000000000 52.364597360500 26.722196691566 13.359517057139
3563 2 -1.200000000000 53.371608848202 28.366639564893 16.699396321424
3564 2 -1.200000000000 53.707279344102 25.899975254902 15.586103233329
3565 1 2.400000000000 48.336551409692 24.666643099907 13.359517057139
3566 1 2.400000000000 50.014903889195 21.377757353253 14.472810145234
3567 1 2.400000000000 51.021915376897 23.022200226580 11.132930880950
3568 1 2.400000000000 52.028926864599 24.666643099907 14.472810145234
3569 2 -1.200000000000 50.350574385096 23.433310944912 13.359517057139
3570 2 -1.200000000000 50.686244880997 20.966646634921 12.246223969044
3571 2 -1.200000000000 51.693256368699 22.611089508248 15.586103233329
3572 2 -1.200000000000 52.028926864599 20.144425198257 14.472810145234
3573 2 -1.200000000000 52.700267856401 24.255532381575 12.246223969045
3574 2 -1.200000000000 53.035938352301 21.788868071584 11.132930880950
3575 2 -1.200000000000 54.042949840003 23.433310944912 14.472810145234
3576 2 -1.200000000000 54.378620335904 20.966646634921 13.359517057139
3577 1 2.400000000000 49.007892401493 19.733314479925 11.132930880950
3578 1 2.400000000000 50.686244880997 16.444428733271 12.246223969045
3579 1 2.400000000000 51.693256368699 18.088871606598 8.906344704760
3580 1 2.400000000000 52.700267856401 19.733314479925 12.246223969045
3581 2 -1.200000000000 51.021915376897 18.499982324930 11.132930880950
3582 2 -1.200000000000 51.357585872798 16.033318014939 10.019637792855
3583 2 -1.200000000000 52.364597360500 17.677760888267 13.359517057139
3584 2 -1.200000000000 52.700267856401 15.211096578276 12.246223969045
3585 2 -1.200000000000 53.371608848202 19.322203761594 10.019637792855
3586 2 -1.200000000000 53.707279344102 16.855539451603 8.906344704760
3587 2 -1.200000000000 54.714290831804 18.499982324930 12.246223969045
3588 2 -1.200000000000 55.049961327705 16.033318014939 11.132930880950
3589 1 2.400000000000 49.679233393295 14.799985859944 8.906344704760
3590 1 2.400000000000 51.357585872798 11.511100113290 10.019637792855
3591 1 2.400000000000 52.364597360500 13.155542986617 6.679758528570
3592 1 2.400000000000 53.371608848202 14.799985859944 10.019637792855
3593 2 -1.200000000000 51.693256368699 13.566653704949 8.906344704760
3594 2 -1.200000000000 52.028926864599 11.099989394958 7.793051616665
3595 2 -1.200000000000 53.035938352301 12.744432268285 11.132930880950
3596 2 -1.200000000000 53.371608848202 10.277767958295 10.019637792855
3597 2 -1.200000000000 54.042949840003 14.388875141612 7.793051616665
3598 2 -1.200000000000 54.378620335904 11.922210831622 6.679758528570
3599 2 -1.200000000000 55.385631823606 13.566653704949 10.019637792855
3600 2 -1.200000000000 55.721302319506 11.099989394958 8.906344704760
3601 1 2.400000000000 50.350574385096 9.866657239963 6.679758528570
3602 1 2.400000000000 52.028926864599 6.577771493308 7.793051616665
3603 1 2.400000000000 53.035938352301 8.222214366636 4.453172352380
3604 1 2.400000000000 54.042949840003 9.866657239963 7.793051616665
3605 2 -1.200000000000 52.364597360500 8.633325084967 6.679758528570
3606 2 -1.200000000000 52.700267856401 6.166660774977 5.566465440475
3607 2 -1.200000000000 53.707279344102 7.811103648304 8.906344704760
3608 2 -1.200000000000 54.042949840003 5.344439338313 7.793051616665
3609 2 -1.200000000000 54.714290831804 9.455546521631 5.566465440475
3610 2 -1.200000000000 55.049961327705 6.988882211640 4.453172352380
3611 2 -1.200000000000 56.056972815407 8.633325084967 7.793051616665
3612 2 -1.200000000000 56.392643311308 6.166660774977 6.679758528570
3613 1 2.400000000000 51.021915376897 4.933328619981 4.453172352380
3614 1 2.400000000000 52.700267856401 1.644442873327 5.566465440475
3615 1 2.400000000000 53.707279344102 3.288885746654 2.226586176190
3616 1 2.400000000000 54.714290831804 4.933328619981 5.566465440475
3617 2 -1.200000000000 53.035938352301 3.699996464986 4.453172352380
3618 2 -1.200000000000 53.371608848202 1.233332154995 3.339879264285
3619 2 -1.200000000000 54.378620335904 2.877775028322 6.679758528570
3620 2 -1.200000000000 54.714290831804 0.411110718332 5.566465440475
3621 2 -1.200000000000 55.385631823606 4.522217901650 3.339879264285
3622 2 -1.200000000000 55.721302319506 2.055553591659 2.226586176190
3623 2 -1.200000000000 56.728313807208 3.699996464986 5.566465440475
3624 2 -1.200000000000 57.063984303109 1.233332154995 4.453172352380
3625 1 2.400000000000 51.693256368699 -0.000000000000 2.226586176190
3626 1 2.400000000000 53.371608848202 32.888857466542 3.339879264285
3627 1 2.400000000000 54.378620335904 34.533300339870 0.000000000000
3628 1 2.400000000000 55.385631823606 -0.000000000000 3.339879264285
3629 2 -1.200000000000 53.707279344102 34.944411058201 2.226586176190
3630 2 -1.200000000000 54.042949840003 32.477746748211 1.113293088095
3631 2 -1.200000000000 55.049961327705 34.122189621538 4.453172352380
3632 2 -1.200000000000 55.385631823606 31.655525311547 3.339879264285
3633 2 -1.200000000000 56.056972815407 35.766632494865 1.113293088095
3634 2 -1.200000000000 56.392643311308 33.299968184874 0.000000000000
3635 2 -1.200000000000 57.399654799009 34.944411058201 3.339879264285
3636 2 -1.200000000000 57.735325294910 32.477746748211 2.226586176190
3637 1 2.400000000000 49.679233393295 32.888857466542 22.265861761899
3638 1 2.400000000000 51.357585872798 29.599971719888 23.379154849994
3639 1 2.400000000000 52.364597360500 31.244414593215 20.039275585709
3640 1 2.400000000000 53.371608848202 32.888857466542 23.379154849994
3641 2 -1.200000000000 51.693256368699 31.655525311547 22.265861761899
3642 2 -1.200000000000 52.028926864599 29.188861001556 21.152568673804
3643 2 -1.200000000000 53.035938352301 30.833303874884 24.492447938089
3644 2 -1.200000000000 53.371608848202 28.366639564893 23.379154849994
3645 2 -1.200000000000 54.042949840003 32.477746748211 21.152568673804
3646 2 -1.200000000000 54.378620335904 30.011082438220 20.039275585709
3647 2 -1.200000000000 55.385631823606 31.655525311547 23.379154849994
3648 2 -1.200000000000 55.721302319506 29.188861001556 22.265861761899
3649 1 2.400000000000 50.350574385096 27.955528846561 20.039275585709
3650 1 2.400000000000 52.028926864599 24.666643099907 21.152568673804
3651 1 2.400000000000 53.035938352301 26.311085973234 17.812689409519
3652 1 2.400000000000 54.042949840003 27.955528846561 21.152568673804
3653 2 -1.200000000000 52.364597360500 26.722196691566 20.039275585709
3654 2 -1.200000000000 52.700267856401 24.255532381575 18.925982497614
3655 2 -1.200000000000 53.707279344102 25.899975254902 22.265861761899
3656 2 -1.200000000000 54.042949840003 23.433310944912 21.152568673804
3657 2 -1.200000000000 54.714290831804 27.544418128229 18.925982497614
3658 2 -1.200000000000 55.049961327705 25.077753818239 17.812689409519
3659 2 -1.200000000000 56.056972815407 26.722196691566 21.152568673804
3660 2 -1.200000000000 56.392643311308 24.255532381575 20.039275585709
3661 1 2.400000000000 51.021915376897 23.022200226580 17.812689409519
3662 1 2.400000000000 52.700267856401 19.733314479925 18.925982497614
3663 1 2.400000000000 53.707279344102 21.377757353253 15.586103233329
3664 1 2.400000000000 54.714290831804 23.022200226580 18.925982497614
3665 2 -1.200000000000 53.035938352301 21.788868071584 17.812689409519
3666 2 -1.200000000000 53.371608848202 19.322203761594 16.699396321424
3667 2 -1.200000000000 54.378620335904 20.966646634921 20.039275585709
3668 2 -1.200000000000 54.714290831804 18.499982324930 18.925982497614
3669 2 -1.200000000000 55.385631823606 22.611089508248 16.699396321424
3670 2 -1.200000000000 55.721302319506 20.144425198257 15.586103233329
3671 2 -1.200000000000 56.728313807208 21.788868071584 18.925982497614
3672 2 -1.200000000000 57.063984303109 19.322203761594 17.812689409519
3673 1 2.400000000000 51.693256368699 18.088871606598 15.586103233329
3674 1 2.400000000000 53.371608848202 14.799985859944 16.699396321424
3675 1 2.400000000000 54.378620335904 16.444428733271 13.359517057139
3676 1 2.400000000000 55.385631823606 18.088871606598 16.699396321424
3677 2 -1.200000000000 53.707279344102 16.855539451603 15.586103233329
3678 2 -1.200000000000 54.042949840003 14.388875141612 14.472810145234
3679 2 -1.200000000000 55.049961327705 16.033318014939 17.812689409519
3680 2 -1.200000000000 55.385631823606 13.566653704949 16.699396321424
3681 2 -1.200000000000 56.056972815407 17.677760888267 14.472810145234
3682 2 -1.200000000000 56.392643311308 15.211096578276 13.359517057139
3683 2 -1.200000000000 57.399654799009 16.855539451603 16.699396321424
3684 2 -1.200000000000 57.735325294910 14.388875141612 15.586103233329
3685 1 2.400000000000 52.364597360500 13.155542986617 13.359517057139
3686 1 2.400000000000 54.042949840003 9.866657239963 14.472810145234
3687 1 2.400000000000 55.049961327705 11.511100113290 11.132930880950
3688 1 2.400000000000 56.056972815407 13.155542986617 14.472810145234
3689 2 -1.200000000000 54.378620335904 11.922210831622 13.359517057139
3690 2 -1.200000000000 54.714290831804 9.455546521631 12.246223969045
3691 2 -1.200000000000 55.721302319506 11.099989394958 15.586103233329
3692 2 -1.200000000000 56.056972815407 8.633325084967 14.472810145234
3693 2 -1.200000000000 56.728313807208 12.744432268285 12.246223969045
3694 2 -1.200000000000 57.063984303109 10.277767958295 11.132930880950
3695 2 -1.200000000000 58.070995790811 11.922210831622 14.472810145234
3696 2 -1.200000000000 58.406666286711 9.455546521631 13.359517057139
3697 1 2.400000000000 53.035938352301 8.222214366636 11.132930880950
3698 1 2.400000000000 54.714290831804 4.933328619981 12.246223969044
3699 1 2.400000000000 55.721302319506 6.577771493308 8.906344704760
3700 1 2.400000000000 56.728313807208 8.222214366636 12.246223969044
3701 2 -1.200000000000 55.049961327705 6.988882211640 11.132930880950
3702 2 -1.200000000000 55.385631823606 4.522217901650 10.019637792855
3703 2 -1.200000000000 56.392643311308 6.166660774977 13.359517057139
3704 2 -1.200000000000 56.728313807208 3.699996464986 12.246223969044
3705 2 -1.200000000000 57.399654799009 7.811103648304 10.019637792855
3706 2 -1.200000000000 57.735325294910 5.344439338313 8.906344704760
3707 2 -1.200000000000 58.742336782612 6.988882211640 12.246223969045
3708 2 -1.200000000000 59.078007278513 4.522217901650 11.132930880950
3709 1 2.400000000000 53.707279344102 3.288885746654 8.906344704760
3710 1 2.400000000000 55.385631823606 -0.000000000000 10.019637792855
3711 1 2.400000000000 56.392643311308 1.644442873327 6.679758528570
3712 1 2.400000000000 57.399654799009 3.288885746654 10.019637792855
3713 2 -1.200000000000 55.721302319506 2.055553591659 8.906344704760
3714 2 -1.200000000000 56.056972815407 35.766632494865 7.793051616665
3715 2 -1.200000000000 57.063984303109 1.233332154995 11.132930880950
3716 2 -1.200000000000 57.399654799009 34.944411058201 10.019637792855
3717 2 -1.200000000000 58.070995790811 2.877775028322 7.793051616665
3718 2 -1.200000000000 58.406666286711 0.411110718332 6.679758528570
3719 2 -1.200000000000 59.413677774413 2.055553591659 10.019637792855
3720 2 -1.200000000000 59.749348270314 35.766632494865 8.906344704760
3721 1 2.400000000000 53.035938352301 26.311085973234 24.492447938089
3722 1 2.400000000000 54.714290831804 23.022200226580 25.605741026184
3723 1 2.400000000000 55.721302319506 24.666643099907 22.265861761899
3724 1 2.400000000000 56.728313807208 26.311085973234 25.605741026184
3725 2 -1.200000000000 55.049961327705 25.077753818239 24.492447938089
3726 2 -1.200000000000 55.385631823606 22.611089508248 23.379154849994
3727 2 -1.200000000000 56.392643311308 24.255532381575 0.000000000000
3728 2 -1.200000000000 56.728313807208 21.788868071584 25.605741026184
3729 2 -1.200000000000 57.399654799009 25.899975254902 23.379154849994
3730 2 -1.200000000000 57.735325294910 23.433310944912 22.265861761899
3731 2 -1.200000000000 58.742336782612 25.077753818239 25.605741026184
3732 2 -1.200000000000 59.078007278513 22.611089508248 24.492447938089
3733 1 2.400000000000 53.707279344102 21.377757353253 22.265861761899
3734 1 2.400000000000 55.385631823606 18.088871606598 23.379154849994
3735 1 2.400000000000 56.392643311308 19.733314479925 20.039275585709
3736 1 2.400000000000 57.399654799009 21.377757353253 23.379154849994
3737 2 -1.200000000000 55.721302319506 20.144425198257 22.265861761899
3738 2 -1.200000000000 56.056972815407 17.677760888267 21.152568673804
3739 2 -1.200000000000 57.063984303109 19.322203761594 24.492447938089
3740 2 -1.200000000000 57.399654799009 16.855539451603 23.379154849994
3741 2 -1.200000000000 58.070995790811 20.966646634921 21.152568673804
3742 2 -1.200000000000 58.406666286711 18.499982324930 20.039275585709
3743 2 -1.200000000000 59.413677774413 20.144425198257 23.379154849994
3744 2 -1.200000000000 59.749348270314 17.677760888267 22.265861761899
3745 1 2.400000000000 54.378620335904 16.444428733271 20.039275585709
3746 1 2.400000000000 56.056972815407 13.155542986617 21.152568673804
3747 1 2.400000000000 57.063984303109 14.799985859944 17.812689409519
3748 1 2.400000000000 58.070995790811 16.444428733271 21.152568673804
3749 2 -1.200000000000 56.392643311308 15.211096578276 20.039275585709
3750 2 -1.200000000000 56.728313807208 12.744432268285 18.925982497614
3751 2 -1.200000000000 57.735325294910 14.388875141612 22.265861761899
3752 2 -1.200000000000 58.070995790811 11.922210831622 21.152568673804
3753 2 -1.200000000000 58.742336782612 16.033318014939 18.925982497614
3754 2 -1.200000000000 59.078007278513 13.566653704949 17.812689409519
3755 2 -1.200000000000 60.085018766215 15.211096578276 21.152568673804
3756 2 -1.200000000000 60.420689262115 12.744432268285 20.039275585709
3757 1 2.400000000000 55.049961327705 11.511100113290 17.812689409519
3758 1 2.400000000000 56.728313807208 8.222214366636 18.925982497614
3759 1 2.400000000000 57.735325294910 9.866657239963 15.586103233329
3760 1 2.400000000000 58.742336782612 11.511100113290 18.925982497614
3761 2 -1.200000000000 57.063984303109 10.277767958295 17.812689409519
3762 2 -1.200000000000 57.399654799010 7.811103648304 16.699396321424
3763 2 -1.200000000000 58.406666286711 9.455546521631 20.039275585709
3764 2 -1.200000000000 58.742336782612 6.988882211640 18.925982497614
3765 2 -1.200000000000 59.413677774413 11.099989394958 16.699396321424
3766 2 -1.200000000000 59.749348270314 8.633325084967 15.586103233329
3767 2 -1.200000000000 60.756359758016 10.277767958295 18.925982497614
3768 2 -1.200000000000 61.092030253917 7.811103648304 17.812689409519
3769 1 2.400000000000 55.721302319506 6.577771493308 15.586103233329
3770 1 2.400000000000 57.399654799009 3.288885746654 16.699396321424
3771 1 2.400000000000 58.406666286711 4.933328619981 13.359517057139
3772 1 2.400000000000 59.413677774413 6.577771493308 16.699396321424
3773 2 -1.200000000000 57.735325294910 5.344439338313 15.586103233329
3774 2 -1.200000000000 58.070995790811 2.877775028322 14.472810145234
3775 2 -1.200000000000 59.078007278513 4.522217901650 17.812689409519
3776 2 -1.200000000000 59.413677774413 2.055553591659 16.699396321424
3777 2 -1.200000000000 60.085018766215 6.166660774977 14.472810145234
3778 2 -1.200000000000 60.420689262115 3.699996464986 13.359517057139
3779 2 -1.200000000000 61.427700749817 5.344439338313 16.699396321424
3780 2 -1.200000000000 61.763371245718 2.877775028322 15.586103233329
3781 1 2.400000000000 56.392643311308 1.644442873327 13.359517057139
3782 1 2.400000000000 58.070995790811 34.533300339870 14.472810145234
3783 1 2.400000000000 59.078007278513 -0.000000000000 11.132930880950
3784 1 2.400000000000 60.085018766215 1.644442873327 14.472810145234
3785 2 -1.200000000000 58.406666286711 0.411110718332 13.359517057139
3786 2 -1.200000000000 58.742336782612 34.122189621538 12.246223969045
3787 2 -1.200000000000 59.749348270314 35.766632494865 15.586103233329
3788 2 -1.200000000000 60.085018766215 33.299968184874 14.472810145234
3789 2 -1.200000000000 60.756359758016 1.233332154995 12.246223969045
3790 2 -1.200000000000 61.092030253917 34.944411058201 11.132930880950
3791 2 -1.200000000000 62.099041741618 0.411110718332 14.472810145234
3792 2 -1.200000000000 62.434712237519 34.122189621538 13.359517057139
3793 1 2.400000000000 57.063984303109 14.799985859944 24.492447938089
3794 1 2.400000000000 58.742336782612 11.511100113290 25.605741026184
3795 1 2.400000000000 59.749348270314 13.155542986617 22.265861761899
3796 1 2.400000000000 60.756359758016 14.799985859944 25.605741026184
3797 2 -1.200000000000 59.078007278513 13.566653704949 24.492447938089
3798 2 -1.200000000000 59.413677774413 11.099989394958 23.379154849994
3799 2 -1.200000000000 60.420689262115 12.744432268285 0.000000000000
3800 2 -1.200000000000 60.756359758016 10.277767958295 25.605741026184
3801 2 -1.200000000000 61.427700749817 14.388875141612 23.379154849994
3802 2 -1.200000000000 61.763371245718 11.922210831622 22.265861761899
3803 2 -1.200000000000 62.770382733420 13.566653704949 25.605741026184
3804 2 -1.200000000000 63.106053229320 11.099989394958 24.492447938089
3805 1 2.400000000000 57.735325294910 9.866657239963 22.265861761899
3806 1 2.400000000000 59.413677774413 6.577771493308 23.379154849994
3807 1 2.400000000000 60.420689262115 8.222214366636 20.039275585709
3808 1 2.400000000000 61.427700749817 9.866657239963 23.379154849994
3809 2 -1.200000000000 59.749348270314 8.633325084967 22.265861761899
3810 2 -1.200000000000 60.085018766215 6.166660774977 21.152568673804
3811 2 -1.200000000000 61.092030253917 7.811103648304 24.492447938089
3812 2 -1.200000000000 61.427700749817 5.344439338313 23.379154849994
3813 2 -1.200000000000 62.099041741618 9.455546521631 21.152568673804
3814 2 -1.200000000000 62.434712237519 6.988882211640 20.039275585709
3815 2 -1.200000000000 63.441723725221 8.633325084967 23.379154849994
3816 2 -1.200000000000 63.777394221122 6.166660774977 22.265861761899
3817 1 2.400000000000 58.406666286711 4.933328619981 20.039275585709
3818 1 2.400000000000 60.085018766215 1.644442873327 21.152568673804
3819 1 2.400000000000 61.092030253917 3.288885746654 17.812689409519
3820 1 2.400000000000 62.099041741618 4.933328619981 21.152568673804
3821 2 -1.200000000000 60.420689262115 3.699996464986 20.039275585709
3822 2 -1.200000000000 60.756359758016 1.233332154995 18.925982497614
3823 2 -1.200000000000 61.763371245718 2.877775028322 22.265861761899
3824 2 -1.200000000000 62.099041741618 0.411110718332 21.152568673804
3825 2 -1.200000000000 62.770382733420 4.522217901650 18.925982497614
3826 2 -1.200000000000 63.106053229320 2.055553591659 17.812689409519
3827 2 -1.200000000000 64.113064717022 3.699996464986 21.152568673804
3828 2 -1.200000000000 64.448735212923 1.233332154995 20.039275585709
3829 1 2.400000000000 59.078007278513 -0.000000000000 17.812689409519
3830 1 2.400000000000 60.756359758016 32.888857466542 18.925982497614
3831 1 2.400000000000 61.763371245718 34.533300339870 15.586103233329
3832 1 2.400000000000 62.770382733420 -0.000000000000 18.925982497614
3833 2 -1.200000000000 61.092030253917 34.944411058201 17.812689409519
3834 2 -1.200000000000 61.427700749817 32.477746748211 16.699396321424
3835 2 -1.200000000000 62.434712237519 34.122189621538 20.039275585709
3836 2 -1.200000000000 62.770382733420 31.655525311547 18.925982497614
3837 2 -1.200000000000 63.441723725221 35.766632494865 16.699396321424
3838 2 -1.200000000000 63.777394221122 33.299968184874 15.586103233329
3839 2 -1.200000000000 64.784405708824 34.944411058201 18.925982497614
3840 2 -1.200000000000 65.120076204724 32.477746748211 17.812689409519
3841 1 2.400000000000 61.092030253917 3.288885746654 24.492447938089
3842 1 2.400000000000 62.770382733420 -0.000000000000 25.605741026184
3843 1 2.400000000000 63.777394221122 1.644442873327 22.265861761899
3844 1 2.400000000000 64.784405708824 3.288885746654 25.605741026184
3845 2 -1.200000000000 63.106053229320 2.055553591659 24.492447938089
3846 2 -1.200000000000 63.441723725221 35.766632494865 23.379154849994
3847 2 -1.200000000000 64.448735212923 1.233332154995 0.000000000000
3848 2 -1.200000000000 64.784405708824 34.944411058201 25.605741026184
3849 2 -1.200000000000 65.455746700625 2.877775028322 23.379154849994
3850 2 -1.200000000000 65.791417196526 0.411110718332 22.265861761899
3851 2 -1.200000000000 66.798428684227 2.055553591659 25.605741026184
3852 2 -1.200000000000 67.134099180128 35.766632494865 24.492447938089
3853 1 2.400000000000 46.993869426090 34.533300339870 4.453172352380
3854 1 2.400000000000 48.672221905593 31.244414593215 5.566465440475
3855 1 2.400000000000 49.679233393295 32.888857466542 2.226586176190
3856 1 2.400000000000 50.686244880997 34.533300339870 5.566465440475
3857 2 -1.200000000000 49.007892401493 33.299968184874 4.453172352380
3858 2 -1.200000000000 49.343562897394 30.833303874884 3.339879264285
3859 2 -1.200000000000 50.350574385096 32.477746748211 6.679758528570
3860 2 -1.200000000000 50.686244880997 30.011082438220 5.566465440475
3861 2 -1.200000000000 51.357585872798 34.122189621538 3.339879264285
3862 2 -1.200000000000 51.693256368699 31.655525311547 2.226586176190
3863 2 -1.200000000000 52.700267856401 33.299968184874 5.566465440475
3864 2 -1.200000000000 53.035938352301 30.833303874884 4.453172352380
3865 1 2.400000000000 47.665210417891 29.599971719888 2.226586176190
3866 1 2.400000000000 49.343562897394 26.311085973234 3.339879264285
3867 1 2.400000000000 50.350574385096 27.955528846561 0.000000000000
3868 1 2.400000000000 51.357585872798 29.599971719888 3.339879264285
3869 2 -1.200000000000 49.679233393295 28.366639564893 2.226586176190
3870 2 -1.200000000000 50.014903889195 25.899975254902 1.113293088095
3871 2 -1.200000000000 51.021915376897 27.544418128229 4.453172352380
3872 2 -1.200000000000 51.357585872798 25.077753818239 3.339879264285
3873 2 -1.200000000000 52.028926864599 29.188861001556 1.113293088095
3874 2 -1.200000000000 52.364597360500 26.722196691566 0.000000000000
3875 2 -1.200000000000 53.371608848202 28.366639564893 3.339879264285
3876 2 -1.200000000000 53.707279344102 25.899975254902 2.226586176190
3877 1 2.400000000000 48.336551409692 24.666643099907 0.000000000000
3878 1 2.400000000000 50.014903889195 21.377757353253 1.113293088095
3879 1 2.400000000000 51.021915376897 23.022200226580 24.492447938089
3880 1 2.400000000000 52.028926864599 24.666643099907 1.113293088095
3881 2 -1.200000000000 50.350574385096 23.433310944912 0.000000000000
3882 2 -1.200000000000 50.686244880997 20.966646634921 25.605741026184
3883 2 -1.200000000000 51.693256368699 22.611089508248 2.226586176190
3884 2 -1.200000000000 52.028926864599 20.144425198257 1.113293088095
3885 2 -1.200000000000 52.700267856401 24.255532381575 25.605741026184
3886 2 -1.200000000000 53.035938352301 21.788868071584 24.492447938089
3887 2 -1.200000000000 54.042949840003 23.433310944911 1.113293088095
3888 2 -1.200000000000 54.378620335904 20.966646634921 0.000000000000
3889 1 2.400000000000 49.679233393295 32.888857466542 8.906344704760
3890 1 2.400000000000 51.357585872798 29.599971719888 10.019637792855
3891 1 2.400000000000 52.364597360500 31.244414593215 6.679758528570
3892 1 2.400000000000 53.371608848202 32.888857466542 10.019637792855
3893 2 -1.200000000000 51.693256368699 31.655525311547 8.906344704760
3894 2 -1.200000000000 52.028926864599 29.188861001556 7.793051616665
3895 2 -1.200000000000 53.035938352301 30.833303874884 11.132930880950
3896 2 -1.200000000000 53.371608848202 28.366639564893 10.019637792855
3897 2 -1.200000000000 54.042949840003 32.477746748211 7.793051616665
3898 2 -1.200000000000 54.378620335904 30.011082438220 6.679758528570
3899 2 -1.200000000000 55.385631823606 31.655525311547 10.019637792855
3900 2 -1.200000000000 55.721302319506 29.188861001556 8.906344704760
3901 1 2.400000000000 50.350574385096 27.955528846561 6.679758528570
3902 1 2.400000000000 52.028926864599 24.666643099907 7.793051616665
3903 1 2.400000000000 53.035938352301 26.311085973234 4.453172352380
3904 1 2.400000000000 54.042949840003 27.955528846561 7.793051616665
3905 2 -1.200000000000 52.364597360500 26.722196691566 6.679758528570
3906 2 -1.200000000000 52.700267856401 24.255532381575 5.566465440475
3907 2 -1.200000000000 53.707279344102 25.899975254902 8.906344704760
3908 2 -1.200000000000 54.042949840003 23.433310944912 7.793051616665
3909 2 -1.200000000000 54.714290831804 27.544418128229 5.566465440475
3910 2 -1.200000000000 55.049961327705 25.077753818239 4.453172352380
3911 2 -1.200000000000 56.056972815407 26.722196691566 7.793051616665
3912 2 -1.200000000000 56.392643311308 24.255532381575 6.679758528570
3913 1 2.400000000000 51.021915376897 23.022200226580 4.453172352380
3914 1 2.400000000000 52.700267856401 19.733314479925 5.566465440475
3915 1 2.400000000000 53.707279344102 21.377757353253 2.226586176190
3916 1 2.400000000000 54.714290831804 23.022200226580 5.566465440475
3917 2 -1.200000000000 53.035938352301 21.788868071584 4.453172352380
3918 2 -1.200000000000 53.371608848202 19.322203761594 3.339879264285
3919 2 -1.200000000000 54.378620335904 20.966646634921 6.679758528570
3920 2 -1.200000000000 54.714290831804 18.499982324930 5.566465440475
3921 2 -1.200000000000 55.385631823606 22.611089508248 3.339879264285
3922 2 -1.200000000000 55.721302319506 20.144425198257 2.226586176190
3923 2 -1.200000000000 56.728313807208 21.788868071584 5.566465440475
3924 2 -1.200000000000 57.063984303109 19.322203761594 4.453172352380
3925 1 2.400000000000 51.693256368699 18.088871606598 2.226586176190
3926 1 2.400000000000 53.371608848202 14.799985859944 3.339879264285
3927 1 2.400000000000 54.378620335904 16.444428733271 0.000000000000
3928 1 2.400000000000 55.385631823606 18.088871606598 3.339879264285
3929 2 -1.200000000000 53.707279344102 16.855539451603 2.226586176190
3930 2 -1.200000000000 54.042949840003 14.388875141612 1.113293088095
3931 2 -1.200000000000 55.049961327705 16.033318014939 4.453172352380
3932 2 -1.200000000000 55.385631823606 13.566653704949 3.339879264285
3933 2 -1.200000000000 56.056972815407 17.677760888267 1.113293088095
3934 2 -1.200000000000 56.392643311308 15.211096578276 0.000000000000
3935 2 -1.200000000000 57.399654799010 16.855539451603 3.339879264285
3936 2 -1.200000000000 57.735325294910 14.388875141612 2.226586176190
3937 1 2.400000000000 52.364597360500 13.155542986617 0.000000000000
3938 1 2.400000000000 54.042949840003 9.866657239963 1.113293088095
3939 1 2.400000000000 55.049961327705 11.511100113290 24.492447938089
3940 1 2.400000000000 56.056972815407 13.155542986617 1.113293088095
3941 2 -1.200000000000 54.378620335904 11.922210831622 0.000000000000
3942 2 -1.200000000000 54.714290831804 9.455546521631 25.605741026184
3943 2 -1.200000000000 55.721302319506 11.099989394958 2.226586176190
3944 2 -1.200000000000 56.056972815407 8.633325084967 1.113293088095
3945 2 -1.200000000000 56.728313807208 12.744432268285 25.605741026184
3946 2 -1.200000000000 57.063984303109 10.277767958295 24.492447938089
3947 2 -1.200000000000 58.070995790811 11.922210831622 1.113293088095
3948 2 -1.200000000000 58.406666286711 9.455546521631 0.000000000000
3949 1 2.400000000000 52.364597360500 31.244414593215 13.359517057139
3950 1 2.400000000000 54.042949840003 27.955528846561 14.472810145234
3951 1 2.400000000000 55.049961327705 29.599971719888 11.132930880950
3952 1 2.400000000000 56.056972815407 31.244414593215 14.472810145234
3953 2 -1.200000000000 54.378620335904 30.011082438220 13.359517057139
3954 2 -1.200000000000 54.714290831804 27.544418128229 12.246223969045
3955 2 -1.200000000000 55.721302319506 29.188861001556 15.586103233329
3956 2 -1.200000000000 56.056972815407 26.722196691566 14.472810145234
3957 2 -1.200000000000 56.728313807208 30.833303874884 12.246223969045
3958 2 -1.200000000000 57.063984303109 28.366639564893 11.132930880950
3959 2 -1.200000000000 58.070995790811 30.011082438220 14.472810145234
3960 2 -1.200000000000 58.406666286711 27.544418128229 13.359517057139
3961 1 2.400000000000 53.035938352301 26.311085973234 11.132930880950
3962 1 2.400000000000 54.714290831804 23.022200226580 12.246223969045
3963 1 2.400000000000 55.721302319506 24.666643099907 8.906344704760
3964 1 2.400000000000 56.728313807208 26.311085973234 12.246223969045
3965 2 -1.200000000000 55.049961327705 25.077753818239 11.132930880950
3966 2 -1.200000000000 55.385631823606 22.611089508248 10.019637792855
3967 2 -1.200000000000 56.392643311308 24.255532381575 13.359517057139
3968 2 -1.200000000000 56.728313807208 21.788868071584 12.246223969045
3969 2 -1.200000000000 57.399654799009 25.899975254902 10.019637792855
3970 2 -1.200000000000 57.735325294910 23.433310944912 8.906344704760
3971 2 -1.200000000000 58.742336782612 25.077753818239 12.246223969045
3972 2 -1.200000000000 59.078007278513 22.611089508248 11.132930880950
3973 1 2.400000000000 53.707279344102 21.377757353253 8.906344704760
3974 1 2.400000000000 55.385631823606 18.088871606598 10.019637792855
3975 1 2.400000000000 56.392643311308 19.733314479925 6.679758528570
3976 1 2.400000000000 57.399654799009 21.377757353253 10.019637792855
3977 2 -1.200000000000 55.721302319506 20.144425198257 8.906344704760
3978 2 -1.200000000000 56.056972815407 17.677760888267 7.793051616665
3979 2 -1.200000000000 57.063984303109 19.322203761594 11.132930880950
3980 2 -1.200000000000 57.399654799009 16.855539451603 10.019637792855
3981 2 -1.200000000000 58.070995790811 20.966646634921 7.793051616665
3982 2 -1.200000000000 58.406666286711 18.499982324930 6.679758528570
3983 2 -1.200000000000 59.413677774413 20.144425198257 10.019637792855
3984 2 -1.200000000000 59.749348270314 17.677760888267 8.906344704760
3985 1 2.400000000000 54.378620335904 16.444428733271 6.679758528570
3986 1 2.400000000000 56.056972815407 13.155542986617 7.793051616665
3987 1 2.400000000000 57.063984303109 14.799985859944 4.453172352380
3988 1 2.400000000000 58.070995790811 16.444428733271 7.793051616665
3989 2 -1.200000000000 56.392643311308 15.211096578276 6.679758528570
3990 2 -1.200000000000 56.728313807208 12.744432268285 5.566465440475
3991 2 -1.200000000000 57.735325294910 14.388875141612 8.906344704760
3992 2 -1.200000000000 58.070995790811 11.922210831622 7.793051616665
3993 2 -1.200000000000 58.742336782612 16.033318014939 5.566465440475
3994 2 -1.200000000000 59.078007278513 13.566653704949 4.453172352380
3995 2 -1.200000000000 60.085018766215 15.211096578276 7.793051616665
3996 2 -1.200000000000 60.420689262115 12.744432268285 6.679758528570
3997 1 2.400000000000 55.049961327705 11.511100113290 4.453172352380
3998 1 2.400000000000 56.728313807208 8.222214366636 5.566465440475
3999 1 2.400000000000 57.735325294910 9.866657239963 2.226586176190
4000 1 2.400000000000 58.742336782612 11.511100113290 5.566465440475
4001 2 -1.200000000000 57.063984303109 10.277767958295 4.453172352380
4002 2 -1.200000000000 57.399654799009 7.811103648304 3.339879264285
4003 2 -1.200000000000 58.406666286711 9.455546521631 6.679758528570
4004 2 -1.200000000000 58.742336782612 6.988882211640 5.566465440475
4005 2 -1.200000000000 59.413677774413 11.099989394958 3.339879264285
4006 2 -1.200000000000 59.749348270314 8.633325084967 2.226586176190
4007 2 -1.200000000000 60.756359758016 10.277767958295 5.566465440475
4008 2 -1.200000000000 61.092030253917 7.811103648304 4.453172352380
4009 1 2.400000000000 55.721302319506 6.577771493308 2.226586176190
4010 1 2.400000000000 57.399654799010 3.288885746654 3.339879264285
4011 1 2.400000000000 58.406666286711 4.933328619981 0.000000000000
4012 1 2.400000000000 59.413677774413 6.577771493308 3.339879264285
4013 2 -1.200000000000 57.735325294910 5.344439338313 2.226586176190
4014 2 -1.200000000000 58.070995790811 2.877775028322 1.113293088095
4015 2 -1.200000000000 59.078007278513 4.522217901650 4.453172352380
4016 2 -1.200000000000 59.413677774413 2.055553591659 3.339879264285
4017 2 -1.200000000000 60.085018766215 6.166660774977 1.113293088095
4018 2 -1.200000000000 60.420689262115 3.699996464986 0.000000000000
4019 2 -1.200000000000 61.427700749817 5.344439338313 3.339879264285
4020 2 -1.200000000000 61.763371245718 2.877775028322 2.226586176190
4021 1 2.400000000000 56.392643311308 1.644442873327 0.000000000000
4022 1 2.400000000000 58.070995790811 34.533300339870 1.113293088095
4023 1 2.400000000000 59.078007278513 -0.000000000000 24.492447938089
4024 1 2.400000000000 60.085018766215 1.644442873327 1.113293088095
4025 2 -1.200000000000 58.406666286711 0.411110718332 0.000000000000
4026 2 -1.200000000000 58.742336782612 34.122189621538 25.605741026184
4027 2 -1.200000000000 59.749348270314 35.766632494865 2.226586176190
4028 2 -1.200000000000 60.085018766215 33.299968184874 1.113293088095
4029 2 -1.200000000000 60.756359758016 1.233332154995 25.605741026184
4030 2 -1.200000000000 61.092030253917 34.944411058201 24.492447938089
4031 2 -1.200000000000 62.099041741618 0.411110718332 1.113293088095
4032 2 -1.200000000000 62.434712237519 34.122189621538 0.000000000000
4033 1 2.400000000000 54.378620335904 34.533300339870 20.039275585709
4034 1 2.400000000000 56.056972815407 31.244414593215 21.152568673804
4035 1 2.400000000000 57.063984303109 32.888857466542 17.812689409519
4036 1 2.400000000000 58.070995790811 34.533300339870 21.152568673804
4037 2 -1.200000000000 56.392643311308 33.299968184874 20.039275585709
4038 2 -1.200000000000 56.728313807208 30.833303874884 18.925982497614
4039 2 -1.200000000000 57.735325294910 32.477746748211 22.265861761899
4040 2 -1.200000000000 58.070995790811 30.011082438220 21.152568673804
4041 2 -1.200000000000 58.742336782612 34.122189621538 18.925982497614
4042 2 -1.200000000000 59.078007278513 31.655525311547 17.812689409519
4043 2 -1.200000000000 60.085018766215 33.299968184874 21.152568673804
4044 2 -1.200000000000 60.420689262115 30.833303874884 20.039275585709
4045 1 2.400000000000 55.049961327705 29.599971719888 17.812689409519
4046 1 2.400000000000 56.728313807208 26.311085973234 18.925982497614
4047 1 2.400000000000 57.735325294910 27.955528846561 15.586103233329
4048 1 2.400000000000 58.742336782612 29.599971719888 18.925982497614
4049 2 -1.200000000000 57.063984303109 28.366639564893 17.812689409519
4050 2 -1.200000000000 57.399654799009 25.899975254902 16.699396321424
4051 2 -1.200000000000 58.406666286711 27.544418128229 20.039275585709
4052 2 -1.200000000000 58.742336782612 25.077753818239 18.925982497614
4053 2 -1.200000000000 59.413677774413 29.188861001556 16.699396321424
4054 2 -1.200000000000 59.749348270314 26.722196691566 15.586103233329
4055 2 -1.200000000000 60.756359758016 28.366639564893 18.925982497614
4056 2 -1.200000000000 61.092030253917 25.899975254902 17.812689409519
4057 1 2.400000000000 55.721302319506 24.666643099907 15.586103233329
4058 1 2.400000000000 57.399654799009 21.377757353253 16.699396321424
4059 1 2.400000000000 58.406666286711 23.022200226580 13.359517057139
4060 1 2.400000000000 59.413677774413 24.666643099907 16.699396321424
4061 2 -1.200000000000 57.735325294910 23.433310944912 15.586103233329
4062 2 -1.200000000000 58.070995790811 20.966646634921 14.472810145234
4063 2 -1.200000000000 59.078007278513 22.611089508248 17.812689409519
4064 2 -1.200000000000 59.413677774413 20.144425198257 16.699396321424
4065 2 -1.200000000000 60.085018766215 24.255532381575 14.472810145234
4066 2 -1.200000000000 60.420689262115 21.788868071584 13.359517057139
4067 2 -1.200000000000 61.427700749817 23.433310944912 16.699396321424
4068 2 -1.200000000000 61.763371245718 20.966646634921 15.586103233329
4069 1 2.400000000000 56.392643311308 19.733314479925 13.359517057139
4070 1 2.400000000000 58.070995790811 16.444428733271 14.472810145234
4071 1 2.400000000000 59.078007278513 18.088871606598 11.132930880950
4072 1 2.400000000000 60.085018766215 19.733314479925 14.472810145234
4073 2 -1.200000000000 58.406666286711 18.499982324930 13.359517057139
4074 2 -1.200000000000 58.742336782612 16.033318014939 12.246223969045
4075 2 -1.200000000000 59.749348270314 17.677760888267 15.586103233329
4076 2 -1.200000000000 60.085018766215 15.211096578276 14.472810145234
4077 2 -1.200000000000 60.756359758016 19.322203761594 12.246223969044
4078 2 -1.200000000000 61.092030253917 16.855539451603 11.132930880950
4079 2 -1.200000000000 62.099041741618 18.499982324930 14.472810145234
4080 2 -1.200000000000 62.434712237519 16.033318014939 13.359517057139
4081 1 2.400000000000 57.063984303109 14.799985859944 11.132930880950
4082 1 2.400000000000 58.742336782612 11.511100113290 12.246223969044
4083 1 2.400000000000 59.749348270314 13.155542986617 8.906344704760
4084 1 2.400000000000 60.756359758016 14.799985859944 12.246223969044
4085 2 -1.200000000000 59.078007278513 13.566653704949 11.132930880950
4086 2 -1.200000000000 59.413677774413 11.099989394958 10.019637792855
4087 2 -1.200000000000 60.420689262115 12.744432268285 13.359517057139
4088 2 -1.200000000000 60.756359758016 10.277767958295 12.246223969044
4089 2 -1.200000000000 61.427700749817 14.388875141612 10.019637792855
4090 2 -1.200000000000 61.763371245718 11.922210831622 8.906344704760
4091 2 -1.200000000000 62.770382733420 13.566653704949 12.246223969044
4092 2 -1.200000000000 63.106053229320 11.099989394958 11.132930880950
4093 1 2.400000000000 57.735325294910 9.866657239963 8.906344704760
4094 1 2.400000000000 59.413677774413 6.577771493308 10.019637792855
4095 1 2.400000000000 60.420689262115 8.222214366636 6.679758528570
4096 1 2.400000000000 61.427700749817 9.866657239963 10.019637792855
4097 2 -1.200000000000 59.749348270314 8.633325084967 8.906344704760
4098 2 -1.200000000000 60.085018766215 6.166660774977 7.793051616665
4099 2 -1.200000000000 61.092030253917 7.811103648304 11.132930880950
4100 2 -1.200000000000 61.427700749817 5.344439338313 10.019637792855
4101 2 -1.200000000000 62.099041741618 9.455546521631 7.793051616665
4102 2 -1.200000000000 62.434712237519 6.988882211640 6.679758528570
4103 2 -1.200000000000 63.441723725221 8.633325084967 10.019637792855
4104 2 -1.200000000000 63.777394221122 6.166660774977 8.906344704760
4105 1 2.400000000000 58.406666286711 4.933328619981 6.679758528570
4106 1 2.400000000000 60.085018766215 1.644442873327 7.793051616665
4107 1 2.400000000000 61.092030253917 3.288885746654 4.453172352380
4108 1 2.400000000000 62.099041741618 4.933328619981 7.793051616665
4109 2 -1.200000000000 60.420689262115 3.699996464986 6.679758528570
4110 2 -1.200000000000 60.756359758016 1.233332154995 5.566465440475
4111 2 -1.200000000000 61.763371245718 2.877775028322 8.906344704760
4112 2 -1.200000000000 62.099041741618 0.411110718332 7.793051616665
4113 2 -1.200000000000 62.770382733420 4.522217901650 5.566465440475
4114 2 -1.200000000000 63.106053229320 2.055553591659 4.453172352380
4115 2 -1.200000000000 64.113064717022 3.699996464986 7.793051616665
4116 2 -1.200000000000 64.448735212923 1.233332154995 6.679758528570
4117 1 2.400000000000 59.078007278513 -0.000000000000 4.453172352380
4118 1 2.400000000000 60.756359758016 32.888857466542 5.566465440475
4119 1 2.400000000000 61.763371245718 34.533300339870 2.226586176190
4120 1 2.400000000000 62.770382733420 -0.000000000000 5.566465440475
4121 2 -1.200000000000 61.092030253917 34.944411058201 4.453172352380
4122 2 -1.200000000000 61.427700749817 32.477746748211 3.339879264285
4123 2 -1.200000000000 62.434712237519 34.122189621538 6.679758528570
4124 2 -1.200000000000 62.770382733420 31.655525311547 5.566465440475
4125 2 -1.200000000000 63.441723725221 35.766632494865 3.339879264285
4126 2 -1.200000000000 63.777394221122 33.299968184874 2.226586176190
4127 2 -1.200000000000 64.784405708824 34.944411058201 5.566465440475
4128 2 -1.200000000000 65.120076204724 32.477746748211 4.453172352380
4129 1 2.400000000000 57.063984303109 32.888857466542 24.492447938089
4130 1 2.400000000000 58.742336782612 29.599971719888 25.605741026184
4131 1 2.400000000000 59.749348270314 31.244414593215 22.265861761899
4132 1 2.400000000000 60.756359758016 32.888857466542 25.605741026184
4133 2 -1.200000000000 59.078007278513 31.655525311547 24.492447938089
4134 2 -1.200000000000 59.413677774413 29.188861001556 23.379154849994
4135 2 -1.200000000000 60.420689262115 30.833303874884 0.000000000000
4136 2 -1.200000000000 60.756359758016 28.366639564893 25.605741026184
4137 2 -1.200000000000 61.427700749817 32.477746748211 23.379154849994
4138 2 -1.200000000000 61.763371245718 30.011082438220 22.265861761899
4139 2 -1.200000000000 62.770382733420 31.655525311547 25.605741026184
4140 2 -1.200000000000 63.106053229320 29.188861001556 24.492447938089
4141 1 2.400000000000 57.735325294910 27.955528846561 22.265861761899
4142 1 2.400000000000 59.413677774413 24.666643099907 23.379154849994
4143 1 2.400000000000 60.420689262115 26.311085973234 20.039275585709
4144 1 2.400000000000 61.427700749817 27.955528846561 23.379154849994
4145 2 -1.200000000000 59.749348270314 26.722196691566 22.265861761899
4146 2 -1.200000000000 60.085018766215 24.255532381575 21.152568673804
4147 2 -1.200000000000 61.092030253917 25.899975254902 24.492447938089
4148 2 -1.200000000000 61.427700749817 23.433310944912 23.379154849994
4149 2 -1.200000000000 62.099041741618 27.544418128229 21.152568673804
4150 2 -1.200000000000 62.434712237519 25.077753818239 20.039275585709
4151 2 -1.200000000000 63.441723725221 26.722196691566 23.379154849994
4152 2 -1.200000000000 63.777394221122 24.255532381575 22.265861761899
4153 1 2.400000000000 58.406666286711 23.022200226580 20.039275585709
4154 1 2.400000000000 60.085018766215 19.733314479925 21.152568673804
4155 1 2.400000000000 61.092030253917 21.377757353253 17.812689409519
4156 1 2.400000000000 62.099041741618 23.022200226580 21.152568673804
4157 2 -1.200000000000 60.420689262115 21.788868071584 20.039275585709
4158 2 -1.200000000000 60.756359758016 19.322203761594 18.925982497614
4159 2 -1.200000000000 61.763371245718 20.966646634921 22.265861761899
4160 2 -1.200000000000 62.099041741618 18.499982324930 21.152568673804
4161 2 -1.200000000000 62.770382733420 22.611089508248 18.925982497614
4162 2 -1.200000000000 63.106053229320 20.144425198257 17.812689409519
4163 2 -1.200000000000 64.113064717022 21.788868071584 21.152568673804
4164 2 -1.200000000000 64.448735212923 19.322203761594 20.039275585709
4165 1 2.400000000000 59.078007278513 18.088871606598 17.812689409519
4166 1 2.400000000000 60.756359758016 14.799985859944 18.925982497614
4167 1 2.400000000000 61.763371245718 16.444428733271 15.586103233329
4168 1 2.400000000000 62.770382733420 18.088871606598 18.925982497614
4169 2 -1.200000000000 61.092030253917 16.855539451603 17.812689409519
4170 2 -1.200000000000 61.427700749817 14.388875141612 16.699396321424
4171 2 -1.200000000000 62.434712237519 16.033318014939 20.039275585709
4172 2 -1.200000000000 62.770382733420 13.566653704949 18.925982497614
4173 2 -1.200000000000 63.441723725221 17.677760888267 16.699396321424
4174 2 -1.200000000000 63.777394221122 15.211096578276 15.586103233329
4175 2 -1.200000000000 64.784405708824 16.855539451603 18.925982497614
4176 2 -1.200000000000 65.120076204724 14.388875141612 17.812689409519
4177 1 2.400000000000 59.749348270314 13.155542986617 15.586103233329
4178 1 2.400000000000 61.427700749817 9.866657239963 16.699396321424
4179 1 2.400000000000 62.434712237519 11.511100113290 13.359517057139
4180 1 2.400000000000 63.441723725221 13.155542986617 16.699396321424
4181 2 -1.200000000000 61.763371245718 11.922210831622 15.586103233329
4182 2 -1.200000000000 62.099041741618 9.455546521631 14.472810145234
4183 2 -1.200000000000 63.106053229320 11.099989394958 17.812689409519
4184 2 -1.200000000000 63.441723725221 8.633325084967 16.699396321424
4185 2 -1.200000000000 64.113064717022 12.744432268285 14.472810145234
4186 2 -1.200000000000 64.448735212923 10.277767958295 13.359517057139
4187 2 -1.200000000000 65.455746700625 11.922210831622 16.699396321424
4188 2 -1.200000000000 65.791417196526 9.455546521631 15.586103233329
4189 1 2.400000000000 60.420689262115 8.222214366636 13.359517057139
4190 1 2.400000000000 62.099041741618 4.933328619981 14.472810145234
4191 1 2.400000000000 63.106053229320 6.577771493308 11.132930880950
4192 1 2.400000000000 64.113064717022 8.222214366636 14.472810145234
4193 2 -1.200000000000 62.434712237519 6.988882211640 13.359517057139
4194 2 -1.200000000000 62.770382733420 4.522217901650 12.246223969045
4195 2 -1.200000000000 63.777394221122 6.166660774977 15.586103233329
4196 2 -1.200000000000 64.113064717022 3.699996464986 14.472810145234
4197 2 -1.200000000000 64.784405708824 7.811103648304 12.246223969045
4198 2 -1.200000000000 65.120076204724 5.344439338313 11.132930880950
4199 2 -1.200000000000 66.127087692426 6.988882211640 14.472810145234
4200 2 -1.200000000000 66.462758188327 4.522217901650 13.359517057139
4201 1 2.400000000000 61.092030253917 3.288885746654 11.132930880950
4202 1 2.400000000000 62.770382733420 -0.000000000000 12.246223969044
4203 1 2.400000000000 63.777394221122 1.644442873327 8.906344704760
4204 1 2.400000000000 64.784405708824 3.288885746654 12.246223969044
4205 2 -1.200000000000 63.106053229320 2.055553591659 11.132930880950
4206 2 -1.200000000000 63.441723725221 35.766632494865 10.019637792855
4207 2 -1.200000000000 64.448735212923 1.233332154995 13.359517057139
4208 2 -1.200000000000 64.784405708824 34.944411058201 12.246223969044
4209 2 -1.200000000000 65.455746700625 2.877775028322 10.019637792855
4210 2 -1.200000000000 65.791417196526 0.411110718332 8.906344704760
4211 2 -1.200000000000 66.798428684227 2.055553591659 12.246223969044
4212 2 -1.200000000000 67.134099180128 35.766632494865 11.132930880950
4213 1 2.400000000000 61.092030253917 21.377757353253 24.492447938089
4214 1 2.400000000000 62.770382733420 18.088871606598 25.605741026184
4215 1 2.400000000000 63.777394221122 19.733314479925 22.265861761899
4216 1 2.400000000000 64.784405708824 21.377757353253 25.605741026184
4217 2 -1.200000000000 63.106053229320 20.144425198257 24.492447938089
4218 2 -1.200000000000 63.441723725221 17.677760888267 23.379154849994
4219 2 -1.200000000000 64.448735212923 19.322203761594 0.000000000000
4220 2 -1.200000000000 64.784405708824 16.855539451603 25.605741026184
4221 2 -1.200000000000 65.455746700625 20.966646634921 23.379154849994
4222 2 -1.200000000000 65.791417196526 18.499982324930 22.265861761899
4223 2 -1.200000000000 66.798428684227 20.144425198257 25.605741026184
4224 2 -1.200000000000 67.134099180128 17.677760888267 24.492447938089
4225 1 2.400000000000 61.763371245718 16.444428733271 22.265861761899
4226 1 2.400000000000 63.441723725221 13.155542986617 23.379154849994
4227 1 2.400000000000 64.448735212923 14.799985859944 20.039275585709
4228 1 2.400000000000 65.455746700625 16.444428733271 23.379154849994
4229 2 -1.200000000000 63.777394221122 15.211096578276 22.265861761899
4230 2 -1.200000000000 64.113064717022 12.744432268285 21.152568673804
4231 2 -1.200000000000 65.120076204724 14.388875141612 24.492447938089
4232 2 -1.200000000000 65.455746700625 11.922210831622 23.379154849994
4233 2 -1.200000000000 66.127087692426 16.033318014939 21.152568673804
4234 2 -1.200000000000 66.462758188327 13.566653704949 20.039275585709
4235 2 -1.200000000000 67.469769676029 15.211096578276 23.379154849994
4236 2 -1.200000000000 67.805440171929 12.744432268285 22.265861761899
4237 1 2.400000000000 62.434712237519 11.511100113290 20.039275585709
4238 1 2.400000000000 64.113064717022 8.222214366636 21.152568673804
4239 1 2.400000000000 65.120076204724 9.866657239963 17.812689409519
4240 1 2.400000000000 66.127087692426 11.511100113290 21.152568673804
4241 2 -1.200000000000 64.448735212923 10.277767958295 20.039275585709
4242 2 -1.200000000000 64.784405708824 7.811103648304 18.925982497614
4243 2 -1.200000000000 65.791417196526 9.455546521631 22.265861761899
4244 2 -1.200000000000 66.127087692426 6.988882211640 21.152568673804
4245 2 -1.200000000000 66.798428684227 11.099989394958 18.925982497614
4246 2 -1.200000000000 67.134099180128 8.633325084967 17.812689409519
4247 2 -1.200000000000 68.141110667830 10.277767958295 21.152568673804
4248 2 -1.200000000000 68.476781163731 7.811103648304 20.039275585709
4249 1 2.400000000000 63.106053229320 6.577771493308 17.812689409519
4250 1 2.400000000000 64.784405708824 3.288885746654 18.925982497614
4251 1 2.400000000000 65.791417196526 4.933328619981 15.586103233329
4252 1 2.400000000000 66.798428684227 6.577771493308 18.925982497614
4253 2 -1.200000000000 65.120076204724 5.344439338313 17.812689409519
4254 2 -1.200000000000 65.455746700625 2.877775028322 16.699396321424
4255 2 -1.200000000000 66.462758188327 4.522217901650 20.039275585709
4256 2 -1.200000000000 66.798428684227 2.055553591659 18.925982497614
4257 2 -1.200000000000 67.469769676029 6.166660774977 16.699396321424
4258 2 -1.200000000000 67.805440171929 3.699996464986 15.586103233329
4259 2 -1.200000000000 68.812451659631 5.344439338313 18.925982497614
4260 2 -1.200000000000 69.148122155532 2.877775028322 17.812689409519
4261 1 2.400000000000 63.777394221122 1.644442873327 15.586103233329
4262 1 2.400000000000 65.455746700625 34.533300339870 16.699396321424
4263 1 2.400000000000 66.462758188327 -0.000000000000 13.359517057139
4264 1 2.400000000000 67.469769676029 1.644442873327 16.699396321424
4265 2 -1.200000000000 65.791417196526 0.411110718332 15.586103233329
4266 2 -1.200000000000 66.127087692426 34.122189621538 14.472810145234
4267 2 -1.200000000000 67.134099180128 35.766632494865 17.812689409519
4268 2 -1.200000000000 67.469769676029 33.299968184874 16.699396321424
4269 2 -1.200000000000 68.141110667830 1.233332154995 14.472810145234
4270 2 -1.200000000000 68.476781163731 34.944411058201 13.359517057139
4271 2 -1.200000000000 69.483792651433 0.411110718332 16.699396321424
4272 2 -1.200000000000 69.819463147333 34.122189621538 15.586103233329
4273 1 2.400000000000 65.120076204724 9.866657239963 24.492447938089
4274 1 2.400000000000 66.798428684227 6.577771493308 25.605741026184
4275 1 2.400000000000 67.805440171929 8.222214366636 22.265861761899
4276 1 2.400000000000 68.812451659631 9.866657239963 25.605741026184
4277 2 -1.200000000000 67.134099180128 8.633325084967 24.492447938089
4278 2 -1.200000000000 67.469769676029 6.166660774977 23.379154849994
4279 2 -1.200000000000 68.476781163731 7.811103648304 0.000000000000
4280 2 -1.200000000000 68.812451659631 5.344439338313 25.605741026184
4281 2 -1.200000000000 69.483792651433 9.455546521631 23.379154849994
4282 2 -1.200000000000 69.819463147333 6.988882211640 22.265861761899
4283 2 -1.200000000000 70.826474635035 8.633325084967 25.605741026184
4284 2 -1.200000000000 71.162145130936 6.166660774977 24.492447938089
4285 1 2.400000000000 65.791417196526 4.933328619981 22.265861761899
4286 1 2.400000000000 67.469769676029 1.644442873327 23.379154849994
4287 1 2.400000000000 68.476781163731 3.288885746654 20.039275585709
4288 1 2.400000000000 69.483792651433 4.933328619981 23.379154849994
4289 2 -1.200000000000 67.805440171929 3.699996464986 22.265861761899
4290 2 -1.200000000000 68.141110667830 1.233332154995 21.152568673804
4291 2 -1.200000000000 69.148122155532 2.877775028322 24.492447938089
4292 2 -1.200000000000 69.483792651433 0.411110718332 23.379154849994
4293 2 -1.200000000000 70.155133643234 4.522217901650 21.152568673804
4294 2 -1.200000000000 70.490804139134 2.055553591659 20.039275585709
4295 2 -1.200000000000 71.497815626836 3.699996464986 23.379154849994
4296 2 -1.200000000000 71.833486122737 1.233332154995 22.265861761899
4297 1 2.400000000000 66.462758188327 -0.000000000000 20.039275585709
4298 1 2.400000000000 68.141110667830 32.888857466542 21.152568673804
4299 1 2.400000000000 69.148122155532 34.533300339870 17.812689409519
4300 1 2.400000000000 70.155133643234 -0.000000000000 21.152568673804
4301 2 -1.200000000000 68.476781163731 34.944411058201 20.039275585709
4302 2 -1.200000000000 68.812451659631 32.477746748211 18.925982497614
4303 2 -1.200000000000 69.819463147333 34.122189621538 22.265861761899
4304 2 -1.200000000000 70.155133643234 31.655525311547 21.152568673804
4305 2 -1.200000000000 70.826474635035 35.766632494865 18.925982497614
4306 2 -1.200000000000 71.162145130936 33.299968184874 17.812689409519
4307 2 -1.200000000000 72.169156618638 34.944411058201 21.152568673804
4308 2 -1.200000000000 72.504827114538 32.477746748211 20.039275585709
4309 1 2.400000000000 52.364597360500 31.244414593215 0.000000000000
4310 1 2.400000000000 54.042949840003 27.955528846561 1.113293088095
4311 1 2.400000000000 55.049961327705 29.599971719888 24.492447938089
4312 1 2.400000000000 56.056972815407 31.244414593215 1.113293088095
4313 2 -1.200000000000 54.378620335904 30.011082438220 0.000000000000
4314 2 -1.200000000000 54.714290831804 27.544418128229 25.605741026184
4315 2 -1.200000000000 55.721302319506 29.188861001556 2.226586176190
4316 2 -1.200000000000 56.056972815407 26.722196691566 1.113293088095
4317 2 -1.200000000000 56.728313807208 30.833303874884 25.605741026184
4318 2 -1.200000000000 57.063984303109 28.366639564893 24.492447938089
4319 2 -1.200000000000 58.070995790811 30.011082438220 1.113293088095
4320 2 -1.200000000000 58.406666286711 27.544418128229 0.000000000000
4321 1 2.400000000000 54.378620335904 34.533300339870 6.679758528570
4322 1 2.400000000000 56.056972815407 31.244414593215 7.793051616665
4323 1 2.400000000000 57.063984303109 32.888857466542 4.453172352380
4324 1 2.400000000000 58.070995790811 34.533300339870 7.793051616665
4325 2 -1.200000000000 56.392643311308 33.299968184874 6.679758528570
4326 2 -1.200000000000 56.728313807208 30.833303874884 5.566465440475
4327 2 -1.200000000000 57.735325294910 32.477746748211 8.906344704760
4328 2 -1.200000000000 58.070995790811 30.011082438220 7.793051616665
4329 2 -1.200000000000 58.742336782612 34.122189621538 5.566465440475
4330 2 -1.200000000000 59.078007278513 31.655525311547 4.453172352380
4331 2 -1.200000000000 60.085018766215 33.299968184874 7.793051616665
4332 2 -1.200000000000 60.420689262115 30.833303874884 6.679758528570
4333 1 2.400000000000 55.049961327705 29.599971719888 4.453172352380
4334 1 2.400000000000 56.728313807208 26.311085973234 5.566465440475
4335 1 2.400000000000 57.735325294910 27.955528846561 2.226586176190
4336 1 2.400000000000 58.742336782612 29.599971719888 5.566465440475
4337 2 -1.200000000000 57.063984303109 28.366639564893 4.453172352380
4338 2 -1.200000000000 57.399654799009 25.899975254902 3.339879264285
4339 2 -1.200000000000 58.406666286711 27.544418128229 6.679758528570
4340 2 -1.200000000000 58.742336782612 25.077753818239 5.566465440475
4341 2 -1.200000000000 59.413677774413 29.188861001556 3.339879264285
4342 2 -1.200000000000 59.749348270314 26.722196691566 2.226586176190
4343 2 -1.200000000000 60.756359758016 28.366639564893 5.566465440475
4344 2 -1.200000000000 61.092030253917 25.899975254902 4.453172352380
4345 1 2.400000000000 55.721302319506 24.666643099907 2.226586176190
4346 1 2.400000000000 57.399654799009 21.377757353253 3.339879264285
4347 1 2.400000000000 58.406666286711 23.022200226580 0.000000000000
4348 1 2.400000000000 59.413677774413 24.666643099907 3.339879264285
4349 2 -1.200000000000 57.735325294910 23.433310944911 2.226586176190
4350 2 -1.200000000000 58.070995790811 20.966646634921 1.113293088095
4351 2 -1.200000000000 59.078007278513 22.611089508248 4.453172352380
4352 2 -1.200000000000 59.413677774413 20.144425198257 3.339879264285
4353 2 -1.200000000000 60.085018766215 24.255532381575 1.113293088095
4354 2 -1.200000000000 60.420689262115 21.788868071584 0.000000000000
4355 2 -1.200000000000 61.427700749817 23.433310944911 3.339879264285
4356 2 -1.200000000000 61.763371245718 20.966646634921 2.226586176190
4357 1 2.400000000000 56.392643311308 19.733314479925 0.000000000000
4358 1 2.400000000000 58.070995790811 16.444428733271 1.113293088095
4359 1 2.400000000000 59.078007278513 18.088871606598 24.492447938089
4360 1 2.400000000000 60.085018766215 19.733314479925 1.113293088095
4361 2 -1.200000000000 58.406666286711 18.499982324930 0.000000000000
4362 2 -1.200000000000 58.742336782612 16.033318014939 25.605741026184
4363 2 -1.200000000000 59.749348270314 17.677760888267 2.226586176190
4364 2 -1.200000000000 60.085018766215 15.211096578276 1.113293088095
4365 2 -1.200000000000 60.756359758016 19.322203761594 25.605741026184
4366 2 -1.200000000000 61.092030253917 16.855539451603 24.492447938089
4367 2 -1.200000000000 62.099041741618 18.499982324930 1.113293088095
4368 2 -1.200000000000 62.434712237519 16.033318014939 0.000000000000
4369 1 2.400000000000 57.063984303109 32.888857466542 11.132930880950
4370 1 2.400000000000 58.742336782612 29.599971719888 12.246223969045
4371 1 2.400000000000 59.749348270314 31.244414593215 8.906344704760
4372 1 2.400000000000 60.756359758016 32.888857466542 12.246223969045
4373 2 -1.200000000000 59.078007278513 31.655525311547 11.132930880950
4374 2 -1.200000000000 59.413677774413 29.188861001556 10.019637792855
4375 2 -1.200000000000 60.420689262115 30.833303874884 13.359517057139
4376 2 -1.200000000000 60.756359758016 28.366639564893 12.246223969044
4377 2 -1.200000000000 61.427700749817 32.477746748211 10.019637792855
4378 2 -1.200000000000 61.763371245718 30.011082438220 8.906344704760
4379 2 -1.200000000000 62.770382733420 31.655525311547 12.246223969045
4380 2 -1.200000000000 63.106053229320 29.188861001556 11.132930880950
4381 1 2.400000000000 57.735325294910 27.955528846561 8.906344704760
4382 1 2.400000000000 59.413677774413 24.666643099907 10.019637792855
4383 1 2.400000000000 60.420689262115 26.311085973234 6.679758528570
4384 1 2.400000000000 61.427700749817 27.955528846561 10.019637792855
4385 2 -1.200000000000 59.749348270314 26.722196691566 8.906344704760
4386 2 -1.200000000000 60.085018766215 24.255532381575 7.793051616665
4387 2 -1.200000000000 61.092030253917 25.899975254902 11.132930880950
4388 2 -1.200000000000 61.427700749817 23.433310944912 10.019637792855
4389 2 -1.200000000000 62.099041741618 27.544418128229 7.793051616665
4390 2 -1.200000000000 62.434712237519 25.077753818239 6.679758528570
4391 2 -1.200000000000 63.441723725221 26.722196691566 10.019637792855
4392 2 -1.200000000000 63.777394221122 24.255532381575 8.906344704760
4393 1 2.400000000000 58.406666286711 23.022200226580 6.679758528570
4394 1 2.400000000000 60.085018766215 19.733314479925 7.793051616665
4395 1 2.400000000000 61.092030253917 21.377757353253 4.453172352380
4396 1 2.400000000000 62.099041741618 23.022200226580 7.793051616665
4397 2 -1.200000000000 60.420689262115 21.788868071584 6.679758528570
4398 2 -1.200000000000 60.756359758016 19.322203761594 5.566465440475
4399 2 -1.200000000000 61.763371245718 20.966646634921 8.906344704760
4400 2 -1.200000000000 62.099041741618 18.499982324930 7.793051616665
4401 2 -1.200000000000 62.770382733420 22.611089508248 5.566465440475
4402 2 -1.200000000000 63.106053229320 20.144425198257 4.453172352380
4403 2 -1.200000000000 64.113064717022 21.788868071584 7.793051616665
4404 2 -1.200000000000 64.448735212923 19.322203761594 6.679758528570
4405 1 2.400000000000 59.078007278513 18.088871606598 4.453172352380
4406 1 2.400000000000 60.756359758016 14.799985859944 5.566465440475
4407 1 2.400000000000 61.763371245718 16.444428733271 2.226586176190
4408 1 2.400000000000 62.770382733420 18.088871606598 5.566465440475
4409 2 -1.200000000000 61.092030253917 16.855539451603 4.453172352380
4410 2 -1.200000000000 61.427700749817 14.388875141612 3.339879264285
4411 2 -1.200000000000 62.434712237519 16.033318014939 6.679758528570
4412 2 -1.200000000000 62.770382733420 13.566653704949 5.566465440475
4413 2 -1.200000000000 63.441723725221 17.677760888267 3.339879264285
4414 2 -1.200000000000 63.777394221122 15.211096578276 2.226586176190
4415 2 -1.200000000000 64.784405708824 16.855539451603 5.566465440475
4416 2 -1.200000000000 65.120076204724 14.388875141612 4.453172352380
4417 1 2.400000000000 59.749348270314 13.155542986617 2.226586176190
4418 1 2.400000000000 61.427700749817 9.866657239963 3.339879264285
4419 1 2.400000000000 62.434712237519 11.511100113290 0.000000000000
4420 1 2.400000000000 63.441723725221 13.155542986617 3.339879264285
4421 2 -1.200000000000 61.763371245718 11.922210831622 2.226586176190
4422 2 -1.200000000000 62.099041741618 9.455546521631 1.113293088095
4423 2 -1.200000000000 63.106053229320 11.099989394958 4.453172352380
4424 2 -1.200000000000 63.441723725221 8.633325084967 3.339879264285
4425 2 -1.200000000000 64.113064717022 12.744432268285 1.113293088095
4426 2 -1.200000000000 64.448735212923 10.277767958295 0.000000000000
4427 2 -1.200000000000 65.455746700625 11.922210831622 3.339879264285
4428 2 -1.200000000000 65.791417196526 9.455546521631 2.226586176190
4429 1 2.400000000000 60.420689262115 8.222214366636 0.000000000000
4430 1 2.400000000000 62.099041741618 4.933328619981 1.113293088095
4431 1 2.400000000000 63.106053229320 6.577771493308 24.492447938089
4432 1 2.400000000000 64.113064717022 8.222214366636 1.113293088095
4433 2 -1.200000000000 62.434712237519 6.988882211640 0.000000000000
4434 2 -1.200000000000 62.770382733420 4.522217901650 25.605741026184
4435 2 -1.200000000000 63.777394221122 6.166660774977 2.226586176190
4436 2 -1.200000000000 64.113064717022 3.699996464986 1.113293088095
4437 2 -1.200000000000 64.784405708824 7.811103648304 25.605741026184
4438 2 -1.200000000000 65.120076204724 5.344439338313 24.492447938089
4439 2 -1.200000000000 66.127087692426 6.988882211640 1.113293088095
4440 2 -1.200000000000 66.462758188327 4.522217901650 0.000000000000
4441 1 2.400000000000 59.749348270314 31.244414593215 15.586103233329
4442 1 2.400000000000 61.427700749817 27.955528846561 16.699396321424
4443 1 2.400000000000 62.434712237519 29.599971719888 13.359517057139
4444 1 2.400000000000 63.441723725221 31.244414593215 16.699396321424
4445 2 -1.200000000000 61.763371245718 30.011082438220 15.586103233329
4446 2 -1.200000000000 62.099041741618 27.544418128229 14.472810145234
4447 2 -1.200000000000 63.106053229320 29.188861001556 17.812689409519
4448 2 -1.200000000000 63.441723725221 26.722196691566 16.699396321424
4449 2 -1.200000000000 64.113064717022 30.833303874884 14.472810145234
4450 2 -1.200000000000 64.448735212923 28.366639564893 13.359517057139
4451 2 -1.200000000000 65.455746700625 30.011082438220 16.699396321424
4452 2 -1.200000000000 65.791417196526 27.544418128229 15.586103233329
4453 1 2.400000000000 60.420689262115 26.311085973234 13.359517057139
4454 1 2.400000000000 62.099041741618 23.022200226580 14.472810145234
4455 1 2.400000000000 63.106053229320 24.666643099907 11.132930880950
4456 1 2.400000000000 64.113064717022 26.311085973234 14.472810145234
4457 2 -1.200000000000 62.434712237519 25.077753818239 13.359517057139
4458 2 -1.200000000000 62.770382733420 22.611089508248 12.246223969044
4459 2 -1.200000000000 63.777394221122 24.255532381575 15.586103233329
4460 2 -1.200000000000 64.113064717022 21.788868071584 14.472810145234
4461 2 -1.200000000000 64.784405708824 25.899975254902 12.246223969045
4462 2 -1.200000000000 65.120076204724 23.433310944912 11.132930880950
4463 2 -1.200000000000 66.127087692426 25.077753818239 14.472810145234
4464 2 -1.200000000000 66.462758188327 22.611089508248 13.359517057139
4465 1 2.400000000000 61.092030253917 21.377757353253 11.132930880950
4466 1 2.400000000000 62.770382733420 18.088871606598 12.246223969044
4467 1 2.400000000000 63.777394221122 19.733314479925 8.906344704760
4468 1 2.400000000000 64.784405708824 21.377757353253 12.246223969044
4469 2 -1.200000000000 63.106053229320 20.144425198257 11.132930880950
4470 2 -1.200000000000 63.441723725221 17.677760888267 10.019637792855
4471 2 -1.200000000000 64.448735212923 19.322203761594 13.359517057139
4472 2 -1.200000000000 64.784405708824 16.855539451603 12.246223969044
4473 2 -1.200000000000 65.455746700625 20.966646634921 10.019637792855
4474 2 -1.200000000000 65.791417196526 18.499982324930 8.906344704760
4475 2 -1.200000000000 66.798428684227 20.144425198257 12.246223969044
4476 2 -1.200000000000 67.134099180128 17.677760888267 11.132930880950
4477 1 2.400000000000 61.763371245718 16.444428733271 8.906344704760
4478 1 2.400000000000 63.441723725221 13.155542986617 10.019637792855
4479 1 2.400000000000 64.448735212923 14.799985859944 6.679758528570
4480 1 2.400000000000 65.455746700625 16.444428733271 10.019637792855
4481 2 -1.200000000000 63.777394221122 15.211096578276 8.906344704760
4482 2 -1.200000000000 64.113064717022 12.744432268285 7.793051616665
4483 2 -1.200000000000 65.120076204724 14.388875141612 11.132930880950
4484 2 -1.200000000000 65.455746700625 11.922210831622 10.019637792855
4485 2 -1.200000000000 66.127087692426 16.033318014939 7.793051616665
4486 2 -1.200000000000 66.462758188327 13.566653704949 6.679758528570
4487 2 -1.200000000000 67.469769676029 15.211096578276 10.019637792855
4488 2 -1.200000000000 67.805440171929 12.744432268285 8.906344704760
4489 1 2.400000000000 62.434712237519 11.511100113290 6.679758528570
4490 1 2.400000000000 64.113064717022 8.222214366636 7.793051616665
4491 1 2.400000000000 65.120076204724 9.866657239963 4.453172352380
4492 1 2.400000000000 66.127087692426 11.511100113290 7.793051616665
4493 2 -1.200000000000 64.448735212923 10.277767958295 6.679758528570
4494 2 -1.200000000000 64.784405708824 7.811103648304 5.566465440475
4495 2 -1.200000000000 65.791417196526 9.455546521631 8.906344704760
4496 2 -1.200000000000 66.127087692426 6.988882211640 7.793051616665
4497 2 -1.200000000000 66.798428684227 11.099989394958 5.566465440475
4498 2 -1.200000000000 67.134099180128 8.633325084967 4.453172352380
4499 2 -1.200000000000 68.141110667830 10.277767958295 7.793051616665
4500 2 -1.200000000000 68.476781163731 7.811103648304 6.679758528570
4501 1 2.400000000000 63.106053229320 6.577771493308 4.453172352380
4502 1 2.400000000000 64.784405708824 3.288885746654 5.566465440475
4503 1 2.400000000000 65.791417196526 4.933328619981 2.226586176190
4504 1 2.400000000000 66.798428684227 6.577771493308 5.566465440475
4505 2 -1.200000000000 65.120076204724 5.344439338313 4.453172352380
4506 2 -1.200000000000 65.455746700625 2.877775028322 3.339879264285
4507 2 -1.200000000000 66.462758188327 4.522217901650 6.679758528570
4508 2 -1.200000000000 66.798428684227 2.055553591659 5.566465440475
4509 2 -1.200000000000 67.469769676029 6.166660774977 3.339879264285
4510 2 -1.200000000000 67.805440171929 3.699996464986 2.226586176190
4511 2 -1.200000000000 68.812451659631 5.344439338313 5.566465440475
4512 2 -1.200000000000 69.148122155532 2.877775028322 4.453172352380
4513 1 2.400000000000 63.777394221122 1.644442873327 2.226586176190
4514 1 2.400000000000 65.455746700625 34.533300339870 3.339879264285
4515 1 2.400000000000 66.462758188327 0.000000000000 0.000000000000
4516 1 2.400000000000 67.469769676029 1.644442873327 3.339879264285
4517 2 -1.200000000000 65.791417196526 0.411110718332 2.226586176190
4518 2 -1.200000000000 66.127087692426 34.122189621538 1.113293088095
4519 2 -1.200000000000 67.134099180128 35.766632494865 4.453172352380
4520 2 -1.200000000000 67.469769676029 33.299968184874 3.339879264285
4521 2 -1.200000000000 68.141110667830 1.233332154995 1.113293088095
4522 2 -1.200000000000 68.476781163731 34.944411058201 0.000000000000
4523 2 -1.200000000000 69.483792651433 0.411110718332 3.339879264285
4524 2 -1.200000000000 69.819463147333 34.122189621538 2.226586176190
4525 1 2.400000000000 61.763371245718 34.533300339870 22.265861761899
4526 1 2.400000000000 63.441723725221 31.244414593215 23.379154849994
4527 1 2.400000000000 64.448735212923 32.888857466542 20.039275585709
4528 1 2.400000000000 65.455746700625 34.533300339870 23.379154849994
4529 2 -1.200000000000 63.777394221122 33.299968184874 22.265861761899
4530 2 -1.200000000000 64.113064717022 30.833303874884 21.152568673804
4531 2 -1.200000000000 65.120076204724 32.477746748211 24.492447938089
4532 2 -1.200000000000 65.455746700625 30.011082438220 23.379154849994
4533 2 -1.200000000000 66.127087692426 34.122189621538 21.152568673804
4534 2 -1.200000000000 66.462758188327 31.655525311547 20.039275585709
4535 2 -1.200000000000 67.469769676029 33.299968184874 23.379154849994
4536 2 -1.200000000000 67.805440171929 30.833303874884 22.265861761899
4537 1 2.400000000000 62.434712237519 29.599971719888 20.039275585709
4538 1 2.400000000000 64.113064717022 26.311085973234 21.152568673804
4539 1 2.400000000000 65.120076204724 27.955528846561 17.812689409519
4540 1 2.400000000000 66.127087692426 29.599971719888 21.152568673804
4541 2 -1.200000000000 64.448735212923 28.366639564893 20.039275585709
4542 2 -1.200000000000 64.784405708824 25.899975254902 18.925982497614
4543 2 -1.200000000000 65.791417196526 27.544418128229 22.265861761899
4544 2 -1.200000000000 66.127087692426 25.077753818239 21.152568673804
4545 2 -1.200000000000 66.798428684227 29.188861001556 18.925982497614
4546 2 -1.200000000000 67.134099180128 26.722196691566 17.812689409519
4547 2 -1.200000000000 68.141110667830 28.366639564893 21.152568673804
4548 2 -1.200000000000 68.476781163731 25.899975254902 20.039275585709
4549 1 2.400000000000 63.106053229320 24.666643099907 17.812689409519
4550 1 2.400000000000 64.784405708824 21.377757353253 18.925982497614
4551 1 2.400000000000 65.791417196526 23.022200226580 15.586103233329
4552 1 2.400000000000 66.798428684227 24.666643099907 18.925982497614
4553 2 -1.200000000000 65.120076204724 23.433310944912 17.812689409519
4554 2 -1.200000000000 65.455746700625 20.966646634921 16.699396321424
4555 2 -1.200000000000 66.462758188327 22.611089508248 20.039275585709
4556 2 -1.200000000000 66.798428684227 20.144425198257 18.925982497614
4557 2 -1.200000000000 67.469769676029 24.255532381575 16.699396321424
4558 2 -1.200000000000 67.805440171929 21.788868071584 15.586103233329
4559 2 -1.200000000000 68.812451659631 23.433310944912 18.925982497614
4560 2 -1.200000000000 69.148122155532 20.966646634921 17.812689409519
4561 1 2.400000000000 63.777394221122 19.733314479925 15.586103233329
4562 1 2.400000000000 65.455746700625 16.444428733271 16.699396321424
4563 1 2.400000000000 66.462758188327 18.088871606598 13.359517057139
4564 1 2.400000000000 67.469769676029 19.733314479925 16.699396321424
4565 2 -1.200000000000 65.791417196526 18.499982324930 15.586103233329
4566 2 -1.200000000000 66.127087692426 16.033318014939 14.472810145234
4567 2 -1.200000000000 67.134099180128 17.677760888267 17.812689409519
4568 2 -1.200000000000 67.469769676029 15.211096578276 16.699396321424
4569 2 -1.200000000000 68.141110667830 19.322203761594 14.472810145234
4570 2 -1.200000000000 68.476781163731 16.855539451603 13.359517057139
4571 2 -1.200000000000 69.483792651433 18.499982324930 16.699396321424
4572 2 -1.200000000000 69.819463147333 16.033318014939 15.586103233329
4573 1 2.400000000000 64.448735212923 14.799985859944 13.359517057139
4574 1 2.400000000000 66.127087692426 11.511100113290 14.472810145234
4575 1 2.400000000000 67.134099180128 13.155542986617 11.132930880950
4576 1 2.400000000000 68.141110667830 14.799985859944 14.472810145234
4577 2 -1.200000000000 66.462758188327 13.566653704949 13.359517057139
4578 2 -1.200000000000 66.798428684227 11.099989394958 12.246223969044
4579 2 -1.200000000000 67.805440171929 12.744432268285 15.586103233329
4580 2 -1.200000000000 68.141110667830 10.277767958295 14.472810145234
4581 2 -1.200000000000 68.812451659631 14.388875141612 12.246223969045
4582 2 -1.200000000000 69.148122155532 11.922210831622 11.132930880950
4583 2 -1.200000000000 70.155133643234 13.566653704949 14.472810145234
4584 2 -1.200000000000 70.490804139134 11.099989394958 13.359517057139
4585 1 2.400000000000 65.120076204724 9.866657239963 11.132930880950
4586 1 2.400000000000 66.798428684227 6.577771493308 12.246223969044
4587 1 2.400000000000 67.805440171929 8.222214366636 8.906344704760
4588 1 2.400000000000 68.812451659631 9.866657239963 12.246223969044
4589 2 -1.200000000000 67.134099180128 8.633325084967 11.132930880950
4590 2 -1.200000000000 67.469769676029 6.166660774977 10.019637792855
4591 2 -1.200000000000 68.476781163731 7.811103648304 13.359517057139
4592 2 -1.200000000000 68.812451659631 5.344439338313 12.246223969044
4593 2 -1.200000000000 69.483792651433 9.455546521631 10.019637792855
4594 2 -1.200000000000 69.819463147333 6.988882211640 8.906344704760
4595 2 -1.200000000000 70.826474635035 8.633325084967 12.246223969044
4596 2 -1.200000000000 71.162145130936 6.166660774977 11.132930880950
4597 1 2.400000000000 65.791417196526 4.933328619981 8.906344704760
4598 1 2.400000000000 67.469769676029 1.644442873327 10.019637792855
4599 1 2.400000000000 68.476781163731 3.288885746654 6.679758528570
4600 1 2.400000000000 69.483792651433 4.933328619981 10.019637792855
4601 2 -1.200000000000 67.805440171929 3.699996464986 8.906344704760
4602 2 -1.200000000000 68.141110667830 1.233332154995 7.793051616665
4603 2 -1.200000000000 69.148122155532 2.877775028322 11.132930880950
4604 2 -1.200000000000 69.483792651433 0.411110718332 10.019637792855
4605 2 -1.200000000000 70.155133643234 4.522217901650 7.793051616665
4606 2 -1.200000000000 70.490804139134 2.055553591659 6.679758528570
4607 2 -1.200000000000 71.497815626836 3.699996464986 10.019637792855
4608 2 -1.200000000000 71.833486122737 1.233332154995 8.906344704760
4609 1 2.400000000000 66.462758188327 -0.000000000000 6.679758528570
4610 1 2.400000000000 68.141110667830 32.888857466542 7.793051616665
4611 1 2.400000000000 69.148122155532 34.533300339870 4.453172352380
4612 1 2.400000000000 70.155133643234 -0.000000000000 7.793051616665
4613 2 -1.200000000000 68.476781163731 34.944411058201 6.679758528570
4614 2 -1.200000000000 68.812451659631 32.477746748211 5.566465440475
4615 2 -1.200000000000 69.819463147333 34.122189621538 8.906344704760
4616 2 -1.200000000000 70.155133643234 31.655525311547 7.793051616665
4617 2 -1.200000000000 70.826474635035 35.766632494865 5.566465440475
4618 2 -1.200000000000 71.162145130936 33.299968184874 4.453172352380
4619 2 -1.200000000000 72.169156618638 34.944411058201 7.793051616665
4620 2 -1.200000000000 72.504827114538 32.477746748211 6.679758528570
4621 1 2.400000000000 65.120076204724 27.955528846561 24.492447938089
4622 1 2.400000000000 66.798428684227 24.666643099907 25.605741026184
4623 1 2.400000000000 67.805440171929 26.311085973234 22.265861761899
4624 1 2.400000000000 68.812451659631 27.955528846561 25.605741026184
4625 2 -1.200000000000 67.134099180128 26.722196691566 24.492447938089
4626 2 -1.200000000000 67.469769676029 24.255532381575 23.379154849994
4627 2 -1.200000000000 68.476781163731 25.899975254902 0.000000000000
4628 2 -1.200000000000 68.812451659631 23.433310944912 25.605741026184
4629 2 -1.200000000000 69.483792651433 27.544418128229 23.379154849994
4630 2 -1.200000000000 69.819463147333 25.077753818239 22.265861761899
4631 2 -1.200000000000 70.826474635035 26.722196691566 25.605741026184
4632 2 -1.200000000000 71.162145130936 24.255532381575 24.492447938089
4633 1 2.400000000000 65.791417196526 23.022200226580 22.265861761899
4634 1 2.400000000000 67.469769676029 19.733314479925 23.379154849994
4635 1 2.400000000000 68.476781163731 21.377757353253 20.039275585709
4636 1 2.400000000000 69.483792651433 23.022200226580 23.379154849994
4637 2 -1.200000000000 67.805440171929 21.788868071584 22.265861761899
4638 2 -1.200000000000 68.141110667830 19.322203761594 21.152568673804
4639 2 -1.200000000000 69.148122155532 20.966646634921 24.492447938089
4640 2 -1.200000000000 69.483792651433 18.499982324930 23.379154849994
4641 2 -1.200000000000 70.155133643234 22.611089508248 21.152568673804
4642 2 -1.200000000000 70.490804139134 20.144425198257 20.039275585709
4643 2 -1.200000000000 71.497815626836 21.788868071584 23.379154849994
4644 2 -1.200000000000 71.833486122737 19.322203761594 22.265861761899
4645 1 2.400000000000 66.462758188327 18.088871606598 20.039275585709
4646 1 2.400000000000 68.141110667830 14.799985859944 21.152568673804
4647 1 2.400000000000 69.148122155532 16.444428733271 17.812689409519
4648 1 2.400000000000 70.155133643234 18.088871606598 21.152568673804
4649 2 -1.200000000000 68.476781163731 16.855539451603 20.039275585709
4650 2 -1.200000000000 68.812451659631 14.388875141612 18.925982497614
4651 2 -1.200000000000 69.819463147333 16.033318014939 22.265861761899
4652 2 -1.200000000000 70.155133643234 13.566653704949 21.152568673804
4653 2 -1.200000000000 70.826474635035 17.677760888267 18.925982497614
4654 2 -1.200000000000 71.162145130936 15.211096578276 17.812689409519
4655 2 -1.200000000000 72.169156618638 16.855539451603 21.152568673804
4656 2 -1.200000000000 72.504827114538 14.388875141612 20.039275585709
4657 1 2.400000000000 67.134099180128 13.155542986617 17.812689409519
4658 1 2.400000000000 68.812451659631 9.866657239963 18.925982497614
4659 1 2.400000000000 69.819463147333 11.511100113290 15.586103233329
4660 1 2.400000000000 70.826474635035 13.155542986617 18.925982497614
4661 2 -1.200000000000 69.148122155532 11.922210831622 17.812689409519
4662 2 -1.200000000000 69.483792651433 9.455546521631 16.699396321424
4663 2 -1.200000000000 70.490804139134 11.099989394958 20.039275585709
4664 2 -1.200000000000 70.826474635035 8.633325084967 18.925982497614
4665 2 -1.200000000000 71.497815626836 12.744432268285 16.699396321424
4666 2 -1.200000000000 71.833486122737 10.277767958295 15.586103233329
4667 2 -1.200000000000 72.840497610439 11.922210831622 18.925982497614
4668 2 -1.200000000000 73.176168106340 9.455546521631 17.812689409519
4669 1 2.400000000000 67.805440171929 8.222214366636 15.586103233329
4670 1 2.400000000000 69.483792651433 4.933328619981 16.699396321424
4671 1 2.400000000000 70.490804139134 6.577771493308 13.359517057139
4672 1 2.400000000000 71.497815626836 8.222214366636 16.699396321424
4673 2 -1.200000000000 69.819463147333 6.988882211640 15.586103233329
4674 2 -1.200000000000 70.155133643234 4.522217901650 14.472810145234
4675 2 -1.200000000000 71.162145130936 6.166660774977 17.812689409519
4676 2 -1.200000000000 71.497815626836 3.699996464986 16.699396321424
4677 2 -1.200000000000 72.169156618638 7.811103648304 14.472810145234
4678 2 -1.200000000000 72.504827114538 5.344439338313 13.359517057139
4679 2 -1.200000000000 73.511838602240 6.988882211640 16.699396321424
4680 2 -1.200000000000 73.847509098141 4.522217901650 15.586103233329
4681 1 2.400000000000 68.476781163731 3.288885746654 13.359517057139
4682 1 2.400000000000 70.155133643234 -0.000000000000 14.472810145234
4683 1 2.400000000000 71.162145130936 1.644442873327 11.132930880950
4684 1 2.400000000000 72.169156618638 3.288885746654 14.472810145234
4685 2 -1.200000000000 70.490804139134 2.055553591659 13.359517057139
4686 2 -1.200000000000 70.826474635035 35.766632494865 12.246223969044
4687 2 -1.200000000000 71.833486122737 1.233332154995 15.586103233329
4688 2 -1.200000000000 72.169156618638 34.944411058201 14.472810145234
4689 2 -1.200000000000 72.840497610439 2.877775028322 12.246223969045
4690 2 -1.200000000000 73.176168106340 0.411110718332 11.132930880950
4691 2 -1.200000000000 74.183179594042 2.055553591659 14.472810145234
4692 2 -1.200000000000 74.518850089942 35.766632494865 13.359517057139
4693 1 2.400000000000 69.148122155532 16.444428733271 24.492447938089
4694 1 2.400000000000 70.826474635035 13.155542986617 25.605741026184
4695 1 2.400000000000 71.833486122737 14.799985859944 22.265861761899
4696 1 2.400000000000 72.840497610439 16.444428733271 25.605741026184
4697 2 -1.200000000000 71.162145130936 15.211096578276 24.492447938089
4698 2 -1.200000000000 71.497815626836 12.744432268285 23.379154849994
4699 2 -1.200000000000 72.504827114538 14.388875141612 0.000000000000
4700 2 -1.200000000000 72.840497610439 11.922210831622 25.605741026184
4701 2 -1.200000000000 73.511838602240 16.033318014939 23.379154849994
4702 2 -1.200000000000 73.847509098141 13.566653704949 22.265861761899
4703 2 -1.200000000000 74.854520585843 15.211096578276 25.605741026184
4704 2 -1.200000000000 75.190191081743 12.744432268285 24.492447938089
4705 1 2.400000000000 69.819463147333 11.511100113290 22.265861761899
4706 1 2.400000000000 71.497815626836 8.222214366636 23.379154849994
4707 1 2.400000000000 72.504827114538 9.866657239963 20.039275585709
4708 1 2.400000000000 73.511838602240 11.511100113290 23.379154849994
4709 2 -1.200000000000 71.833486122737 10.277767958295 22.265861761899
4710 2 -1.200000000000 72.169156618638 7.811103648304 21.152568673804
4711 2 -1.200000000000 73.176168106340 9.455546521631 24.492447938089
4712 2 -1.200000000000 73.511838602240 6.988882211640 23.379154849994
4713 2 -1.200000000000 74.183179594042 11.099989394958 21.152568673804
4714 2 -1.200000000000 74.518850089942 8.633325084967 20.039275585709
4715 2 -1.200000000000 75.525861577644 10.277767958295 23.379154849994
4716 2 -1.200000000000 75.861532073545 7.811103648304 22.265861761899
4717 1 2.400000000000 70.490804139134 6.577771493308 20.039275585709
4718 1 2.400000000000 72.169156618638 3.288885746654 21.152568673804
4719 1 2.400000000000 73.176168106340 4.933328619981 17.812689409519
4720 1 2.400000000000 74.183179594042 6.577771493308 21.152568673804
4721 2 -1.200000000000 72.504827114538 5.344439338313 20.039275585709
4722 2 -1.200000000000 72.840497610439 2.877775028322 18.925982497614
4723 2 -1.200000000000 73.847509098141 4.522217901650 22.265861761899
4724 2 -1.200000000000 74.183179594042 2.055553591659 21.152568673804
4725 2 -1.200000000000 74.854520585843 6.166660774977 18.925982497614
4726 2 -1.200000000000 75.190191081743 3.699996464986 17.812689409519
4727 2 -1.200000000000 76.197202569445 5.344439338313 21.152568673804
4728 2 -1.200000000000 76.532873065346 2.877775028322 20.039275585709
4729 1 2.400000000000 71.162145130936 1.644442873327 17.812689409519
4730 1 2.400000000000 72.840497610439 34.533300339870 18.925982497614
4731 1 2.400000000000 73.847509098141 -0.000000000000 15.586103233329
4732 1 2.400000000000 74.854520585843 1.644442873327 18.925982497614
4733 2 -1.200000000000 73.176168106340 0.411110718332 17.812689409519
4734 2 -1.200000000000 73.511838602240 34.122189621538 16.699396321424
4735 2 -1.200000000000 74.518850089942 35.766632494865 20.039275585709
4736 2 -1.200000000000 74.854520585843 33.299968184874 18.925982497614
4737 2 -1.200000000000 75.525861577644 1.233332154995 16.699396321424
4738 2 -1.200000000000 75.861532073545 34.944411058201 15.586103233329
4739 2 -1.200000000000 76.868543561247 0.411110718332 18.925982497614
4740 2 -1.200000000000 77.204214057147 34.122189621538 17.812689409519
4741 1 2.400000000000 73.176168106340 4.933328619981 24.492447938089
4742 1 2.400000000000 74.854520585843 1.644442873327 25.605741026184
4743 1 2.400000000000 75.861532073545 3.288885746654 22.265861761899
4744 1 2.400000000000 76.868543561247 4.933328619981 25.605741026184
4745 2 -1.200000000000 75.190191081743 3.699996464986 24.492447938089
4746 2 -1.200000000000 75.525861577644 1.233332154995 23.379154849994
4747 2 -1.200000000000 76.532873065346 2.877775028322 0.000000000000
4748 2 -1.200000000000 76.868543561247 0.411110718332 25.605741026184
4749 2 -1.200000000000 77.539884553048 4.522217901650 23.379154849994
4750 2 -1.200000000000 77.875555048949 2.055553591659 22.265861761899
4751 2 -1.200000000000 78.882566536650 3.699996464986 25.605741026184
4752 2 -1.200000000000 79.218237032551 1.233332154995 24.492447938089
4753 1 2.400000000000 73.847509098141 -0.000000000000 22.265861761899
4754 1 2.400000000000 75.525861577644 32.888857466542 23.379154849994
4755 1 2.400000000000 76.532873065346 34.533300339870 20.039275585709
4756 1 2.400000000000 77.539884553048 -0.000000000000 23.379154849994
4757 2 -1.200000000000 75.861532073545 34.944411058201 22.265861761899
4758 2 -1.200000000000 76.197202569445 32.477746748211 21.152568673804
4759 2 -1.200000000000 77.204214057147 34.122189621538 24.492447938089
4760 2 -1.200000000000 77.539884553048 31.655525311547 23.379154849994
4761 2 -1.200000000000 78.211225544849 35.766632494865 21.152568673804
4762 2 -1.200000000000 78.546896040750 33.299968184874 20.039275585709
4763 2 -1.200000000000 79.553907528452 34.944411058201 23.379154849994
4764 2 -1.200000000000 79.889578024352 32.477746748211 22.265861761899
4765 1 2.400000000000 59.749348270314 31.244414593215 2.226586176190
4766 1 2.400000000000 61.427700749817 27.955528846561 3.339879264285
4767 1 2.400000000000 62.434712237519 29.599971719888 0.000000000000
4768 1 2.400000000000 63.441723725221 31.244414593215 3.339879264285
4769 2 -1.200000000000 61.763371245718 30.011082438220 2.226586176190
4770 2 -1.200000000000 62.099041741618 27.544418128229 1.113293088095
4771 2 -1.200000000000 63.106053229320 29.188861001556 4.453172352380
4772 2 -1.200000000000 63.441723725221 26.722196691566 3.339879264285
4773 2 -1.200000000000 64.113064717022 30.833303874884 1.113293088095
4774 2 -1.200000000000 64.448735212923 28.366639564893 0.000000000000
4775 2 -1.200000000000 65.455746700625 30.011082438220 3.339879264285
4776 2 -1.200000000000 65.791417196526 27.544418128229 2.226586176190
4777 1 2.400000000000 60.420689262115 26.311085973234 0.000000000000
4778 1 2.400000000000 62.099041741618 23.022200226580 1.113293088095
4779 1 2.400000000000 63.106053229320 24.666643099907 24.492447938089
4780 1 2.400000000000 64.113064717022 26.311085973234 1.113293088095
4781 2 -1.200000000000 62.434712237519 25.077753818239 0.000000000000
4782 2 -1.200000000000 62.770382733420 22.611089508248 25.605741026184
4783 2 -1.200000000000 63.777394221122 24.255532381575 2.226586176190
4784 2 -1.200000000000 64.113064717022 21.788868071584 1.113293088095
4785 2 -1.200000000000 64.784405708824 25.899975254902 25.605741026184
4786 2 -1.200000000000 65.120076204724 23.433310944912 24.492447938089
4787 2 -1.200000000000 66.127087692426 25.077753818239 1.113293088095
4788 2 -1.200000000000 66.462758188327 22.611089508248 0.000000000000
4789 1 2.400000000000 61.763371245718 34.533300339870 8.906344704760
4790 1 2.400000000000 63.441723725221 31.244414593215 10.019637792855
4791 1 2.400000000000 64.448735212923 32.888857466542 6.679758528570
4792 1 2.400000000000 65.455746700625 34.533300339870 10.019637792855
4793 2 -1.200000000000 63.777394221122 33.299968184874 8.906344704760
4794 2 -1.200000000000 64.113064717022 30.833303874884 7.793051616665
4795 2 -1.200000000000 65.120076204724 32.477746748211 11.132930880950
4796 2 -1.200000000000 65.455746700625 30.011082438220 10.019637792855
4797 2 -1.200000000000 66.127087692426 34.122189621538 7.793051616665
4798 2 -1.200000000000 66.462758188327 31.655525311547 6.679758528570
4799 2 -1.200000000000 67.469769676029 33.299968184874 10.019637792855
4800 2 -1.200000000000 67.805440171929 30.833303874884 8.906344704760
4801 1 2.400000000000 62.434712237519 29.599971719888 6.679758528570
4802 1 2.400000000000 64.113064717022 26.311085973234 7.793051616665
4803 1 2.400000000000 65.120076204724 27.955528846561 4.453172352380
4804 1 2.400000000000 66.127087692426 29.599971719888 7.793051616665
4805 2 -1.200000000000 64.448735212923 28.366639564893 6.679758528570
4806 2 -1.200000000000 64.784405708824 25.899975254902 5.566465440475
4807 2 -1.200000000000 65.791417196526 27.544418128229 8.906344704760
4808 2 -1.200000000000 66.127087692426 25.077753818239 7.793051616665
4809 2 -1.200000000000 66.798428684227 29.188861001556 5.566465440475
4810 2 -1.200000000000 67.134099180128 26.722196691566 4.453172352380
4811 2 -1.200000000000 68.141110667830 28.366639564893 7.793051616665
4812 2 -1.200000000000 68.476781163731 25.899975254902 6.679758528570
4813 1 2.400000000000 63.106053229320 24.666643099907 4.453172352380
4814 1 2.400000000000 64.784405708824 21.377757353253 5.566465440475
4815 1 2.400000000000 65.791417196526 23.022200226580 2.226586176190
4816 1 2.400000000000 66.798428684227 24.666643099907 5.566465440475
4817 2 -1.200000000000 65.120076204724 23.433310944912 4.453172352380
4818 2 -1.200000000000 65.455746700625 20.966646634921 3.339879264285
4819 2 -1.200000000000 66.462758188327 22.611089508248 6.679758528570
4820 2 -1.200000000000 66.798428684227 20.144425198257 5.566465440475
4821 2 -1.200000000000 67.469769676029 24.255532381575 3.339879264285
4822 2 -1.200000000000 67.805440171929 21.788868071584 2.226586176190
4823 2 -1.200000000000 68.812451659631 23.433310944912 5.566465440475
4824 2 -1.200000000000 69.148122155532 20.966646634921 4.453172352380
4825 1 2.400000000000 63.777394221122 19.733314479925 2.226586176190
4826 1 2.400000000000 65.455746700625 16.444428733271 3.339879264285
4827 1 2.400000000000 66.462758188327 18.088871606598 0.000000000000
4828 1 2.400000000000 67.469769676029 19.733314479925 3.339879264285
4829 2 -1.200000000000 65.791417196526 18.499982324930 2.226586176190
4830 2 -1.200000000000 66.127087692426 16.033318014939 1.113293088095
4831 2 -1.200000000000 67.134099180128 17.677760888267 4.453172352380
4832 2 -1.200000000000 67.469769676029 15.211096578276 3.339879264285
4833 2 -1.200000000000 68.141110667830 19.322203761594 1.113293088095
4834 2 -1.200000000000 68.476781163731 16.855539451603 0.000000000000
4835 2 -1.200000000000 69.483792651433 18.499982324930 3.339879264285
4836 2 -1.200000000000 69.819463147333 16.033318014939 2.226586176190
4837 1 2.400000000000 64.448735212923 14.799985859944 0.000000000000
4838 1 2.400000000000 66.127087692426 11.511100113290 1.113293088095
4839 1 2.400000000000 67.134099180128 13.155542986617 24.492447938089
4840 1 2.400000000000 68.141110667830 14.799985859944 1.113293088095
4841 2 -1.200000000000 66.462758188327 13.566653704949 0.000000000000
4842 2 -1.200000000000 66.798428684227 11.099989394958 25.605741026184
4843 2 -1.200000000000 67.805440171929 12.744432268285 2.226586176190
4844 2 -1.200000000000 68.141110667830 10.277767958295 1.113293088095
4845 2 -1.200000000000 68.812451659631 14.388875141612 25.605741026184
4846 2 -1.200000000000 69.148122155532 11.922210831622 24.492447938089
4847 2 -1.200000000000 70.155133643234 13.566653704949 1.113293088095
4848 2 -1.200000000000 70.490804139134 11.099989394958 0.000000000000
4849 1 2.400000000000 64.448735212923 32.888857466542 13.359517057139
4850 1 2.400000000000 66.127087692426 29.599971719888 14.472810145234
4851 1 2.400000000000 67.134099180128 31.244414593215 11.132930880950
4852 1 2.400000000000 68.141110667830 32.888857466542 14.472810145234
4853 2 -1.200000000000 66.462758188327 31.655525311547 13.359517057139
4854 2 -1.200000000000 66.798428684227 29.188861001556 12.246223969045
4855 2 -1.200000000000 67.805440171929 30.833303874884 15.586103233329
4856 2 -1.200000000000 68.141110667830 28.366639564893 14.472810145234
4857 2 -1.200000000000 68.812451659631 32.477746748211 12.246223969044
4858 2 -1.200000000000 69.148122155532 30.011082438220 11.132930880950
4859 2 -1.200000000000 70.155133643234 31.655525311547 14.472810145234
4860 2 -1.200000000000 70.490804139134 29.188861001556 13.359517057139
4861 1 2.400000000000 65.120076204724 27.955528846561 11.132930880950
4862 1 2.400000000000 66.798428684227 24.666643099907 12.246223969044
4863 1 2.400000000000 67.805440171929 26.311085973234 8.906344704760
4864 1 2.400000000000 68.812451659631 27.955528846561 12.246223969044
4865 2 -1.200000000000 67.134099180128 26.722196691566 11.132930880950
4866 2 -1.200000000000 67.469769676029 24.255532381575 10.019637792855
4867 2 -1.200000000000 68.476781163731 25.899975254902 13.359517057139
4868 2 -1.200000000000 68.812451659631 23.433310944912 12.246223969044
4869 2 -1.200000000000 69.483792651433 27.544418128229 10.019637792855
4870 2 -1.200000000000 69.819463147333 25.077753818239 8.906344704760
4871 2 -1.200000000000 70.826474635035 26.722196691566 12.246223969044
4872 2 -1.200000000000 71.162145130936 24.255532381575 11.132930880950
4873 1 2.400000000000 65.791417196526 23.022200226580 8.906344704760
4874 1 2.400000000000 67.469769676029 19.733314479925 10.019637792855
4875 1 2.400000000000 68.476781163731 21.377757353253 6.679758528570
4876 1 2.400000000000 69.483792651433 23.022200226580 10.019637792855
4877 2 -1.200000000000 67.805440171929 21.788868071584 8.906344704760
4878 2 -1.200000000000 68.141110667830 19.322203761594 7.793051616665
4879 2 -1.200000000000 69.148122155532 20.966646634921 11.132930880950
4880 2 -1.200000000000 69.483792651433 18.499982324930 10.019637792855
4881 2 -1.200000000000 70.155133643234 22.611089508248 7.793051616665
4882 2 -1.200000000000 70.490804139134 20.144425198257 6.679758528570
4883 2 -1.200000000000 71.497815626836 21.788868071584 10.019637792855
4884 2 -1.200000000000 71.833486122737 19.322203761594 8.906344704760
4885 1 2.400000000000 66.462758188327 18.088871606598 6.679758528570
4886 1 2.400000000000 68.141110667830 14.799985859944 7.793051616665
4887 1 2.400000000000 69.148122155532 16.444428733271 4.453172352380
4888 1 2.400000000000 70.155133643234 18.088871606598 7.793051616665
4889 2 -1.200000000000 68.476781163731 16.855539451603 6.679758528570
4890 2 -1.200000000000 68.812451659631 14.388875141612 5.566465440475
4891 2 -1.200000000000 69.819463147333 16.033318014939 8.906344704760
4892 2 -1.200000000000 70.155133643234 13.566653704949 7.793051616665
4893 2 -1.200000000000 70.826474635035 17.677760888267 5.566465440475
4894 2 -1.200000000000 71.162145130936 15.211096578276 4.453172352380
4895 2 -1.200000000000 72.169156618638 16.855539451603 7.793051616665
4896 2 -1.200000000000 72.504827114538 14.388875141612 6.679758528570
4897 1 2.400000000000 67.134099180128 13.155542986617 4.453172352380
4898 1 2.400000000000 68.812451659631 9.866657239963 5.566465440475
4899 1 2.400000000000 69.819463147333 11.511100113290 2.226586176190
4900 1 2.400000000000 70.826474635035 13.155542986617 5.566465440475
4901 2 -1.200000000000 69.148122155532 11.922210831622 4.453172352380
4902 2 -1.200000000000 69.483792651433 9.455546521631 3.339879264285
4903 2 -1.200000000000 70.490804139134 11.099989394958 6.679758528570
4904 2 -1.200000000000 70.826474635035 8.633325084967 5.566465440475
4905 2 -1.200000000000 71.497815626836 12.744432268285 3.339879264285
4906 2 -1.200000000000 71.833486122737 10.277767958295 2.226586176190
4907 2 -1.200000000000 72.840497610439 11.922210831622 5.566465440475
4908 2 -1.200000000000 73.176168106340 9.455546521631 4.453172352380
4909 1 2.400000000000 67.805440171929 8.222214366636 2.226586176190
4910 1 2.400000000000 69.483792651433 4.933328619981 3.339879264285
4911 1 2.400000000000 70.490804139134 6.577771493308 0.000000000000
4912 1 2.400000000000 71.497815626836 8.222214366636 3.339879264285
4913 2 -1.200000000000 69.819463147333 6.988882211640 2.226586176190
4914 2 -1.200000000000 70.155133643234 4.522217901650 1.113293088095
4915 2 -1.200000000000 71.162145130936 6.166660774977 4.453172352380
4916 2 -1.200000000000 71.497815626836 3.699996464986 3.339879264285
4917 2 -1.200000000000 72.169156618638 7.811103648304 1.113293088095
4918 2 -1.200000000000 72.504827114538 5.344439338313 0.000000000000
4919 2 -1.200000000000 73.511838602240 6.988882211640 3.339879264285
4920 2 -1.200000000000 73.847509098141 4.522217901650 2.226586176190
4921 1 2.400000000000 68.476781163731 3.288885746654 0.000000000000
4922 1 2.400000000000 70.155133643234 -0.000000000000 1.113293088095
4923 1 2.400000000000 71.162145130936 1.644442873327 24.492447938089
4924 1 2.400000000000 72.169156618638 3.288885746654 1.113293088095
4925 2 -1.200000000000 70.490804139134 2.055553591659 0.000000000000
4926 2 -1.200000000000 70.826474635035 35.766632494865 25.605741026184
4927 2 -1.200000000000 71.833486122737 1.233332154995 2.226586176190
4928 2 -1.200000000000 72.169156618638 34.944411058201 1.113293088095
4929 2 -1.200000000000 72.840497610439 2.877775028322 25.605741026184
4930 2 -1.200000000000 73.176168106340 0.411110718332 24.492447938089
4931 2 -1.200000000000 74.183179594042 2.055553591659 1.113293088095
4932 2 -1.200000000000 74.518850089942 35.766632494865 0.000000000000
4933 1 2.400000000000 67.134099180128 31.244414593215 17.812689409519
4934 1 2.400000000000 68.812451659631 27.955528846561 18.925982497614
4935 1 2.400000000000 69.819463147333 29.599971719888 15.586103233329
4936 1 2.400000000000 70.826474635035 31.244414593215 18.925982497614
4937 2 -1.200000000000 69.148122155532 30.011082438220 17.812689409519
4938 2 -1.200000000000 69.483792651433 27.544418128229 16.699396321424
4939 2 -1.200000000000 70.490804139134 29.188861001556 20.039275585709
4940 2 -1.200000000000 70.826474635035 26.722196691566 18.925982497614
4941 2 -1.200000000000 71.497815626836 30.833303874884 16.699396321424
4942 2 -1.200000000000 71.833486122737 28.366639564893 15.586103233329
4943 2 -1.200000000000 72.840497610439 30.011082438220 18.925982497614
4944 2 -1.200000000000 73.176168106340 27.544418128229 17.812689409519
4945 1 2.400000000000 67.805440171929 26.311085973234 15.586103233329
4946 1 2.400000000000 69.483792651433 23.022200226580 16.699396321424
4947 1 2.400000000000 70.490804139134 24.666643099907 13.359517057139
4948 1 2.400000000000 71.497815626836 26.311085973234 16.699396321424
4949 2 -1.200000000000 69.819463147333 25.077753818239 15.586103233329
4950 2 -1.200000000000 70.155133643234 22.611089508248 14.472810145234
4951 2 -1.200000000000 71.162145130936 24.255532381575 17.812689409519
4952 2 -1.200000000000 71.497815626836 21.788868071584 16.699396321424
4953 2 -1.200000000000 72.169156618638 25.899975254902 14.472810145234
4954 2 -1.200000000000 72.504827114538 23.433310944912 13.359517057139
4955 2 -1.200000000000 73.511838602240 25.077753818239 16.699396321424
4956 2 -1.200000000000 73.847509098141 22.611089508248 15.586103233329
4957 1 2.400000000000 68.476781163731 21.377757353253 13.359517057139
4958 1 2.400000000000 70.155133643234 18.088871606598 14.472810145234
4959 1 2.400000000000 71.162145130936 19.733314479925 11.132930880950
4960 1 2.400000000000 72.169156618638 21.377757353253 14.472810145234
4961 2 -1.200000000000 70.490804139134 20.144425198257 13.359517057139
4962 2 -1.200000000000 70.826474635035 17.677760888267 12.246223969045
4963 2 -1.200000000000 71.833486122737 19.322203761594 15.586103233329
4964 2 -1.200000000000 72.169156618638 16.855539451603 14.472810145234
4965 2 -1.200000000000 72.840497610439 20.966646634921 12.246223969044
4966 2 -1.200000000000 73.176168106340 18.499982324930 11.132930880950
4967 2 -1.200000000000 74.183179594042 20.144425198257 14.472810145234
4968 2 -1.200000000000 74.518850089942 17.677760888267 13.359517057139
4969 1 2.400000000000 69.148122155532 16.444428733271 11.132930880950
4970 1 2.400000000000 70.826474635035 13.155542986617 12.246223969044
4971 1 2.400000000000 71.833486122737 14.799985859944 8.906344704760
4972 1 2.400000000000 72.840497610439 16.444428733271 12.246223969044
4973 2 -1.200000000000 71.162145130936 15.211096578276 11.132930880950
4974 2 -1.200000000000 71.497815626836 12.744432268285 10.019637792855
4975 2 -1.200000000000 72.504827114538 14.388875141612 13.359517057139
4976 2 -1.200000000000 72.840497610439 11.922210831622 12.246223969044
4977 2 -1.200000000000 73.511838602240 16.033318014939 10.019637792855
4978 2 -1.200000000000 73.847509098141 13.566653704949 8.906344704760
4979 2 -1.200000000000 74.854520585843 15.211096578276 12.246223969044
4980 2 -1.200000000000 75.190191081743 12.744432268285 11.132930880950
4981 1 2.400000000000 69.819463147333 11.511100113290 8.906344704760
4982 1 2.400000000000 71.497815626836 8.222214366636 10.019637792855
4983 1 2.400000000000 72.504827114538 9.866657239963 6.679758528570
4984 1 2.400000000000 73.511838602240 11.511100113290 10.019637792855
4985 2 -1.200000000000 71.833486122737 10.277767958295 8.906344704760
4986 2 -1.200000000000 72.169156618638 7.811103648304 7.793051616665
4987 2 -1.200000000000 73.176168106340 9.455546521631 11.132930880950
4988 2 -1.200000000000 73.511838602240 6.988882211640 10.019637792855
4989 2 -1.200000000000 74.183179594042 11.099989394958 7.793051616665
4990 2 -1.200000000000 74.518850089942 8.633325084967 6.679758528570
4991 2 -1.200000000000 75.525861577644 10.277767958295 10.019637792855
4992 2 -1.200000000000 75.861532073545 7.811103648304 8.906344704760
4993 1 2.400000000000 70.490804139134 6.577771493308 6.679758528570
4994 1 2.400000000000 72.169156618638 3.288885746654 7.793051616665
4995 1 2.400000000000 73.176168106340 4.933328619981 4.453172352380
4996 1 2.400000000000 74.183179594042 6.577771493308 7.793051616665
4997 2 -1.200000000000 72.504827114538 5.344439338313 6.679758528570
4998 2 -1.200000000000 72.840497610439 2.877775028322 5.566465440475
4999 2 -1.200000000000 73.847509098141 4.522217901650 8.906344704760
5000 2 -1.200000000000 74.183179594042 2.055553591659 7.793051616665
5001 2 -1.200000000000 74.854520585843 6.166660774977 5.566465440475
5002 2 -1.200000000000 75.190191081743 3.699996464986 4.453172352380
5003 2 -1.200000000000 76.197202569445 5.344439338313 7.793051616665
5004 2 -1.200000000000 76.532873065346 2.877775028322 6.679758528570
5005 1 2.400000000000 71.162145130936 1.644442873327 4.453172352380
5006 1 2.400000000000 72.840497610439 34.533300339870 5.566465440475
5007 1 2.400000000000 73.847509098141 -0.000000000000 2.226586176190
5008 1 2.400000000000 74.854520585843 1.644442873327 5.566465440475
5009 2 -1.200000000000 73.176168106340 0.411110718332 4.453172352380
5010 2 -1.200000000000 73.511838602240 34.122189621538 3.339879264285
5011 2 -1.200000000000 74.518850089942 35.766632494865 6.679758528570
5012 2 -1.200000000000 74.854520585843 33.299968184874 5.566465440475
5013 2 -1.200000000000 75.525861577644 1.233332154995 3.339879264285
5014 2 -1.200000000000 75.861532073545 34.944411058201 2.226586176190
5015 2 -1.200000000000 76.868543561247 0.411110718332 5.566465440475
5016 2 -1.200000000000 77.204214057147 34.122189621538 4.453172352380
5017 1 2.400000000000 69.148122155532 34.533300339870 24.492447938089
5018 1 2.400000000000 70.826474635035 31.244414593215 25.605741026184
5019 1 2.400000000000 71.833486122737 32.888857466542 22.265861761899
5020 1 2.400000000000 72.840497610439 34.533300339870 25.605741026184
5021 2 -1.200000000000 71.162145130936 33.299968184874 24.492447938089
5022 2 -1.200000000000 71.497815626836 30.833303874884 23.379154849994
5023 2 -1.200000000000 72.504827114538 32.477746748211 0.000000000000
5024 2 -1.200000000000 72.840497610439 30.011082438220 25.605741026184
5025 2 -1.200000000000 73.511838602240 34.122189621538 23.379154849994
5026 2 -1.200000000000 73.847509098141 31.655525311547 22.265861761899
5027 2 -1.200000000000 74.854520585843 33.299968184874 25.605741026184
5028 2 -1.200000000000 75.190191081743 30.833303874884 24.492447938089
5029 1 2.400000000000 69.819463147333 29.599971719888 22.265861761899
5030 1 2.400000000000 71.497815626836 26.311085973234 23.379154849994
5031 1 2.400000000000 72.504827114538 27.955528846561 20.039275585709
5032 1 2.400000000000 73.511838602240 29.599971719888 23.379154849994
5033 2 -1.200000000000 71.833486122737 28.366639564893 22.265861761899
5034 2 -1.200000000000 72.169156618638 25.899975254902 21.152568673804
5035 2 -1.200000000000 73.176168106340 27.544418128229 24.492447938089
5036 2 -1.200000000000 73.511838602240 25.077753818239 23.379154849994
5037 2 -1.200000000000 74.183179594042 29.188861001556 21.152568673804
5038 2 -1.200000000000 74.518850089942 26.722196691566 20.039275585709
5039 2 -1.200000000000 75.525861577644 28.366639564893 23.379154849994
5040 2 -1.200000000000 75.861532073545 25.899975254902 22.265861761899
5041 1 2.400000000000 70.490804139134 24.666643099907 20.039275585709
5042 1 2.400000000000 72.169156618638 21.377757353253 21.152568673804
5043 1 2.400000000000 73.176168106340 23.022200226580 17.812689409519
5044 1 2.400000000000 74.183179594042 24.666643099907 21.152568673804
5045 2 -1.200000000000 72.504827114538 23.433310944912 20.039275585709
5046 2 -1.200000000000 72.840497610439 20.966646634921 18.925982497614
5047 2 -1.200000000000 73.847509098141 22.611089508248 22.265861761899
5048 2 -1.200000000000 74.183179594042 20.144425198257 21.152568673804
5049 2 -1.200000000000 74.854520585843 24.255532381575 18.925982497614
5050 2 -1.200000000000 75.190191081743 21.788868071584 17.812689409519
5051 2 -1.200000000000 76.197202569445 23.433310944912 21.152568673804
5052 2 -1.200000000000 76.532873065346 20.966646634921 20.039275585709
5053 1 2.400000000000 71.162145130936 19.733314479925 17.812689409519
5054 1 2.400000000000 72.840497610439 16.444428733271 18.925982497614
5055 1 2.400000000000 73.847509098141 18.088871606598 15.586103233329
5056 1 2.400000000000 74.854520585843 19.733314479925 18.925982497614
5057 2 -1.200000000000 73.176168106340 18.499982324930 17.812689409519
5058 2 -1.200000000000 73.511838602240 16.033318014939 16.699396321424
5059 2 -1.200000000000 74.518850089942 17.677760888267 20.039275585709
5060 2 -1.200000000000 74.854520585843 15.211096578276 18.925982497614
5061 2 -1.200000000000 75.525861577644 19.322203761594 16.699396321424
5062 2 -1.200000000000 75.861532073545 16.855539451603 15.586103233329
5063 2 -1.200000000000 76.868543561247 18.499982324930 18.925982497614
5064 2 -1.200000000000 77.204214057147 16.033318014939 17.812689409519
5065 1 2.400000000000 71.833486122737 14.799985859944 15.586103233329
5066 1 2.400000000000 73.511838602240 11.511100113290 16.699396321424
5067 1 2.400000000000 74.518850089942 13.155542986617 13.359517057139
5068 1 2.400000000000 75.525861577644 14.799985859944 16.699396321424
5069 2 -1.200000000000 73.847509098141 13.566653704949 15.586103233329
5070 2 -1.200000000000 74.183179594042 11.099989394958 14.472810145234
5071 2 -1.200000000000 75.190191081743 12.744432268285 17.812689409519
5072 2 -1.200000000000 75.525861577644 10.277767958295 16.699396321424
5073 2 -1.200000000000 76.197202569445 14.388875141612 14.472810145234
5074 2 -1.200000000000 76.532873065346 11.922210831622 13.359517057139
5075 2 -1.200000000000 77.539884553048 13.566653704949 16.699396321424
5076 2 -1.200000000000 77.875555048949 11.099989394958 15.586103233329
5077 1 2.400000000000 72.504827114538 9.866657239963 13.359517057139
5078 1 2.400000000000 74.183179594042 6.577771493308 14.472810145234
5079 1 2.400000000000 75.190191081743 8.222214366636 11.132930880950
5080 1 2.400000000000 76.197202569445 9.866657239963 14.472810145234
5081 2 -1.200000000000 74.518850089942 8.633325084967 13.359517057139
5082 2 -1.200000000000 74.854520585843 6.166660774977 12.246223969045
5083 2 -1.200000000000 75.861532073545 7.811103648304 15.586103233329
5084 2 -1.200000000000 76.197202569445 5.344439338313 14.472810145234
5085 2 -1.200000000000 76.868543561247 9.455546521631 12.246223969044
5086 2 -1.200000000000 77.204214057147 6.988882211640 11.132930880950
5087 2 -1.200000000000 78.211225544849 8.633325084967 14.472810145234
5088 2 -1.200000000000 78.546896040750 6.166660774977 13.359517057139
5089 1 2.400000000000 73.176168106340 4.933328619981 11.132930880950
5090 1 2.400000000000 74.854520585843 1.644442873327 12.246223969044
5091 1 2.400000000000 75.861532073545 3.288885746654 8.906344704760
5092 1 2.400000000000 76.868543561247 4.933328619981 12.246223969044
5093 2 -1.200000000000 75.190191081743 3.699996464986 11.132930880950
5094 2 -1.200000000000 75.525861577644 1.233332154995 10.019637792855
5095 2 -1.200000000000 76.532873065346 2.877775028322 13.359517057139
5096 2 -1.200000000000 76.868543561247 0.411110718332 12.246223969044
5097 2 -1.200000000000 77.539884553048 4.522217901650 10.019637792855
5098 2 -1.200000000000 77.875555048949 2.055553591659 8.906344704760
5099 2 -1.200000000000 78.882566536650 3.699996464986 12.246223969044
5100 2 -1.200000000000 79.218237032551 1.233332154995 11.132930880950
5101 1 2.400000000000 73.847509098141 -0.000000000000 8.906344704760
5102 1 2.400000000000 75.525861577644 32.888857466542 10.019637792855
5103 1 2.400000000000 76.532873065346 34.533300339870 6.679758528570
5104 1 2.400000000000 77.539884553048 -0.000000000000 10.019637792855
5105 2 -1.200000000000 75.861532073545 34.944411058201 8.906344704760
5106 2 -1.200000000000 76.197202569445 32.477746748211 7.793051616665
5107 2 -1.200000000000 77.204214057147 34.122189621538 11.132930880950
5108 2 -1.200000000000 77.539884553048 31.655525311547 10.019637792855
5109 2 -1.200000000000 78.211225544849 35.766632494865 7.793051616665
5110 2 -1.200000000000 78.546896040750 33.299968184874 6.679758528570
5111 2 -1.200000000000 79.553907528452 34.944411058201 10.019637792855
5112 2 -1.200000000000 79.889578024352 32.477746748211 8.906344704760
5113 1 2.400000000000 73.176168106340 23.022200226580 24.492447938089
5114 1 2.400000000000 74.854520585843 19.733314479925 25.605741026184
5115 1 2.400000000000 75.861532073545 21.377757353253 22.265861761899
5116 1 2.400000000000 76.868543561247 23.022200226580 25.605741026184
5117 2 -1.200000000000 75.190191081743 21.788868071584 24.492447938089
5118 2 -1.200000000000 75.525861577644 19.322203761594 23.379154849994
5119 2 -1.200000000000 76.532873065346 20.966646634921 0.000000000000
5120 2 -1.200000000000 76.868543561247 18.499982324930 25.605741026184
5121 2 -1.200000000000 77.539884553048 22.611089508248 23.379154849994
5122 2 -1.200000000000 77.875555048949 20.144425198257 22.265861761899
5123 2 -1.200000000000 78.882566536650 21.788868071584 25.605741026184
5124 2 -1.200000000000 79.218237032551 19.322203761594 24.492447938089
5125 1 2.400000000000 73.847509098141 18.088871606598 22.265861761899
5126 1 2.400000000000 75.525861577644 14.799985859944 23.379154849994
5127 1 2.400000000000 76.532873065346 16.444428733271 20.039275585709
5128 1 2.400000000000 77.539884553048 18.088871606598 23.379154849994
5129 2 -1.200000000000 75.861532073545 16.855539451603 22.265861761899
5130 2 -1.200000000000 76.197202569445 14.388875141612 21.152568673804
5131 2 -1.200000000000 77.204214057147 16.033318014939 24.492447938089
5132 2 -1.200000000000 77.539884553048 13.566653704949 23.379154849994
5133 2 -1.200000000000 78.211225544849 17.677760888267 21.152568673804
5134 2 -1.200000000000 78.546896040750 15.211096578276 20.039275585709
5135 2 -1.200000000000 79.553907528452 16.855539451603 23.379154849994
5136 2 -1.200000000000 79.889578024352 14.388875141612 22.265861761899
5137 1 2.400000000000 74.518850089942 13.155542986617 20.039275585709
5138 1 2.400000000000 76.197202569445 9.866657239963 21.152568673804
5139 1 2.400000000000 77.204214057147 11.511100113290 17.812689409519
5140 1 2.400000000000 78.211225544849 13.155542986617 21.152568673804
5141 2 -1.200000000000 76.532873065346 11.922210831622 20.039275585709
5142 2 -1.200000000000 76.868543561247 9.455546521631 18.925982497614
5143 2 -1.200000000000 77.875555048949 11.099989394958 22.265861761899
5144 2 -1.200000000000 78.211225544849 8.633325084967 21.152568673804
5145 2 -1.200000000000 78.882566536650 12.744432268285 18.925982497614
5146 2 -1.200000000000 79.218237032551 10.277767958295 17.812689409519
5147 2 -1.200000000000 80.225248520253 11.922210831622 21.152568673804
5148 2 -1.200000000000 80.560919016154 9.455546521631 20.039275585709
5149 1 2.400000000000 75.190191081743 8.222214366636 17.812689409519
5150 1 2.400000000000 76.868543561247 4.933328619981 18.925982497614
5151 1 2.400000000000 77.875555048949 6.577771493308 15.586103233329
5152 1 2.400000000000 78.882566536650 8.222214366636 18.925982497614
5153 2 -1.200000000000 77.204214057147 6.988882211640 17.812689409519
5154 2 -1.200000000000 77.539884553048 4.522217901650 16.699396321424
5155 2 -1.200000000000 78.546896040750 6.166660774977 20.039275585709
5156 2 -1.200000000000 78.882566536650 3.699996464986 18.925982497614
5157 2 -1.200000000000 79.553907528452 7.811103648304 16.699396321424
5158 2 -1.200000000000 79.889578024352 5.344439338313 15.586103233329
5159 2 -1.200000000000 80.896589512054 6.988882211640 18.925982497614
5160 2 -1.200000000000 81.232260007955 4.522217901650 17.812689409519
5161 1 2.400000000000 75.861532073545 3.288885746654 15.586103233329
5162 1 2.400000000000 77.539884553048 -0.000000000000 16.699396321424
5163 1 2.400000000000 78.546896040750 1.644442873327 13.359517057139
5164 1 2.400000000000 79.553907528452 3.288885746654 16.699396321424
5165 2 -1.200000000000 77.875555048949 2.055553591659 15.586103233329
5166 2 -1.200000000000 78.211225544849 35.766632494865 14.472810145234
5167 2 -1.200000000000 79.218237032551 1.233332154995 17.812689409519
5168 2 -1.200000000000 79.553907528452 34.944411058201 16.699396321424
5169 2 -1.200000000000 80.225248520253 2.877775028322 14.472810145234
5170 2 -1.200000000000 80.560919016154 0.411110718332 13.359517057139
5171 2 -1.200000000000 81.567930503856 2.055553591659 16.699396321424
5172 2 -1.200000000000 81.903600999756 35.766632494865 15.586103233329
5173 1 2.400000000000 77.204214057147 11.511100113290 24.492447938089
5174 1 2.400000000000 78.882566536650 8.222214366636 25.605741026184
5175 1 2.400000000000 79.889578024352 9.866657239963 22.265861761899
5176 1 2.400000000000 80.896589512054 11.511100113290 25.605741026184
5177 2 -1.200000000000 79.218237032551 10.277767958295 24.492447938089
5178 2 -1.200000000000 79.553907528452 7.811103648304 23.379154849994
5179 2 -1.200000000000 80.560919016154 9.455546521631 0.000000000000
5180 2 -1.200000000000 80.896589512054 6.988882211640 25.605741026184
5181 2 -1.200000000000 81.567930503856 11.099989394958 23.379154849994
5182 2 -1.200000000000 81.903600999756 8.633325084967 22.265861761899
5183 2 -1.200000000000 82.910612487458 10.277767958295 25.605741026184
5184 2 -1.200000000000 83.246282983359 7.811103648304 24.492447938089
5185 1 2.400000000000 77.875555048949 6.577771493308 22.265861761899
5186 1 2.400000000000 79.553907528452 3.288885746654 23.379154849994
5187 1 2.400000000000 80.560919016154 4.933328619981 20.039275585709
5188 1 2.400000000000 81.567930503856 6.577771493308 23.379154849994
5189 2 -1.200000000000 79.889578024352 5.344439338313 22.265861761899
5190 2 -1.200000000000 80.225248520253 2.877775028322 21.152568673804
5191 2 -1.200000000000 81.232260007955 4.522217901650 24.492447938089
5192 2 -1.200000000000 81.567930503856 2.055553591659 23.379154849994
5193 2 -1.200000000000 82.239271495657 6.166660774977 21.152568673804
5194 2 -1.200000000000 82.574941991558 3.699996464986 20.039275585709
5195 2 -1.200000000000 83.581953479259 5.344439338313 23.379154849994
5196 2 -1.200000000000 83.917623975160 2.877775028322 22.265861761899
5197 1 2.400000000000 78.546896040750 1.644442873327 20.039275585709
5198 1 2.400000000000 80.225248520253 34.533300339870 21.152568673804
5199 1 2.400000000000 81.232260007955 -0.000000000000 17.812689409519
5200 1 2.400000000000 82.239271495657 1.644442873327 21.152568673804
5201 2 -1.200000000000 80.560919016154 0.411110718332 20.039275585709
5202 2 -1.200000000000 80.896589512054 34.122189621538 18.925982497614
5203 2 -1.200000000000 81.903600999756 35.766632494865 22.265861761899
5204 2 -1.200000000000 82.239271495657 33.299968184874 21.152568673804
5205 2 -1.200000000000 82.910612487458 1.233332154995 18.925982497614
5206 2 -1.200000000000 83.246282983359 34.944411058201 17.812689409519
5207 2 -1.200000000000 84.253294471061 0.411110718332 21.152568673804
5208 2 -1.200000000000 84.588964966961 34.122189621538 20.039275585709
5209 1 2.400000000000 81.232260007955 -0.000000000000 24.492447938089
5210 1 2.400000000000 82.910612487458 32.888857466542 25.605741026184
5211 1 2.400000000000 83.917623975160 34.533300339870 22.265861761899
5212 1 2.400000000000 84.924635462862 -0.000000000000 25.605741026184
5213 2 -1.200000000000 83.246282983359 34.944411058201 24.492447938089
5214 2 -1.200000000000 83.581953479259 32.477746748211 23.379154849994
5215 2 -1.200000000000 84.588964966961 34.122189621538 0.000000000000
5216 2 -1.200000000000 84.924635462862 31.655525311547 25.605741026184
5217 2 -1.200000000000 85.595976454663 35.766632494865 23.379154849994
5218 2 -1.200000000000 85.931646950564 33.299968184874 22.265861761899
5219 2 -1.200000000000 86.938658438266 34.944411058201 25.605741026184
5220 2 -1.200000000000 87.274328934167 32.477746748211 24.492447938089
5221 1 2.400000000000 64.448735212923 32.888857466542 0.000000000000
5222 1 2.400000000000 66.127087692426 29.599971719888 1.113293088095
5223 1 2.400000000000 67.134099180128 31.244414593215 24.492447938089
5224 1 2.400000000000 68.141110667830 32.888857466542 1.113293088095
5225 2 -1.200000000000 66.462758188327 31.655525311547 0.000000000000
5226 2 -1.200000000000 66.798428684227 29.188861001556 25.605741026184
5227 2 -1.200000000000 67.805440171929 30.833303874884 2.226586176190
5228 2 -1.200000000000 68.141110667830 28.366639564893 1.113293088095
5229 2 -1.200000000000 68.812451659631 32.477746748211 25.605741026184
5230 2 -1.200000000000 69.148122155532 30.011082438220 24.492447938089
5231 2 -1.200000000000 70.155133643234 31.655525311547 1.113293088095
5232 2 -1.200000000000 70.490804139134 29.188861001556 0.000000000000
5233 1 2.400000000000 67.134099180128 31.244414593215 4.453172352380
5234 1 2.400000000000 68.812451659631 27.955528846561 5.566465440475
5235 1 2.400000000000 69.819463147333 29.599971719888 2.226586176190
5236 1 2.400000000000 70.826474635035 31.244414593215 5.566465440475
5237 2 -1.200000000000 69.148122155532 30.011082438220 4.453172352380
5238 2 -1.200000000000 69.483792651433 27.544418128229 3.339879264285
5239 2 -1.200000000000 70.490804139134 29.188861001556 6.679758528570
5240 2 -1.200000000000 70.826474635035 26.722196691566 5.566465440475
5241 2 -1.200000000000 71.497815626836 30.833303874884 3.339879264285
5242 2 -1.200000000000 71.833486122737 28.366639564893 2.226586176190
5243 2 -1.200000000000 72.840497610439 30.011082438220 5.566465440475
5244 2 -1.200000000000 73.176168106340 27.544418128229 4.453172352380
5245 1 2.400000000000 67.805440171929 26.311085973234 2.226586176190
5246 1 2.400000000000 69.483792651433 23.022200226580 3.339879264285
5247 1 2.400000000000 70.490804139134 24.666643099907 0.000000000000
5248 1 2.400000000000 71.497815626836 26.311085973234 3.339879264285
5249 2 -1.200000000000 69.819463147333 25.077753818239 2.226586176190
5250 2 -1.200000000000 70.155133643234 22.611089508248 1.113293088095
5251 2 -1.200000000000 71.162145130936 24.255532381575 4.453172352380
5252 2 -1.200000000000 71.497815626836 21.788868071584 3.339879264285
5253 2 -1.200000000000 72.169156618638 25.899975254902 1.113293088095
5254 2 -1.200000000000 72.504827114538 23.433310944912 0.000000000000
5255 2 -1.200000000000 73.511838602240 25.077753818239 3.339879264285
5256 2 -1.200000000000 73.847509098141 22.611089508248 2.226586176190
5257 1 2.400000000000 68.476781163731 21.377757353253 0.000000000000
5258 1 2.400000000000 70.155133643234 18.088871606598 1.113293088095
5259 1 2.400000000000 71.162145130936 19.733314479925 24.492447938089
5260 1 2.400000000000 72.169156618638 21.377757353253 1.113293088095
5261 2 -1.200000000000 70.490804139134 20.144425198257 0.000000000000
5262 2 -1.200000000000 70.826474635035 17.677760888267 25.605741026184
5263 2 -1.200000000000 71.833486122737 19.322203761594 2.226586176190
5264 2 -1.200000000000 72.169156618638 16.855539451603 1.113293088095
5265 2 -1.200000000000 72.840497610439 20.966646634921 25.605741026184
5266 2 -1.200000000000 73.176168106340 18.499982324930 24.492447938089
5267 2 -1.200000000000 74.183179594042 20.144425198257 1.113293088095
5268 2 -1.200000000000 74.518850089942 17.677760888267 0.000000000000
5269 1 2.400000000000 69.148122155532 34.533300339870 11.132930880950
5270 1 2.400000000000 70.826474635035 31.244414593215 12.246223969044
5271 1 2.400000000000 71.833486122737 32.888857466542 8.906344704760
5272 1 2.400000000000 72.840497610439 34.533300339870 12.246223969044
5273 2 -1.200000000000 71.162145130936 33.299968184874 11.132930880950
5274 2 -1.200000000000 71.497815626836 30.833303874884 10.019637792855
5275 2 -1.200000000000 72.504827114538 32.477746748211 13.359517057139
5276 2 -1.200000000000 72.840497610439 30.011082438220 12.246223969044
5277 2 -1.200000000000 73.511838602240 34.122189621538 10.019637792855
5278 2 -1.200000000000 73.847509098141 31.655525311547 8.906344704760
5279 2 -1.200000000000 74.854520585843 33.299968184874 12.246223969044
5280 2 -1.200000000000 75.190191081743 30.833303874884 11.132930880950
5281 1 2.400000000000 69.819463147333 29.599971719888 8.906344704760
5282 1 2.400000000000 71.497815626836 26.311085973234 10.019637792855
5283 1 2.400000000000 72.504827114538 27.955528846561 6.679758528570
5284 1 2.400000000000 73.511838602240 29.599971719888 10.019637792855
5285 2 -1.200000000000 71.833486122737 28.366639564893 8.906344704760
5286 2 -1.200000000000 72.169156618638 25.899975254902 7.793051616665
5287 2 -1.200000000000 73.176168106340 27.544418128229 11.132930880950
5288 2 -1.200000000000 73.511838602240 25.077753818239 10.019637792855
5289 2 -1.200000000000 74.183179594042 29.188861001556 7.793051616665
5290 2 -1.200000000000 74.518850089942 26.722196691566 6.679758528570
5291 2 -1.200000000000 75.525861577644 28.366639564893 10.019637792855
5292 2 -1.200000000000 75.861532073545 25.899975254902 8.906344704760
5293 1 2.400000000000 70.490804139134 24.666643099907 6.679758528570
5294 1 2.400000000000 72.169156618638 21.377757353253 7.793051616665
5295 1 2.400000000000 73.176168106340 23.022200226580 4.453172352380
5296 1 2.400000000000 74.183179594042 24.666643099907 7.793051616665
5297 2 -1.200000000000 72.504827114538 23.433310944911 6.679758528570
5298 2 -1.200000000000 72.840497610439 20.966646634921 5.566465440475
5299 2 -1.200000000000 73.847509098141 22.611089508248 8.906344704760
5300 2 -1.200000000000 74.183179594042 20.144425198257 7.793051616665
5301 2 -1.200000000000 74.854520585843 24.255532381575 5.566465440475
5302 2 -1.200000000000 75.190191081743 21.788868071584 4.453172352380
5303 2 -1.200000000000 76.197202569445 23.433310944912 7.793051616665
5304 2 -1.200000000000 76.532873065346 20.966646634921 6.679758528570
5305 1 2.400000000000 71.162145130936 19.733314479925 4.453172352380
5306 1 2.400000000000 72.840497610439 16.444428733271 5.566465440475
5307 1 2.400000000000 73.847509098141 18.088871606598 2.226586176190
5308 1 2.400000000000 74.854520585843 19.733314479925 5.566465440475
5309 2 -1.200000000000 73.176168106340 18.499982324930 4.453172352380
5310 2 -1.200000000000 73.511838602240 16.033318014939 3.339879264285
5311 2 -1.200000000000 74.518850089942 17.677760888267 6.679758528570
5312 2 -1.200000000000 74.854520585843 15.211096578276 5.566465440475
5313 2 -1.200000000000 75.525861577644 19.322203761594 3.339879264285
5314 2 -1.200000000000 75.861532073545 16.855539451603 2.226586176190
5315 2 -1.200000000000 76.868543561247 18.499982324930 5.566465440475
5316 2 -1.200000000000 77.204214057147 16.033318014939 4.453172352380
5317 1 2.400000000000 71.833486122737 14.799985859944 2.226586176190
5318 1 2.400000000000 73.511838602240 11.511100113290 3.339879264285
5319 1 2.400000000000 74.518850089942 13.155542986617 0.000000000000
5320 1 2.400000000000 75.525861577644 14.799985859944 3.339879264285
5321 2 -1.200000000000 73.847509098141 13.566653704949 2.226586176190
5322 2 -1.200000000000 74.183179594042 11.099989394958 1.113293088095
5323 2 -1.200000000000 75.190191081743 12.744432268285 4.453172352380
5324 2 -1.200000000000 75.525861577644 10.277767958295 3.339879264285
5325 2 -1.200000000000 76.197202569445 14.388875141612 1.113293088095
5326 2 -1.200000000000 76.532873065346 11.922210831622 0.000000000000
5327 2 -1.200000000000 77.539884553048 13.566653704949 3.339879264285
5328 2 -1.200000000000 77.875555048949 11.099989394958 2.226586176190
5329 1 2.400000000000 72.504827114538 9.866657239963 0.000000000000
5330 1 2.400000000000 74.183179594042 6.577771493308 1.113293088095
5331 1 2.400000000000 75.190191081743 8.222214366636 24.492447938089
5332 1 2.400000000000 76.197202569445 9.866657239963 1.113293088095
5333 2 -1.200000000000 74.518850089942 8.633325084967 0.000000000000
5334 2 -1.200000000000 74.854520585843 6.166660774977 25.605741026184
5335 2 -1.200000000000 75.861532073545 7.811103648304 2.226586176190
5336 2 -1.200000000000 76.197202569445 5.344439338313 1.113293088095
5337 2 -1.200000000000 76.868543561247 9.455546521631 25.605741026184
5338 2 -1.200000000000 77.204214057147 6.988882211640 24.492447938089
5339 2 -1.200000000000 78.211225544849 8.633325084967 1.113293088095
5340 2 -1.200000000000 78.546896040750 6.166660774977 0.000000000000
5341 1 2.400000000000 71.833486122737 32.888857466542 15.586103233329
5342 1 2.400000000000 73.511838602240 29.599971719888 16.699396321424
5343 1 2.400000000000 74.518850089942 31.244414593215 13.359517057139
5344 1 2.400000000000 75.525861577644 32.888857466542 16.699396321424
5345 2 -1.200000000000 73.847509098141 31.655525311547 15.586103233329
5346 2 -1.200000000000 74.183179594042 29.188861001556 14.472810145234
5347 2 -1.200000000000 75.190191081743 30.833303874884 17.812689409519
5348 2 -1.200000000000 75.525861577644 28.366639564893 16.699396321424
5349 2 -1.200000000000 76.197202569445 32.477746748211 14.472810145234
5350 2 -1.200000000000 76.532873065346 30.011082438220 13.359517057139
5351 2 -1.200000000000 77.539884553048 31.655525311547 16.699396321424
5352 2 -1.200000000000 77.875555048949 29.188861001556 15.586103233329
5353 1 2.400000000000 72.504827114538 27.955528846561 13.359517057139
5354 1 2.400000000000 74.183179594042 24.666643099907 14.472810145234
5355 1 2.400000000000 75.190191081743 26.311085973234 11.132930880950
5356 1 2.400000000000 76.197202569445 27.955528846561 14.472810145234
5357 2 -1.200000000000 74.518850089942 26.722196691566 13.359517057139
5358 2 -1.200000000000 74.854520585843 24.255532381575 12.246223969045
5359 2 -1.200000000000 75.861532073545 25.899975254902 15.586103233329
5360 2 -1.200000000000 76.197202569445 23.433310944912 14.472810145234
5361 2 -1.200000000000 76.868543561247 27.544418128229 12.246223969045
5362 2 -1.200000000000 77.204214057147 25.077753818239 11.132930880950
5363 2 -1.200000000000 78.211225544849 26.722196691566 14.472810145234
5364 2 -1.200000000000 78.546896040750 24.255532381575 13.359517057139
5365 1 2.400000000000 73.176168106340 23.022200226580 11.132930880950
5366 1 2.400000000000 74.854520585843 19.733314479925 12.246223969044
5367 1 2.400000000000 75.861532073545 21.377757353253 8.906344704760
5368 1 2.400000000000 76.868543561247 23.022200226580 12.246223969044
5369 2 -1.200000000000 75.190191081743 21.788868071584 11.132930880950
5370 2 -1.200000000000 75.525861577644 19.322203761594 10.019637792855
5371 2 -1.200000000000 76.532873065346 20.966646634921 13.359517057139
5372 2 -1.200000000000 76.868543561247 18.499982324930 12.246223969044
5373 2 -1.200000000000 77.539884553048 22.611089508248 10.019637792855
5374 2 -1.200000000000 77.875555048949 20.144425198257 8.906344704760
5375 2 -1.200000000000 78.882566536650 21.788868071584 12.246223969044
5376 2 -1.200000000000 79.218237032551 19.322203761594 11.132930880950
5377 1 2.400000000000 73.847509098141 18.088871606598 8.906344704760
5378 1 2.400000000000 75.525861577644 14.799985859944 10.019637792855
5379 1 2.400000000000 76.532873065346 16.444428733271 6.679758528570
5380 1 2.400000000000 77.539884553048 18.088871606598 10.019637792855
5381 2 -1.200000000000 75.861532073545 16.855539451603 8.906344704760
5382 2 -1.200000000000 76.197202569445 14.388875141612 7.793051616665
5383 2 -1.200000000000 77.204214057147 16.033318014939 11.132930880950
5384 2 -1.200000000000 77.539884553048 13.566653704949 10.019637792855
5385 2 -1.200000000000 78.211225544849 17.677760888267 7.793051616665
5386 2 -1.200000000000 78.546896040750 15.211096578276 6.679758528570
5387 2 -1.200000000000 79.553907528452 16.855539451603 10.019637792855
5388 2 -1.200000000000 79.889578024352 14.388875141612 8.906344704760
5389 1 2.400000000000 74.518850089942 13.155542986617 6.679758528570
5390 1 2.400000000000 76.197202569445 9.866657239963 7.793051616665
5391 1 2.400000000000 77.204214057147 11.511100113290 4.453172352380
5392 1 2.400000000000 78.211225544849 13.155542986617 7.793051616665
5393 2 -1.200000000000 76.532873065346 11.922210831622 6.679758528570
5394 2 -1.200000000000 76.868543561247 9.455546521631 5.566465440475
5395 2 -1.200000000000 77.875555048949 11.099989394958 8.906344704760
5396 2 -1.200000000000 78.211225544849 8.633325084967 7.793051616665
5397 2 -1.200000000000 78.882566536650 12.744432268285 5.566465440475
5398 2 -1.200000000000 79.218237032551 10.277767958295 4.453172352380
5399 2 -1.200000000000 80.225248520253 11.922210831622 7.793051616665
5400 2 -1.200000000000 80.560919016154 9.455546521631 6.679758528570
5401 1 2.400000000000 75.190191081743 8.222214366636 4.453172352380
5402 1 2.400000000000 76.868543561247 4.933328619981 5.566465440475
5403 1 2.400000000000 77.875555048949 6.577771493308 2.226586176190
5404 1 2.400000000000 78.882566536650 8.222214366636 5.566465440475
5405 2 -1.200000000000 77.204214057147 6.988882211640 4.453172352380
5406 2 -1.200000000000 77.539884553048 4.522217901650 3.339879264285
5407 2 -1.200000000000 78.546896040750 6.166660774977 6.679758528570
5408 2 -1.200000000000 78.882566536650 3.699996464986 5.566465440475
5409 2 -1.200000000000 79.553907528452 7.811103648304 3.339879264285
5410 2 -1.200000000000 79.889578024352 5.344439338313 2.226586176190
5411 2 -1.200000000000 80.896589512054 6.988882211640 5.566465440475
5412 2 -1.200000000000 81.232260007955 4.522217901650 4.453172352380
5413 1 2.400000000000 75.861532073545 3.288885746654 2.226586176190
5414 1 2.400000000000 77.539884553048 -0.000000000000 3.339879264285
5415 1 2.400000000000 78.546896040750 1.644442873327 0.000000000000
5416 1 2.400000000000 79.553907528452 3.288885746654 3.339879264285
5417 2 -1.200000000000 77.875555048949 2.055553591659 2.226586176190
5418 2 -1.200000000000 78.211225544849 35.766632494865 1.113293088095
5419 2 -1.200000000000 79.218237032551 1.233332154995 4.453172352380
5420 2 -1.200000000000 79.553907528452 34.944411058201 3.339879264285
5421 2 -1.200000000000 80.225248520253 2.877775028322 1.113293088095
5422 2 -1.200000000000 80.560919016154 0.411110718332 0.000000000000
5423 2 -1.200000000000 81.567930503856 2.055553591659 3.339879264285
5424 2 -1.200000000000 81.903600999756 35.766632494865 2.226586176190
5425 1 2.400000000000 74.518850089942 31.244414593215 20.039275585709
5426 1 2.400000000000 76.197202569445 27.955528846561 21.152568673804
5427 1 2.400000000000 77.204214057147 29.599971719888 17.812689409519
5428 1 2.400000000000 78.211225544849 31.244414593215 21.152568673804
5429 2 -1.200000000000 76.532873065346 30.011082438220 20.039275585709
5430 2 -1.200000000000 76.868543561247 27.544418128229 18.925982497614
5431 2 -1.200000000000 77.875555048949 29.188861001556 22.265861761899
5432 2 -1.200000000000 78.211225544849 26.722196691566 21.152568673804
5433 2 -1.200000000000 78.882566536650 30.833303874884 18.925982497614
5434 2 -1.200000000000 79.218237032551 28.366639564893 17.812689409519
5435 2 -1.200000000000 80.225248520253 30.011082438220 21.152568673804
5436 2 -1.200000000000 80.560919016154 27.544418128229 20.039275585709
5437 1 2.400000000000 75.190191081743 26.311085973234 17.812689409519
5438 1 2.400000000000 76.868543561247 23.022200226580 18.925982497614
5439 1 2.400000000000 77.875555048949 24.666643099907 15.586103233329
5440 1 2.400000000000 78.882566536650 26.311085973234 18.925982497614
5441 2 -1.200000000000 77.204214057147 25.077753818239 17.812689409519
5442 2 -1.200000000000 77.539884553048 22.611089508248 16.699396321424
5443 2 -1.200000000000 78.546896040750 24.255532381575 20.039275585709
5444 2 -1.200000000000 78.882566536650 21.788868071584 18.925982497614
5445 2 -1.200000000000 79.553907528452 25.899975254902 16.699396321424
5446 2 -1.200000000000 79.889578024352 23.433310944912 15.586103233329
5447 2 -1.200000000000 80.896589512054 25.077753818239 18.925982497614
5448 2 -1.200000000000 81.232260007955 22.611089508248 17.812689409519
5449 1 2.400000000000 75.861532073545 21.377757353253 15.586103233329
5450 1 2.400000000000 77.539884553048 18.088871606598 16.699396321424
5451 1 2.400000000000 78.546896040750 19.733314479925 13.359517057139
5452 1 2.400000000000 79.553907528452 21.377757353253 16.699396321424
5453 2 -1.200000000000 77.875555048949 20.144425198257 15.586103233329
5454 2 -1.200000000000 78.211225544849 17.677760888267 14.472810145234
5455 2 -1.200000000000 79.218237032551 19.322203761594 17.812689409519
5456 2 -1.200000000000 79.553907528452 16.855539451603 16.699396321424
5457 2 -1.200000000000 80.225248520253 20.966646634921 14.472810145234
5458 2 -1.200000000000 80.560919016154 18.499982324930 13.359517057139
5459 2 -1.200000000000 81.567930503856 20.144425198257 16.699396321424
5460 2 -1.200000000000 81.903600999756 17.677760888267 15.586103233329
5461 1 2.400000000000 76.532873065346 16.444428733271 13.359517057139
5462 1 2.400000000000 78.211225544849 13.155542986617 14.472810145234
5463 1 2.400000000000 79.218237032551 14.799985859944 11.132930880950
5464 1 2.400000000000 80.225248520253 16.444428733271 14.472810145234
5465 2 -1.200000000000 78.546896040750 15.211096578276 13.359517057139
5466 2 -1.200000000000 78.882566536650 12.744432268285 12.246223969045
5467 2 -1.200000000000 79.889578024352 14.388875141612 15.586103233329
5468 2 -1.200000000000 80.225248520253 11.922210831622 14.472810145234
5469 2 -1.200000000000 80.896589512054 16.033318014939 12.246223969044
5470 2 -1.200000000000 81.232260007955 13.566653704949 11.132930880950
5471 2 -1.200000000000 82.239271495657 15.211096578276 14.472810145234
5472 2 -1.200000000000 82.574941991558 12.744432268285 13.359517057139
5473 1 2.400000000000 77.204214057147 11.511100113290 11.132930880950
5474 1 2.400000000000 78.882566536650 8.222214366636 12.246223969044
5475 1 2.400000000000 79.889578024352 9.866657239963 8.906344704760
5476 1 2.400000000000 80.896589512054 11.511100113290 12.246223969044
5477 2 -1.200000000000 79.218237032551 10.277767958295 11.132930880950
5478 2 -1.200000000000 79.553907528452 7.811103648304 10.019637792855
5479 2 -1.200000000000 80.560919016154 9.455546521631 13.359517057139
5480 2 -1.200000000000 80.896589512054 6.988882211640 12.246223969045
5481 2 -1.200000000000 81.567930503856 11.099989394958 10.019637792855
5482 2 -1.200000000000 81.903600999756 8.633325084967 8.906344704760
5483 2 -1.200000000000 82.910612487458 10.277767958295 12.246223969044
5484 2 -1.200000000000 83.246282983359 7.811103648304 11.132930880950
5485 1 2.400000000000 77.875555048949 6.577771493308 8.906344704760
5486 1 2.400000000000 79.553907528452 3.288885746654 10.019637792855
5487 1 2.400000000000 80.560919016154 4.933328619981 6.679758528570
5488 1 2.400000000000 81.567930503856 6.577771493308 10.019637792855
5489 2 -1.200000000000 79.889578024352 5.344439338313 8.906344704760
5490 2 -1.200000000000 80.225248520253 2.877775028322 7.793051616665
5491 2 -1.200000000000 81.232260007955 4.522217901650 11.132930880950
5492 2 -1.200000000000 81.567930503856 2.055553591659 10.019637792855
5493 2 -1.200000000000 82.239271495657 6.166660774977 7.793051616665
5494 2 -1.200000000000 82.574941991558 3.699996464986 6.679758528570
5495 2 -1.200000000000 83.581953479259 5.344439338313 10.019637792855
5496 2 -1.200000000000 83.917623975160 2.877775028322 8.906344704760
5497 1 2.400000000000 78.546896040750 1.644442873327 6.679758528570
5498 1 2.400000000000 80.225248520253 34.533300339870 7.793051616665
5499 1 2.400000000000 81.232260007955 -0.000000000000 4.453172352380
5500 1 2.400000000000 82.239271495657 1.644442873327 7.793051616665
5501 2 -1.200000000000 80.560919016154 0.411110718332 6.679758528570
5502 2 -1.200000000000 80.896589512054 34.122189621538 5.566465440475
5503 2 -1.200000000000 81.903600999756 35.766632494865 8.906344704760
5504 2 -1.200000000000 82.239271495657 33.299968184874 7.793051616665
5505 2 -1.200000000000 82.910612487458 1.233332154995 5.566465440475
5506 2 -1.200000000000 83.246282983359 34.944411058201 4.453172352380
5507 2 -1.200000000000 84.253294471061 0.411110718332 7.793051616665
5508 2 -1.200000000000 84.588964966961 34.122189621538 6.679758528570
5509 1 2.400000000000 77.204214057147 29.599971719888 24.492447938089
5510 1 2.400000000000 78.882566536650 26.311085973234 25.605741026184
5511 1 2.400000000000 79.889578024352 27.955528846561 22.265861761899
5512 1 2.400000000000 80.896589512054 29.599971719888 25.605741026184
5513 2 -1.200000000000 79.218237032551 28.366639564893 24.492447938089
5514 2 -1.200000000000 79.553907528452 25.899975254902 23.379154849994
5515 2 -1.200000000000 80.560919016154 27.544418128229 0.000000000000
5516 2 -1.200000000000 80.896589512054 25.077753818239 25.605741026184
5517 2 -1.200000000000 81.567930503856 29.188861001556 23.379154849994
5518 2 -1.200000000000 81.903600999756 26.722196691566 22.265861761899
5519 2 -1.200000000000 82.910612487458 28.366639564893 25.605741026184
5520 2 -1.200000000000 83.246282983359 25.899975254902 24.492447938089
5521 1 2.400000000000 77.875555048949 24.666643099907 22.265861761899
5522 1 2.400000000000 79.553907528452 21.377757353253 23.379154849994
5523 1 2.400000000000 80.560919016154 23.022200226580 20.039275585709
5524 1 2.400000000000 81.567930503856 24.666643099907 23.379154849994
5525 2 -1.200000000000 79.889578024352 23.433310944911 22.265861761899
5526 2 -1.200000000000 80.225248520253 20.966646634921 21.152568673804
5527 2 -1.200000000000 81.232260007955 22.611089508248 24.492447938089
5528 2 -1.200000000000 81.567930503856 20.144425198257 23.379154849994
5529 2 -1.200000000000 82.239271495657 24.255532381575 21.152568673804
5530 2 -1.200000000000 82.574941991558 21.788868071584 20.039275585709
5531 2 -1.200000000000 83.581953479259 23.433310944912 23.379154849994
5532 2 -1.200000000000 83.917623975160 20.966646634921 22.265861761899
5533 1 2.400000000000 78.546896040750 19.733314479925 20.039275585709
5534 1 2.400000000000 80.225248520253 16.444428733271 21.152568673804
5535 1 2.400000000000 81.232260007955 18.088871606598 17.812689409519
5536 1 2.400000000000 82.239271495657 19.733314479925 21.152568673804
5537 2 -1.200000000000 80.560919016154 18.499982324930 20.039275585709
5538 2 -1.200000000000 80.896589512054 16.033318014939 18.925982497614
5539 2 -1.200000000000 81.903600999756 17.677760888267 22.265861761899
5540 2 -1.200000000000 82.239271495657 15.211096578276 21.152568673804
5541 2 -1.200000000000 82.910612487458 19.322203761594 18.925982497614
5542 2 -1.200000000000 83.246282983359 16.855539451603 17.812689409519
5543 2 -1.200000000000 84.253294471061 18.499982324930 21.152568673804
5544 2 -1.200000000000 84.588964966961 16.033318014939 20.039275585709
5545 1 2.400000000000 79.218237032551 14.799985859944 17.812689409519
5546 1 2.400000000000 80.896589512054 11.511100113290 18.925982497614
5547 1 2.400000000000 81.903600999756 13.155542986617 15.586103233329
5548 1 2.400000000000 82.910612487458 14.799985859944 18.925982497614
5549 2 -1.200000000000 81.232260007955 13.566653704949 17.812689409519
5550 2 -1.200000000000 81.567930503856 11.099989394958 16.699396321424
5551 2 -1.200000000000 82.574941991558 12.744432268285 20.039275585709
5552 2 -1.200000000000 82.910612487458 10.277767958295 18.925982497614
5553 2 -1.200000000000 83.581953479259 14.388875141612 16.699396321424
5554 2 -1.200000000000 83.917623975160 11.922210831622 15.586103233329
5555 2 -1.200000000000 84.924635462862 13.566653704949 18.925982497614
5556 2 -1.200000000000 85.260305958763 11.099989394958 17.812689409519
5557 1 2.400000000000 79.889578024352 9.866657239963 15.586103233329
5558 1 2.400000000000 81.567930503856 6.577771493308 16.699396321424
5559 1 2.400000000000 82.574941991558 8.222214366636 13.359517057139
5560 1 2.400000000000 83.581953479259 9.866657239963 16.699396321424
5561 2 -1.200000000000 81.903600999756 8.633325084967 15.586103233329
5562 2 -1.200000000000 82.239271495657 6.166660774977 14.472810145234
5563 2 -1.200000000000 83.246282983359 7.811103648304 17.812689409519
5564 2 -1.200000000000 83.581953479259 5.344439338313 16.699396321424
5565 2 -1.200000000000 84.253294471061 9.455546521631 14.472810145234
5566 2 -1.200000000000 84.588964966961 6.988882211640 13.359517057139
5567 2 -1.200000000000 85.595976454663 8.633325084967 16.699396321424
5568 2 -1.200000000000 85.931646950564 6.166660774977 15.586103233329
5569 1 2.400000000000 80.560919016154 4.933328619981 13.359517057139
5570 1 2.400000000000 82.239271495657 1.644442873327 14.472810145234
5571 1 2.400000000000 83.246282983359 3.288885746654 11.132930880950
5572 1 2.400000000000 84.253294471061 4.933328619981 14.472810145234
5573 2 -1.200000000000 82.574941991558 3.699996464986 13.359517057139
5574 2 -1.200000000000 82.910612487458 1.233332154995 12.246223969045
5575 2 -1.200000000000 83.917623975160 2.877775028322 15.586103233329
5576 2 -1.200000000000 84.253294471061 0.411110718332 14.472810145234
5577 2 -1.200000000000 84.924635462862 4.522217901650 12.246223969045
5578 2 -1.200000000000 85.260305958763 2.055553591659 11.132930880950
5579 2 -1.200000000000 86.267317446465 3.699996464986 14.472810145234
5580 2 -1.200000000000 86.602987942365 1.233332154995 13.359517057139
5581 1 2.400000000000 81.232260007955 -0.000000000000 11.132930880950
5582 1 2.400000000000 82.910612487458 32.888857466542 12.246223969044
5583 1 2.400000000000 83.917623975160 34.533300339870 8.906344704760
5584 1 2.400000000000 84.924635462862 -0.000000000000 12.246223969044
5585 2 -1.200000000000 83.246282983359 34.944411058201 11.132930880950
5586 2 -1.200000000000 83.581953479259 32.477746748211 10.019637792855
5587 2 -1.200000000000 84.588964966961 34.122189621538 13.359517057139
5588 2 -1.200000000000 84.924635462862 31.655525311547 12.246223969044
5589 2 -1.200000000000 85.595976454663 35.766632494865 10.019637792855
5590 2 -1.200000000000 85.931646950564 33.299968184874 8.906344704760
5591 2 -1.200000000000 86.938658438266 34.944411058201 12.246223969044
5592 2 -1.200000000000 87.274328934166 32.477746748211 11.132930880950
5593 1 2.400000000000 81.232260007955 18.088871606598 24.492447938089
5594 1 2.400000000000 82.910612487458 14.799985859944 25.605741026184
5595 1 2.400000000000 83.917623975160 16.444428733271 22.265861761899
5596 1 2.400000000000 84.924635462862 18.088871606598 25.605741026184
5597 2 -1.200000000000 83.246282983359 16.855539451603 24.492447938089
5598 2 -1.200000000000 83.581953479259 14.388875141612 23.379154849994
5599 2 -1.200000000000 84.588964966961 16.033318014939 0.000000000000
5600 2 -1.200000000000 84.924635462862 13.566653704949 25.605741026184
5601 2 -1.200000000000 85.595976454663 17.677760888267 23.379154849994
5602 2 -1.200000000000 85.931646950564 15.211096578276 22.265861761899
5603 2 -1.200000000000 86.938658438266 16.855539451603 25.605741026184
5604 2 -1.200000000000 87.274328934166 14.388875141612 24.492447938089
5605 1 2.400000000000 81.903600999756 13.155542986617 22.265861761899
5606 1 2.400000000000 83.581953479259 9.866657239963 23.379154849994
5607 1 2.400000000000 84.588964966961 11.511100113290 20.039275585709
5608 1 2.400000000000 85.595976454663 13.155542986617 23.379154849994
5609 2 -1.200000000000 83.917623975160 11.922210831622 22.265861761899
5610 2 -1.200000000000 84.253294471061 9.455546521631 21.152568673804
5611 2 -1.200000000000 85.260305958763 11.099989394958 24.492447938089
5612 2 -1.200000000000 85.595976454663 8.633325084967 23.379154849994
5613 2 -1.200000000000 86.267317446465 12.744432268285 21.152568673804
5614 2 -1.200000000000 86.602987942365 10.277767958295 20.039275585709
5615 2 -1.200000000000 87.609999430067 11.922210831622 23.379154849994
5616 2 -1.200000000000 87.945669925968 9.455546521631 22.265861761899
5617 1 2.400000000000 71.833486122737 32.888857466542 2.226586176190
5618 1 2.400000000000 73.511838602240 29.599971719888 3.339879264285
5619 1 2.400000000000 74.518850089942 31.244414593215 0.000000000000
5620 1 2.400000000000 75.525861577644 32.888857466542 3.339879264285
5621 2 -1.200000000000 73.847509098141 31.655525311547 2.226586176190
5622 2 -1.200000000000 74.183179594042 29.188861001556 1.113293088095
5623 2 -1.200000000000 75.190191081743 30.833303874884 4.453172352380
5624 2 -1.200000000000 75.525861577644 28.366639564893 3.339879264285
5625 2 -1.200000000000 76.197202569445 32.477746748211 1.113293088095
5626 2 -1.200000000000 76.532873065346 30.011082438220 0.000000000000
5627 2 -1.200000000000 77.539884553048 31.655525311547 3.339879264285
5628 2 -1.200000000000 77.875555048949 29.188861001556 2.226586176190
5629 1 2.400000000000 72.504827114538 27.955528846561 0.000000000000
5630 1 2.400000000000 74.183179594042 24.666643099907 1.113293088095
5631 1 2.400000000000 75.190191081743 26.311085973234 24.492447938089
5632 1 2.400000000000 76.197202569445 27.955528846561 1.113293088095
5633 2 -1.200000000000 74.518850089942 26.722196691566 0.000000000000
5634 2 -1.200000000000 74.854520585843 24.255532381575 25.605741026184
5635 2 -1.200000000000 75.861532073545 25.899975254902 2.226586176190
5636 2 -1.200000000000 76.197202569445 23.433310944912 1.113293088095
5637 2 -1.200000000000 76.868543561247 27.544418128229 25.605741026184
5638 2 -1.200000000000 77.204214057147 25.077753818239 24.492447938089
5639 2 -1.200000000000 78.211225544849 26.722196691566 1.113293088095
5640 2 -1.200000000000 78.546896040750 24.255532381575 0.000000000000
5641 1 2.400000000000 74.518850089942 31.244414593215 6.679758528570
5642 1 2.400000000000 76.197202569445 27.955528846561 7.793051616665
5643 1 2.400000000000 77.204214057147 29.599971719888 4.453172352380
5644 1 2.400000000000 78.211225544849 31.244414593215 7.793051616665
5645 2 -1.200000000000 76.532873065346 30.011082438220 6.679758528570
5646 2 -1.200000000000 76.868543561247 27.544418128229 5.566465440475
5647 2 -1.200000000000 77.875555048949 29.188861001556 8.906344704760
5648 2 -1.200000000000 78.211225544849 26.722196691566 7.793051616665
5649 2 -1.200000000000 78.882566536651 30.833303874884 5.566465440475
5650 2 -1.200000000000 79.218237032551 28.366639564893 4.453172352380
5651 2 -1.200000000000 80.225248520253 30.011082438220 7.793051616665
5652 2 -1.200000000000 80.560919016154 27.544418128229 6.679758528570
5653 1 2.400000000000 75.190191081743 26.311085973234 4.453172352380
5654 1 2.400000000000 76.868543561247 23.022200226580 5.566465440475
5655 1 2.400000000000 77.875555048949 24.666643099907 2.226586176190
5656 1 2.400000000000 78.882566536650 26.311085973234 5.566465440475
5657 2 -1.200000000000 77.204214057147 25.077753818239 4.453172352380
5658 2 -1.200000000000 77.539884553048 22.611089508248 3.339879264285
5659 2 -1.200000000000 78.546896040750 24.255532381575 6.679758528570
5660 2 -1.200000000000 78.882566536650 21.788868071584 5.566465440475
5661 2 -1.200000000000 79.553907528452 25.899975254902 3.339879264285
5662 2 -1.200000000000 79.889578024352 23.433310944912 2.226586176190
5663 2 -1.200000000000 80.896589512054 25.077753818239 5.566465440475
5664 2 -1.200000000000 81.232260007955 22.611089508248 4.453172352380
5665 1 2.400000000000 75.861532073545 21.377757353253 2.226586176190
5666 1 2.400000000000 77.539884553048 18.088871606598 3.339879264285
5667 1 2.400000000000 78.546896040750 19.733314479925 0.000000000000
5668 1 2.400000000000 79.553907528452 21.377757353253 3.339879264285
5669 2 -1.200000000000 77.875555048949 20.144425198257 2.226586176190
5670 2 -1.200000000000 78.211225544849 17.677760888267 1.113293088095
5671 2 -1.200000000000 79.218237032551 19.322203761594 4.453172352380
5672 2 -1.200000000000 79.553907528452 16.855539451603 3.339879264285
5673 2 -1.200000000000 80.225248520253 20.966646634921 1.113293088095
5674 2 -1.200000000000 80.560919016154 18.499982324930 0.000000000000
5675 2 -1.200000000000 81.567930503856 20.144425198257 3.339879264285
5676 2 -1.200000000000 81.903600999756 17.677760888267 2.226586176190
5677 1 2.400000000000 76.532873065346 16.444428733271 0.000000000000
5678 1 2.400000000000 78.211225544849 13.155542986617 1.113293088095
5679 1 2.400000000000 79.218237032551 14.799985859944 24.492447938089
5680 1 2.400000000000 80.225248520253 16.444428733271 1.113293088095
5681 2 -1.200000000000 78.546896040750 15.211096578276 0.000000000000
5682 2 -1.200000000000 78.882566536650 12.744432268285 25.605741026184
5683 2 -1.200000000000 79.889578024352 14.388875141612 2.226586176190
5684 2 -1.200000000000 80.225248520253 11.922210831622 1.113293088095
5685 2 -1.200000000000 80.896589512054 16.033318014939 25.605741026184
5686 2 -1.200000000000 81.232260007955 13.566653704949 24.492447938089
5687 2 -1.200000000000 82.239271495657 15.211096578276 1.113293088095
5688 2 -1.200000000000 82.574941991558 12.744432268285 0.000000000000
5689 1 2.400000000000 76.532873065346 34.533300339870 13.359517057139
5690 1 2.400000000000 78.211225544849 31.244414593215 14.472810145234
5691 1 2.400000000000 79.218237032551 32.888857466542 11.132930880950
5692 1 2.400000000000 80.225248520253 34.533300339870 14.472810145234
5693 2 -1.200000000000 78.546896040750 33.299968184874 13.359517057139
5694 2 -1.200000000000 78.882566536650 30.833303874884 12.246223969044
5695 2 -1.200000000000 79.889578024352 32.477746748211 15.586103233329
5696 2 -1.200000000000 80.225248520253 30.011082438220 14.472810145234
5697 2 -1.200000000000 80.896589512054 34.122189621538 12.246223969044
5698 2 -1.200000000000 81.232260007955 31.655525311547 11.132930880950
5699 2 -1.200000000000 82.239271495657 33.299968184874 14.472810145234
5700 2 -1.200000000000 82.574941991558 30.833303874884 13.359517057139
5701 1 2.400000000000 77.204214057147 29.599971719888 11.132930880950
5702 1 2.400000000000 78.882566536650 26.311085973234 12.246223969044
5703 1 2.400000000000 79.889578024352 27.955528846561 8.906344704760
5704 1 2.400000000000 80.896589512054 29.599971719888 12.246223969044
5705 2 -1.200000000000 79.218237032551 28.366639564893 11.132930880950
5706 2 -1.200000000000 79.553907528452 25.899975254902 10.019637792855
5707 2 -1.200000000000 80.560919016154 27.544418128229 13.359517057139
5708 2 -1.200000000000 80.896589512054 25.077753818239 12.246223969044
5709 2 -1.200000000000 81.567930503856 29.188861001556 10.019637792855
5710 2 -1.200000000000 81.903600999756 26.722196691566 8.906344704760
5711 2 -1.200000000000 82.910612487458 28.366639564893 12.246223969044
5712 2 -1.200000000000 83.246282983359 25.899975254902 11.132930880950
5713 1 2.400000000000 77.875555048949 24.666643099907 8.906344704760
5714 1 2.400000000000 79.553907528452 21.377757353253 10.019637792855
5715 1 2.400000000000 80.560919016154 23.022200226580 6.679758528570
5716 1 2.400000000000 81.567930503856 24.666643099907 10.019637792855
5717 2 -1.200000000000 79.889578024352 23.433310944912 8.906344704760
5718 2 -1.200000000000 80.225248520253 20.966646634921 7.793051616665
5719 2 -1.200000000000 81.232260007955 22.611089508248 11.132930880950
5720 2 -1.200000000000 81.567930503856 20.144425198257 10.019637792855
5721 2 -1.200000000000 82.239271495657 24.255532381575 7.793051616665
5722 2 -1.200000000000 82.574941991558 21.788868071584 6.679758528570
5723 2 -1.200000000000 83.581953479259 23.433310944912 10.019637792855
5724 2 -1.200000000000 83.917623975160 20.966646634921 8.906344704760
5725 1 2.400000000000 78.546896040750 19.733314479925 6.679758528570
5726 1 2.400000000000 80.225248520253 16.444428733271 7.793051616665
5727 1 2.400000000000 81.232260007955 18.088871606598 4.453172352380
5728 1 2.400000000000 82.239271495657 19.733314479925 7.793051616665
5729 2 -1.200000000000 80.560919016154 18.499982324930 6.679758528570
5730 2 -1.200000000000 80.896589512054 16.033318014939 5.566465440475
5731 2 -1.200000000000 81.903600999756 17.677760888267 8.906344704760
5732 2 -1.200000000000 82.239271495657 15.211096578276 7.793051616665
5733 2 -1.200000000000 82.910612487458 19.322203761594 5.566465440475
5734 2 -1.200000000000 83.246282983359 16.855539451603 4.453172352380
5735 2 -1.200000000000 84.253294471061 18.499982324930 7.793051616665
5736 2 -1.200000000000 84.588964966961 16.033318014939 6.679758528570
5737 1 2.400000000000 79.218237032551 14.799985859944 4.453172352380
5738 1 2.400000000000 80.896589512054 11.511100113290 5.566465440475
5739 1 2.400000000000 81.903600999756 13.155542986617 2.226586176190
5740 1 2.400000000000 82.910612487458 14.799985859944 5.566465440475
5741 2 -1.200000000000 81.232260007955 13.566653704949 4.453172352380
5742 2 -1.200000000000 81.567930503856 11.099989394958 3.339879264285
5743 2 -1.200000000000 82.574941991558 12.744432268285 6.679758528570
5744 2 -1.200000000000 82.910612487458 10.277767958295 5.566465440475
5745 2 -1.200000000000 83.581953479259 14.388875141612 3.339879264285
5746 2 -1.200000000000 83.917623975160 11.922210831622 2.226586176190
5747 2 -1.200000000000 84.924635462862 13.566653704949 5.566465440475
5748 2 -1.200000000000 85.260305958763 11.099989394958 4.453172352380
5749 1 2.400000000000 79.889578024352 9.866657239963 2.226586176190
5750 1 2.400000000000 81.567930503856 6.577771493308 3.339879264285
5751 1 2.400000000000 82.574941991558 8.222214366636 0.000000000000
5752 1 2.400000000000 83.581953479259 9.866657239963 3.339879264285
5753 2 -1.200000000000 81.903600999756 8.633325084967 2.226586176190
5754 2 -1.200000000000 82.239271495657 6.166660774977 1.113293088095
5755 2 -1.200000000000 83.246282983359 7.811103648304 4.453172352380
5756 2 -1.200000000000 83.581953479259 5.344439338313 3.339879264285
5757 2 -1.200000000000 84.253294471061 9.455546521631 1.113293088095
5758 2 -1.200000000000 84.588964966961 6.988882211640 0.000000000000
5759 2 -1.200000000000 85.595976454663 8.633325084967 3.339879264285
5760 2 -1.200000000000 85.931646950564 6.166660774977 2.226586176190
5761 1 2.400000000000 80.560919016154 4.933328619981 0.000000000000
5762 1 2.400000000000 82.239271495657 1.644442873327 1.113293088095
5763 1 2.400000000000 83.246282983359 3.288885746654 24.492447938089
5764 1 2.400000000000 84.253294471061 4.933328619981 1.113293088095
5765 2 -1.200000000000 82.574941991558 3.699996464986 0.000000000000
5766 2 -1.200000000000 82.910612487458 1.233332154995 25.605741026184
5767 2 -1.200000000000 83.917623975160 2.877775028322 2.226586176190
5768 2 -1.200000000000 84.253294471061 0.411110718332 1.113293088095
5769 2 -1.200000000000 84.924635462862 4.522217901650 25.605741026184
5770 2 -1.200000000000 85.260305958763 2.055553591659 24.492447938089
5771 2 -1.200000000000 86.267317446465 3.699996464986 1.113293088095
5772 2 -1.200000000000 86.602987942365 1.233332154995 0.000000000000
5773 1 2.400000000000 79.218237032551 32.888857466542 17.812689409519
5774 1 2.400000000000 80.896589512054 29.599971719888 18.925982497614
5775 1 2.400000000000 81.903600999756 31.244414593215 15.586103233329
5776 1 2.400000000000 82.910612487458 32.888857466542 18.925982497614
5777 2 -1.200000000000 81.232260007955 31.655525311547 17.812689409519
5778 2 -1.200000000000 81.567930503856 29.188861001556 16.699396321424
5779 2 -1.200000000000 82.574941991558 30.833303874884 20.039275585709
5780 2 -1.200000000000 82.910612487458 28.366639564893 18.925982497614
5781 2 -1.200000000000 83.581953479259 32.477746748211 16.699396321424
5782 2 -1.200000000000 83.917623975160 30.011082438220 15.586103233329
5783 2 -1.200000000000 84.924635462862 31.655525311547 18.925982497614
5784 2 -1.200000000000 85.260305958763 29.188861001556 17.812689409519
5785 1 2.400000000000 79.889578024352 27.955528846561 15.586103233329
5786 1 2.400000000000 81.567930503856 24.666643099907 16.699396321424
5787 1 2.400000000000 82.574941991558 26.311085973234 13.359517057139
5788 1 2.400000000000 83.581953479259 27.955528846561 16.699396321424
5789 2 -1.200000000000 81.903600999756 26.722196691566 15.586103233329
5790 2 -1.200000000000 82.239271495657 24.255532381575 14.472810145234
5791 2 -1.200000000000 83.246282983359 25.899975254902 17.812689409519
5792 2 -1.200000000000 83.581953479259 23.433310944912 16.699396321424
5793 2 -1.200000000000 84.253294471061 27.544418128229 14.472810145234
5794 2 -1.200000000000 84.588964966961 25.077753818239 13.359517057139
5795 2 -1.200000000000 85.595976454663 26.722196691566 16.699396321424
5796 2 -1.200000000000 85.931646950564 24.255532381575 15.586103233329
5797 1 2.400000000000 80.560919016154 23.022200226580 13.359517057139
5798 1 2.400000000000 82.239271495657 19.733314479925 14.472810145234
5799 1 2.400000000000 83.246282983359 21.377757353253 11.132930880950
5800 1 2.400000000000 84.253294471061 23.022200226580 14.472810145234
5801 2 -1.200000000000 82.574941991558 21.788868071584 13.359517057139
5802 2 -1.200000000000 82.910612487458 19.322203761594 12.246223969044
5803 2 -1.200000000000 83.917623975160 20.966646634921 15.586103233329
5804 2 -1.200000000000 84.253294471061 18.499982324930 14.472810145234
5805 2 -1.200000000000 84.924635462862 22.611089508248 12.246223969044
5806 2 -1.200000000000 85.260305958763 20.144425198257 11.132930880950
5807 2 -1.200000000000 86.267317446465 21.788868071584 14.472810145234
5808 2 -1.200000000000 86.602987942365 19.322203761594 13.359517057139
5809 1 2.400000000000 81.232260007955 18.088871606598 11.132930880950
5810 1 2.400000000000 82.910612487458 14.799985859944 12.246223969044
5811 1 2.400000000000 83.917623975160 16.444428733271 8.906344704760
5812 1 2.400000000000 84.924635462862 18.088871606598 12.246223969044
5813 2 -1.200000000000 83.246282983359 16.855539451603 11.132930880950
5814 2 -1.200000000000 83.581953479259 14.388875141612 10.019637792855
5815 2 -1.200000000000 84.588964966961 16.033318014939 13.359517057139
5816 2 -1.200000000000 84.924635462862 13.566653704949 12.246223969044
5817 2 -1.200000000000 85.595976454663 17.677760888267 10.019637792855
5818 2 -1.200000000000 85.931646950564 15.211096578276 8.906344704760
5819 2 -1.200000000000 86.938658438266 16.855539451603 12.246223969044
5820 2 -1.200000000000 87.274328934167 14.388875141612 11.132930880950
5821 1 2.400000000000 81.903600999756 13.155542986617 8.906344704760
5822 1 2.400000000000 83.581953479259 9.866657239963 10.019637792855
5823 1 2.400000000000 84.588964966961 11.511100113290 6.679758528570
5824 1 2.400000000000 85.595976454663 13.155542986617 10.019637792855
5825 2 -1.200000000000 83.917623975160 11.922210831622 8.906344704760
5826 2 -1.200000000000 84.253294471061 9.455546521631 7.793051616665
5827 2 -1.200000000000 85.260305958763 11.099989394958 11.132930880950
5828 2 -1.200000000000 85.595976454663 8.633325084967 10.019637792855
5829 2 -1.200000000000 86.267317446465 12.744432268285 7.793051616665
5830 2 -1.200000000000 86.602987942365 10.277767958295 6.679758528570
5831 2 -1.200000000000 87.609999430067 11.922210831622 10.019637792855
5832 2 -1.200000000000 87.945669925968 9.455546521631 8.906344704760
5833 1 2.400000000000 81.903600999756 31.244414593215 22.265861761899
5834 1 2.400000000000 83.581953479259 27.955528846561 23.379154849994
5835 1 2.400000000000 84.588964966961 29.599971719888 20.039275585709
5836 1 2.400000000000 85.595976454663 31.244414593215 23.379154849994
5837 2 -1.200000000000 83.917623975160 30.011082438220 22.265861761899
5838 2 -1.200000000000 84.253294471061 27.544418128229 21.152568673804
5839 2 -1.200000000000 85.260305958763 29.188861001556 24.492447938089
5840 2 -1.200000000000 85.595976454663 26.722196691566 23.379154849994
5841 2 -1.200000000000 86.267317446465 30.833303874884 21.152568673804
5842 2 -1.200000000000 86.602987942365 28.366639564893 20.039275585709
5843 2 -1.200000000000 87.609999430067 30.011082438220 23.379154849994
5844 2 -1.200000000000 87.945669925968 27.544418128229 22.265861761899
5845 1 2.400000000000 76.532873065346 34.533300339870 0.000000000000
5846 1 2.400000000000 78.211225544849 31.244414593215 1.113293088095
5847 1 2.400000000000 79.218237032551 32.888857466542 24.492447938089
5848 1 2.400000000000 80.225248520253 34.533300339870 1.113293088095
5849 2 -1.200000000000 78.546896040750 33.299968184874 0.000000000000
5850 2 -1.200000000000 78.882566536650 30.833303874884 25.605741026184
5851 2 -1.200000000000 79.889578024352 32.477746748211 2.226586176190
5852 2 -1.200000000000 80.225248520253 30.011082438220 1.113293088095
5853 2 -1.200000000000 80.896589512054 34.122189621538 25.605741026184
5854 2 -1.200000000000 81.232260007955 31.655525311547 24.492447938089
5855 2 -1.200000000000 82.239271495657 33.299968184874 1.113293088095
5856 2 -1.200000000000 82.574941991558 30.833303874884 0.000000000000
5857 1 2.400000000000 79.218237032551 32.888857466542 4.453172352380
5858 1 2.400000000000 80.896589512054 29.599971719888 5.566465440475
5859 1 2.400000000000 81.903600999756 31.244414593215 2.226586176190
5860 1 2.400000000000 82.910612487458 32.888857466542 5.566465440475
5861 2 -1.200000000000 81.232260007955 31.655525311547 4.453172352380
5862 2 -1.200000000000 81.567930503856 29.188861001556 3.339879264285
5863 2 -1.200000000000 82.574941991558 30.833303874884 6.679758528570
5864 2 -1.200000000000 82.910612487458 28.366639564893 5.566465440475
5865 2 -1.200000000000 83.581953479259 32.477746748211 3.339879264285
5866 2 -1.200000000000 83.917623975160 30.011082438220 2.226586176190
5867 2 -1.200000000000 84.924635462862 31.655525311547 5.566465440475
5868 2 -1.200000000000 85.260305958763 29.188861001556 4.453172352380
5869 1 2.400000000000 79.889578024352 27.955528846561 2.226586176190
5870 1 2.400000000000 81.567930503856 24.666643099907 3.339879264285
5871 1 2.400000000000 82.574941991558 26.311085973234 0.000000000000
5872 1 2.400000000000 83.581953479259 27.955528846561 3.339879264285
5873 2 -1.200000000000 81.903600999756 26.722196691566 2.226586176190
5874 2 -1.200000000000 82.239271495657 24.255532381575 1.113293088095
5875 2 -1.200000000000 83.246282983359 25.899975254902 4.453172352380
5876 2 -1.200000000000 83.581953479259 23.433310944912 3.339879264285
5877 2 -1.200000000000 84.253294471061 27.544418128229 1.113293088095
5878 2 -1.200000000000 84.588964966961 25.077753818239 0.000000000000
5879 2 -1.200000000000 85.595976454663 26.722196691566 3.339879264285
5880 2 -1.200000000000 85.931646950564 24.255532381575 2.226586176190
5881 1 2.400000000000 80.560919016154 23.022200226580 0.000000000000
5882 1 2.400000000000 82.239271495657 19.733314479925 1.113293088095
5883 1 2.400000000000 83.246282983359 21.377757353253 24.492447938089
5884 1 2.400000000000 84.253294471061 23.022200226580 1.113293088095
5885 2 -1.200000000000 82.574941991558 21.788868071584 0.000000000000
5886 2 -1.200000000000 82.910612487458 19.322203761594 25.605741026184
5887 2 -1.200000000000 83.917623975160 20.966646634921 2.226586176190
5888 2 -1.200000000000 84.253294471061 18.499982324930 1.113293088095
5889 2 -1.200000000000 84.924635462862 22.611089508248 25.605741026184
5890 2 -1.200000000000 85.260305958763 20.144425198257 24.492447938089
5891 2 -1.200000000000 86.267317446465 21.788868071584 1.113293088095
5892 2 -1.200000000000 86.602987942365 19.322203761594 0.000000000000
5893 1 2.400000000000 81.903600999756 31.244414593215 8.906344704760
5894 1 2.400000000000 83.581953479259 27.955528846561 10.019637792855
5895 1 2.400000000000 84.588964966961 29.599971719888 6.679758528570
5896 1 2.400000000000 85.595976454663 31.244414593215 10.019637792855
5897 2 -1.200000000000 83.917623975160 30.011082438220 8.906344704760
5898 2 -1.200000000000 84.253294471061 27.544418128229 7.793051616665
5899 2 -1.200000000000 85.260305958763 29.188861001556 11.132930880950
5900 2 -1.200000000000 85.595976454663 26.722196691566 10.019637792855
5901 2 -1.200000000000 86.267317446465 30.833303874884 7.793051616665
5902 2 -1.200000000000 86.602987942365 28.366639564893 6.679758528570
5903 2 -1.200000000000 87.609999430067 30.011082438220 10.019637792855
5904 2 -1.200000000000 87.945669925968 27.544418128229 8.906344704760
5905 1 2.400000000000 88.617010917769 0.000000000000 0.000000000000
5906 1 2.400000000000 89.624022405471 1.644442873327 23.379154849994
5907 1 2.400000000000 90.631033893173 3.288885746654 0.000000000000
5908 1 2.400000000000 92.309386372676 0.000000000000 25.605741026184
5909 2 -1.200000000000 90.295363397272 1.233332154995 25.605741026184
5910 2 -1.200000000000 89.959692901372 3.699996464986 24.492447938089
5911 2 -1.200000000000 91.638045380875 0.411110718332 23.379154849994
5912 2 -1.200000000000 91.302374884974 2.877775028322 22.265861761899
5913 2 -1.200000000000 92.645056868577 2.055553591659 0.000000000000
5914 2 -1.200000000000 92.309386372676 4.522217901650 25.605741026184
5915 2 -1.200000000000 93.987738852179 1.233332154995 24.492447938089
5916 2 -1.200000000000 93.652068356279 3.699996464986 23.379154849994
5917 1 2.400000000000 88.617010917769 0.000000000000 13.359517057139
5918 1 2.400000000000 89.624022405471 1.644442873327 10.019637792855
5919 1 2.400000000000 90.631033893173 3.288885746654 13.359517057139
5920 1 2.400000000000 92.309386372676 0.000000000000 12.246223969045
5921 2 -1.200000000000 90.295363397272 1.233332154995 12.246223969045
5922 2 -1.200000000000 89.959692901372 3.699996464986 11.132930880950
5923 2 -1.200000000000 91.638045380875 0.411110718332 10.019637792855
5924 2 -1.200000000000 91.302374884974 2.877775028322 8.906344704760
5925 2 -1.200000000000 92.645056868577 2.055553591659 13.359517057139
5926 2 -1.200000000000 92.309386372676 4.522217901650 12.246223969045
5927 2 -1.200000000000 93.987738852179 1.233332154995 11.132930880950
5928 2 -1.200000000000 93.652068356279 3.699996464986 10.019637792855
5929 1 2.400000000000 90.631033893173 3.288885746654 6.679758528570
5930 1 2.400000000000 91.638045380875 4.933328619981 3.339879264285
5931 1 2.400000000000 92.645056868577 6.577771493308 6.679758528570
5932 1 2.400000000000 94.323409348080 3.288885746654 5.566465440475
5933 2 -1.200000000000 92.309386372676 4.522217901650 5.566465440475
5934 2 -1.200000000000 91.973715876775 6.988882211640 4.453172352380
5935 2 -1.200000000000 93.652068356279 3.699996464986 3.339879264285
5936 2 -1.200000000000 93.316397860378 6.166660774977 2.226586176190
5937 2 -1.200000000000 94.659079843981 5.344439338313 6.679758528570
5938 2 -1.200000000000 94.323409348080 7.811103648304 5.566465440475
5939 2 -1.200000000000 96.001761827583 4.522217901650 4.453172352380
5940 2 -1.200000000000 95.666091331682 6.988882211640 3.339879264285
5941 1 2.400000000000 89.959692901372 8.222214366636 4.453172352380
5942 1 2.400000000000 90.966704389074 9.866657239963 1.113293088095
5943 1 2.400000000000 91.973715876775 11.511100113290 4.453172352380
5944 1 2.400000000000 93.652068356279 8.222214366636 3.339879264285
5945 2 -1.200000000000 91.638045380875 9.455546521631 3.339879264285
5946 2 -1.200000000000 91.302374884974 11.922210831622 2.226586176190
5947 2 -1.200000000000 92.980727364477 8.633325084967 1.113293088095
5948 2 -1.200000000000 92.645056868577 11.099989394958 0.000000000000
5949 2 -1.200000000000 93.987738852179 10.277767958295 4.453172352380
5950 2 -1.200000000000 93.652068356279 12.744432268285 3.339879264285
5951 2 -1.200000000000 95.330420835782 9.455546521631 2.226586176190
5952 2 -1.200000000000 94.994750339881 11.922210831622 1.113293088095
5953 1 2.400000000000 89.288351909570 13.155542986617 2.226586176190
5954 1 2.400000000000 90.295363397272 14.799985859944 25.605741026184
5955 1 2.400000000000 91.302374884974 16.444428733271 2.226586176190
5956 1 2.400000000000 92.980727364477 13.155542986617 1.113293088095
5957 2 -1.200000000000 90.966704389074 14.388875141612 1.113293088095
5958 2 -1.200000000000 90.631033893173 16.855539451603 0.000000000000
5959 2 -1.200000000000 92.309386372676 13.566653704949 25.605741026184
5960 2 -1.200000000000 91.973715876775 16.033318014939 24.492447938089
5961 2 -1.200000000000 93.316397860378 15.211096578276 2.226586176190
5962 2 -1.200000000000 92.980727364477 17.677760888267 1.113293088095
5963 2 -1.200000000000 94.659079843981 14.388875141612 0.000000000000
5964 2 -1.200000000000 94.323409348080 16.855539451603 25.605741026184
5965 1 2.400000000000 88.617010917769 18.088871606598 0.000000000000
5966 1 2.400000000000 89.624022405471 19.733314479925 23.379154849994
5967 1 2.400000000000 90.631033893173 21.377757353253 0.000000000000
5968 1 2.400000000000 92.309386372676 18.088871606598 25.605741026184
5969 2 -1.200000000000 90.295363397272 19.322203761594 25.605741026184
5970 2 -1.200000000000 89.959692901372 21.788868071584 24.492447938089
5971 2 -1.200000000000 91.638045380875 18.499982324930 23.379154849994
5972 2 -1.200000000000 91.302374884974 20.966646634921 22.265861761899
5973 2 -1.200000000000 92.645056868577 20.144425198257 0.000000000000
5974 2 -1.200000000000 92.309386372676 22.611089508248 25.605741026184
5975 2 -1.200000000000 93.987738852179 19.322203761594 24.492447938089
5976 2 -1.200000000000 93.652068356279 21.788868071584 23.379154849994
5977 1 2.400000000000 93.316397860378 1.644442873327 2.226586176190
5978 1 2.400000000000 94.323409348080 3.288885746654 25.605741026184
5979 1 2.400000000000 95.330420835782 4.933328619981 2.226586176190
5980 1 2.400000000000 97.008773315285 1.644442873327 1.113293088095
5981 2 -1.200000000000 94.994750339881 2.877775028322 1.113293088095
5982 2 -1.200000000000 94.659079843981 5.344439338313 0.000000000000
5983 2 -1.200000000000 96.337432323484 2.055553591659 25.605741026184
5984 2 -1.200000000000 96.001761827583 4.522217901650 24.492447938089
5985 2 -1.200000000000 97.344443811186 3.699996464986 2.226586176190
5986 2 -1.200000000000 97.008773315285 6.166660774977 1.113293088095
5987 2 -1.200000000000 98.687125794788 2.877775028322 0.000000000000
5988 2 -1.200000000000 98.351455298888 5.344439338313 25.605741026184
5989 1 2.400000000000 92.645056868577 6.577771493308 0.000000000000
5990 1 2.400000000000 93.652068356279 8.222214366636 23.379154849994
5991 1 2.400000000000 94.659079843981 9.866657239963 0.000000000000
5992 1 2.400000000000 96.337432323484 6.577771493308 25.605741026184
5993 2 -1.200000000000 94.323409348080 7.811103648304 25.605741026184
5994 2 -1.200000000000 93.987738852179 10.277767958295 24.492447938089
5995 2 -1.200000000000 95.666091331682 6.988882211640 23.379154849994
5996 2 -1.200000000000 95.330420835782 9.455546521631 22.265861761899
5997 2 -1.200000000000 96.673102819384 8.633325084967 0.000000000000
5998 2 -1.200000000000 96.337432323484 11.099989394958 25.605741026184
5999 2 -1.200000000000 98.015784802987 7.811103648304 24.492447938089
6000 2 -1.200000000000 97.680114307086 10.277767958295 23.379154849994
6001 1 2.400000000000 90.631033893173 3.288885746654 20.039275585709
6002 1 2.400000000000 91.638045380875 4.933328619981 16.699396321424
6003 1 2.400000000000 92.645056868577 6.577771493308 20.039275585709
6004 1 2.400000000000 94.323409348080 3.288885746654 18.925982497614
6005 2 -1.200000000000 92.309386372676 4.522217901650 18.925982497614
6006 2 -1.200000000000 91.973715876775 6.988882211640 17.812689409519
6007 2 -1.200000000000 93.652068356279 3.699996464986 16.699396321424
6008 2 -1.200000000000 93.316397860378 6.166660774977 15.586103233329
6009 2 -1.200000000000 94.659079843981 5.344439338313 20.039275585709
6010 2 -1.200000000000 94.323409348080 7.811103648304 18.925982497614
6011 2 -1.200000000000 96.001761827583 4.522217901650 17.812689409519
6012 2 -1.200000000000 95.666091331682 6.988882211640 16.699396321424
6013 1 2.400000000000 89.959692901372 8.222214366636 17.812689409519
6014 1 2.400000000000 90.966704389074 9.866657239963 14.472810145234
6015 1 2.400000000000 91.973715876775 11.511100113290 17.812689409519
6016 1 2.400000000000 93.652068356279 8.222214366636 16.699396321424
6017 2 -1.200000000000 91.638045380875 9.455546521631 16.699396321424
6018 2 -1.200000000000 91.302374884974 11.922210831622 15.586103233329
6019 2 -1.200000000000 92.980727364477 8.633325084967 14.472810145234
6020 2 -1.200000000000 92.645056868577 11.099989394958 13.359517057139
6021 2 -1.200000000000 93.987738852179 10.277767958295 17.812689409519
6022 2 -1.200000000000 93.652068356279 12.744432268285 16.699396321424
6023 2 -1.200000000000 95.330420835782 9.455546521631 15.586103233329
6024 2 -1.200000000000 94.994750339881 11.922210831622 14.472810145234
6025 1 2.400000000000 89.288351909570 13.155542986617 15.586103233329
6026 1 2.400000000000 90.295363397272 14.799985859944 12.246223969044
6027 1 2.400000000000 91.302374884974 16.444428733271 15.586103233329
6028 1 2.400000000000 92.980727364477 13.155542986617 14.472810145234
6029 2 -1.200000000000 90.966704389074 14.388875141612 14.472810145234
6030 2 -1.200000000000 90.631033893173 16.855539451603 13.359517057139
6031 2 -1.200000000000 92.309386372676 13.566653704949 12.246223969045
6032 2 -1.200000000000 91.973715876775 16.033318014939 11.132930880950
6033 2 -1.200000000000 93.316397860378 15.211096578276 15.586103233329
6034 2 -1.200000000000 92.980727364477 17.677760888267 14.472810145234
6035 2 -1.200000000000 94.659079843981 14.388875141612 13.359517057139
6036 2 -1.200000000000 94.323409348080 16.855539451603 12.246223969045
6037 1 2.400000000000 88.617010917769 18.088871606598 13.359517057139
6038 1 2.400000000000 89.624022405471 19.733314479925 10.019637792855
6039 1 2.400000000000 90.631033893173 21.377757353253 13.359517057139
6040 1 2.400000000000 92.309386372676 18.088871606598 12.246223969044
6041 2 -1.200000000000 90.295363397272 19.322203761594 12.246223969044
6042 2 -1.200000000000 89.959692901372 21.788868071584 11.132930880950
6043 2 -1.200000000000 91.638045380875 18.499982324930 10.019637792855
6044 2 -1.200000000000 91.302374884974 20.966646634921 8.906344704760
6045 2 -1.200000000000 92.645056868577 20.144425198257 13.359517057139
6046 2 -1.200000000000 92.309386372676 22.611089508248 12.246223969045
6047 2 -1.200000000000 93.987738852179 19.322203761594 11.132930880950
6048 2 -1.200000000000 93.652068356279 21.788868071584 10.019637792855
6049 1 2.400000000000 93.316397860378 1.644442873327 15.586103233329
6050 1 2.400000000000 94.323409348080 3.288885746654 12.246223969044
6051 1 2.400000000000 95.330420835782 4.933328619981 15.586103233329
6052 1 2.400000000000 97.008773315285 1.644442873327 14.472810145234
6053 2 -1.200000000000 94.994750339881 2.877775028322 14.472810145234
6054 2 -1.200000000000 94.659079843981 5.344439338313 13.359517057139
6055 2 -1.200000000000 96.337432323484 2.055553591659 12.246223969045
6056 2 -1.200000000000 96.001761827583 4.522217901650 11.132930880950
6057 2 -1.200000000000 97.344443811186 3.699996464986 15.586103233329
6058 2 -1.200000000000 97.008773315285 6.166660774977 14.472810145234
6059 2 -1.200000000000 98.687125794788 2.877775028322 13.359517057139
6060 2 -1.200000000000 98.351455298888 5.344439338313 12.246223969045
6061 1 2.400000000000 92.645056868577 6.577771493308 13.359517057139
6062 1 2.400000000000 93.652068356279 8.222214366636 10.019637792855
6063 1 2.400000000000 94.659079843981 9.866657239963 13.359517057139
6064 1 2.400000000000 96.337432323484 6.577771493308 12.246223969045
6065 2 -1.200000000000 94.323409348080 7.811103648304 12.246223969044
6066 2 -1.200000000000 93.987738852179 10.277767958295 11.132930880950
6067 2 -1.200000000000 95.666091331682 6.988882211640 10.019637792855
6068 2 -1.200000000000 95.330420835782 9.455546521631 8.906344704760
6069 2 -1.200000000000 96.673102819384 8.633325084967 13.359517057139
6070 2 -1.200000000000 96.337432323484 11.099989394958 12.246223969045
6071 2 -1.200000000000 98.015784802987 7.811103648304 11.132930880950
6072 2 -1.200000000000 97.680114307086 10.277767958295 10.019637792855
6073 1 2.400000000000 91.973715876775 11.511100113290 11.132930880950
6074 1 2.400000000000 92.980727364477 13.155542986617 7.793051616665
6075 1 2.400000000000 93.987738852179 14.799985859944 11.132930880950
6076 1 2.400000000000 95.666091331682 11.511100113290 10.019637792855
6077 2 -1.200000000000 93.652068356279 12.744432268285 10.019637792855
6078 2 -1.200000000000 93.316397860378 15.211096578276 8.906344704760
6079 2 -1.200000000000 94.994750339881 11.922210831622 7.793051616665
6080 2 -1.200000000000 94.659079843981 14.388875141612 6.679758528570
6081 2 -1.200000000000 96.001761827583 13.566653704949 11.132930880950
6082 2 -1.200000000000 95.666091331682 16.033318014939 10.019637792855
6083 2 -1.200000000000 97.344443811186 12.744432268285 8.906344704760
6084 2 -1.200000000000 97.008773315285 15.211096578276 7.793051616665
6085 1 2.400000000000 91.302374884974 16.444428733271 8.906344704760
6086 1 2.400000000000 92.309386372676 18.088871606598 5.566465440475
6087 1 2.400000000000 93.316397860378 19.733314479925 8.906344704760
6088 1 2.400000000000 94.994750339881 16.444428733271 7.793051616665
6089 2 -1.200000000000 92.980727364477 17.677760888267 7.793051616665
6090 2 -1.200000000000 92.645056868577 20.144425198257 6.679758528570
6091 2 -1.200000000000 94.323409348080 16.855539451603 5.566465440475
6092 2 -1.200000000000 93.987738852179 19.322203761594 4.453172352380
6093 2 -1.200000000000 95.330420835782 18.499982324930 8.906344704760
6094 2 -1.200000000000 94.994750339881 20.966646634921 7.793051616665
6095 2 -1.200000000000 96.673102819384 17.677760888267 6.679758528570
6096 2 -1.200000000000 96.337432323484 20.144425198257 5.566465440475
6097 1 2.400000000000 90.631033893173 21.377757353253 6.679758528570
6098 1 2.400000000000 91.638045380875 23.022200226580 3.339879264285
6099 1 2.400000000000 92.645056868577 24.666643099907 6.679758528570
6100 1 2.400000000000 94.323409348080 21.377757353253 5.566465440475
6101 2 -1.200000000000 92.309386372676 22.611089508248 5.566465440475
6102 2 -1.200000000000 91.973715876775 25.077753818239 4.453172352380
6103 2 -1.200000000000 93.652068356279 21.788868071584 3.339879264285
6104 2 -1.200000000000 93.316397860378 24.255532381575 2.226586176190
6105 2 -1.200000000000 94.659079843981 23.433310944911 6.679758528570
6106 2 -1.200000000000 94.323409348080 25.899975254902 5.566465440475
6107 2 -1.200000000000 96.001761827583 22.611089508248 4.453172352380
6108 2 -1.200000000000 95.666091331682 25.077753818239 3.339879264285
6109 1 2.400000000000 89.959692901372 26.311085973234 4.453172352380
6110 1 2.400000000000 90.966704389074 27.955528846561 1.113293088095
6111 1 2.400000000000 91.973715876775 29.599971719888 4.453172352380
6112 1 2.400000000000 93.652068356279 26.311085973234 3.339879264285
6113 2 -1.200000000000 91.638045380875 27.544418128229 3.339879264285
6114 2 -1.200000000000 91.302374884974 30.011082438220 2.226586176190
6115 2 -1.200000000000 92.980727364477 26.722196691566 1.113293088095
6116 2 -1.200000000000 92.645056868577 29.188861001556 0.000000000000
6117 2 -1.200000000000 93.987738852179 28.366639564893 4.453172352380
6118 2 -1.200000000000 93.652068356279 30.833303874884 3.339879264285
6119 2 -1.200000000000 95.330420835782 27.544418128229 2.226586176190
6120 2 -1.200000000000 94.994750339881 30.011082438220 1.113293088095
6121 1 2.400000000000 89.288351909570 31.244414593215 2.226586176190
6122 1 2.400000000000 90.295363397272 32.888857466542 25.605741026184
6123 1 2.400000000000 91.302374884974 34.533300339870 2.226586176190
6124 1 2.400000000000 92.980727364477 31.244414593215 1.113293088095
6125 2 -1.200000000000 90.966704389074 32.477746748211 1.113293088095
6126 2 -1.200000000000 90.631033893173 34.944411058201 0.000000000000
6127 2 -1.200000000000 92.309386372676 31.655525311547 25.605741026184
6128 2 -1.200000000000 91.973715876775 34.122189621538 24.492447938089
6129 2 -1.200000000000 93.316397860378 33.299968184874 2.226586176190
6130 2 -1.200000000000 92.980727364477 35.766632494865 1.113293088095
6131 2 -1.200000000000 94.659079843981 32.477746748211 0.000000000000
6132 2 -1.200000000000 94.323409348080 34.944411058201 25.605741026184
6133 1 2.400000000000 96.001761827583 0.000000000000 11.132930880950
6134 1 2.400000000000 97.008773315285 1.644442873327 7.793051616665
6135 1 2.400000000000 98.015784802987 3.288885746654 11.132930880950
6136 1 2.400000000000 99.694137282490 0.000000000000 10.019637792855
6137 2 -1.200000000000 97.680114307086 1.233332154995 10.019637792855
6138 2 -1.200000000000 97.344443811186 3.699996464986 8.906344704760
6139 2 -1.200000000000 99.022796290689 0.411110718332 7.793051616665
6140 2 -1.200000000000 98.687125794788 2.877775028322 6.679758528570
6141 2 -1.200000000000 100.029807778391 2.055553591659 11.132930880950
6142 2 -1.200000000000 99.694137282490 4.522217901650 10.019637792855
6143 2 -1.200000000000 101.372489761993 1.233332154995 8.906344704760
6144 2 -1.200000000000 101.036819266093 3.699996464986 7.793051616665
6145 1 2.400000000000 95.330420835782 4.933328619981 8.906344704760
6146 1 2.400000000000 96.337432323484 6.577771493308 5.566465440475
6147 1 2.400000000000 97.344443811186 8.222214366636 8.906344704760
6148 1 2.400000000000 99.022796290689 4.933328619981 7.793051616665
6149 2 -1.200000000000 97.008773315285 6.166660774977 7.793051616665
6150 2 -1.200000000000 96.673102819384 8.633325084967 6.679758528570
6151 2 -1.200000000000 98.351455298888 5.344439338313 5.566465440475
6152 2 -1.200000000000 98.015784802987 7.811103648304 4.453172352380
6153 2 -1.200000000000 99.358466786590 6.988882211640 8.906344704760
6154 2 -1.200000000000 99.022796290689 9.455546521631 7.793051616665
6155 2 -1.200000000000 100.701148770192 6.166660774977 6.679758528570
6156 2 -1.200000000000 100.365478274291 8.633325084967 5.566465440475
6157 1 2.400000000000 94.659079843981 9.866657239963 6.679758528570
6158 1 2.400000000000 95.666091331682 11.511100113290 3.339879264285
6159 1 2.400000000000 96.673102819384 13.155542986617 6.679758528570
6160 1 2.400000000000 98.351455298888 9.866657239963 5.566465440475
6161 2 -1.200000000000 96.337432323484 11.099989394958 5.566465440475
6162 2 -1.200000000000 96.001761827583 13.566653704949 4.453172352380
6163 2 -1.200000000000 97.680114307086 10.277767958295 3.339879264285
6164 2 -1.200000000000 97.344443811186 12.744432268285 2.226586176190
6165 2 -1.200000000000 98.687125794788 11.922210831622 6.679758528570
6166 2 -1.200000000000 98.351455298888 14.388875141612 5.566465440475
6167 2 -1.200000000000 100.029807778391 11.099989394958 4.453172352380
6168 2 -1.200000000000 99.694137282490 13.566653704949 3.339879264285
6169 1 2.400000000000 93.987738852179 14.799985859944 4.453172352380
6170 1 2.400000000000 94.994750339881 16.444428733271 1.113293088095
6171 1 2.400000000000 96.001761827583 18.088871606598 4.453172352380
6172 1 2.400000000000 97.680114307086 14.799985859944 3.339879264285
6173 2 -1.200000000000 95.666091331682 16.033318014939 3.339879264285
6174 2 -1.200000000000 95.330420835782 18.499982324930 2.226586176190
6175 2 -1.200000000000 97.008773315285 15.211096578276 1.113293088095
6176 2 -1.200000000000 96.673102819384 17.677760888267 0.000000000000
6177 2 -1.200000000000 98.015784802987 16.855539451603 4.453172352380
6178 2 -1.200000000000 97.680114307086 19.322203761594 3.339879264285
6179 2 -1.200000000000 99.358466786590 16.033318014939 2.226586176190
6180 2 -1.200000000000 99.022796290689 18.499982324930 1.113293088095
6181 1 2.400000000000 93.316397860378 19.733314479925 2.226586176190
6182 1 2.400000000000 94.323409348080 21.377757353253 25.605741026184
6183 1 2.400000000000 95.330420835782 23.022200226580 2.226586176190
6184 1 2.400000000000 97.008773315285 19.733314479925 1.113293088095
6185 2 -1.200000000000 94.994750339881 20.966646634921 1.113293088095
6186 2 -1.200000000000 94.659079843981 23.433310944911 0.000000000000
6187 2 -1.200000000000 96.337432323484 20.144425198257 25.605741026184
6188 2 -1.200000000000 96.001761827583 22.611089508248 24.492447938089
6189 2 -1.200000000000 97.344443811186 21.788868071584 2.226586176190
6190 2 -1.200000000000 97.008773315285 24.255532381575 1.113293088095
6191 2 -1.200000000000 98.687125794788 20.966646634921 0.000000000000
6192 2 -1.200000000000 98.351455298888 23.433310944911 25.605741026184
6193 1 2.400000000000 92.645056868577 24.666643099907 0.000000000000
6194 1 2.400000000000 93.652068356279 26.311085973234 23.379154849994
6195 1 2.400000000000 94.659079843981 27.955528846561 0.000000000000
6196 1 2.400000000000 96.337432323484 24.666643099907 25.605741026184
6197 2 -1.200000000000 94.323409348080 25.899975254902 25.605741026184
6198 2 -1.200000000000 93.987738852179 28.366639564893 24.492447938089
6199 2 -1.200000000000 95.666091331682 25.077753818239 23.379154849994
6200 2 -1.200000000000 95.330420835782 27.544418128229 22.265861761899
6201 2 -1.200000000000 96.673102819384 26.722196691566 0.000000000000
6202 2 -1.200000000000 96.337432323484 29.188861001556 25.605741026184
6203 2 -1.200000000000 98.015784802987 25.899975254902 24.492447938089
6204 2 -1.200000000000 97.680114307086 28.366639564893 23.379154849994
6205 1 2.400000000000 98.015784802987 3.288885746654 4.453172352380
6206 1 2.400000000000 99.022796290689 4.933328619981 1.113293088095
6207 1 2.400000000000 100.029807778391 6.577771493308 4.453172352380
6208 1 2.400000000000 101.708160257894 3.288885746654 3.339879264285
6209 2 -1.200000000000 99.694137282490 4.522217901650 3.339879264285
6210 2 -1.200000000000 99.358466786590 6.988882211640 2.226586176190
6211 2 -1.200000000000 101.036819266093 3.699996464986 1.113293088095
6212 2 -1.200000000000 100.701148770192 6.166660774977 0.000000000000
6213 2 -1.200000000000 102.043830753795 5.344439338313 4.453172352380
6214 2 -1.200000000000 101.708160257894 7.811103648304 3.339879264285
6215 2 -1.200000000000 103.386512737397 4.522217901650 2.226586176190
6216 2 -1.200000000000 103.050842241497 6.988882211640 1.113293088095
6217 1 2.400000000000 97.344443811186 8.222214366636 2.226586176190
6218 1 2.400000000000 98.351455298888 9.866657239963 25.605741026184
6219 1 2.400000000000 99.358466786590 11.511100113290 2.226586176190
6220 1 2.400000000000 101.036819266093 8.222214366636 1.113293088095
6221 2 -1.200000000000 99.022796290689 9.455546521631 1.113293088095
6222 2 -1.200000000000 98.687125794788 11.922210831622 0.000000000000
6223 2 -1.200000000000 100.365478274291 8.633325084967 25.605741026184
6224 2 -1.200000000000 100.029807778391 11.099989394958 24.492447938089
6225 2 -1.200000000000 101.372489761993 10.277767958295 2.226586176190
6226 2 -1.200000000000 101.036819266093 12.744432268285 1.113293088095
6227 2 -1.200000000000 102.715171745596 9.455546521631 0.000000000000
6228 2 -1.200000000000 102.379501249695 11.922210831622 25.605741026184
6229 1 2.400000000000 96.673102819384 13.155542986617 0.000000000000
6230 1 2.400000000000 97.680114307086 14.799985859944 23.379154849994
6231 1 2.400000000000 98.687125794788 16.444428733271 0.000000000000
6232 1 2.400000000000 100.365478274291 13.155542986617 25.605741026184
6233 2 -1.200000000000 98.351455298888 14.388875141612 25.605741026184
6234 2 -1.200000000000 98.015784802987 16.855539451603 24.492447938089
6235 2 -1.200000000000 99.694137282490 13.566653704949 23.379154849994
6236 2 -1.200000000000 99.358466786590 16.033318014939 22.265861761899
6237 2 -1.200000000000 100.701148770192 15.211096578276 0.000000000000
6238 2 -1.200000000000 100.365478274291 17.677760888267 25.605741026184
6239 2 -1.200000000000 102.043830753795 14.388875141612 24.492447938089
6240 2 -1.200000000000 101.708160257894 16.855539451603 23.379154849994
6241 1 2.400000000000 100.701148770192 1.644442873327 0.000000000000
6242 1 2.400000000000 101.708160257894 3.288885746654 23.379154849994
6243 1 2.400000000000 102.715171745596 4.933328619981 0.000000000000
6244 1 2.400000000000 104.393524225099 1.644442873327 25.605741026184
6245 2 -1.200000000000 102.379501249695 2.877775028322 25.605741026184
6246 2 -1.200000000000 102.043830753795 5.344439338313 24.492447938089
6247 2 -1.200000000000 103.722183233298 2.055553591659 23.379154849994
6248 2 -1.200000000000 103.386512737397 4.522217901650 22.265861761899
6249 2 -1.200000000000 104.729194721000 3.699996464986 0.000000000000
6250 2 -1.200000000000 104.393524225099 6.166660774977 25.605741026184
6251 2 -1.200000000000 106.071876704602 2.877775028322 24.492447938089
6252 2 -1.200000000000 105.736206208702 5.344439338313 23.379154849994
6253 1 2.400000000000 91.973715876775 11.511100113290 24.492447938089
6254 1 2.400000000000 92.980727364477 13.155542986617 21.152568673804
6255 1 2.400000000000 93.987738852179 14.799985859944 24.492447938089
6256 1 2.400000000000 95.666091331682 11.511100113290 23.379154849994
6257 2 -1.200000000000 93.652068356279 12.744432268285 23.379154849994
6258 2 -1.200000000000 93.316397860378 15.211096578276 22.265861761899
6259 2 -1.200000000000 94.994750339881 11.922210831622 21.152568673804
6260 2 -1.200000000000 94.659079843981 14.388875141612 20.039275585709
6261 2 -1.200000000000 96.001761827583 13.566653704949 24.492447938089
6262 2 -1.200000000000 95.666091331682 16.033318014939 23.379154849994
6263 2 -1.200000000000 97.344443811186 12.744432268285 22.265861761899
6264 2 -1.200000000000 97.008773315285 15.211096578276 21.152568673804
6265 1 2.400000000000 91.302374884974 16.444428733271 22.265861761899
6266 1 2.400000000000 92.309386372676 18.088871606598 18.925982497614
6267 1 2.400000000000 93.316397860378 19.733314479925 22.265861761899
6268 1 2.400000000000 94.994750339881 16.444428733271 21.152568673804
6269 2 -1.200000000000 92.980727364477 17.677760888267 21.152568673804
6270 2 -1.200000000000 92.645056868577 20.144425198257 20.039275585709
6271 2 -1.200000000000 94.323409348080 16.855539451603 18.925982497614
6272 2 -1.200000000000 93.987738852179 19.322203761594 17.812689409519
6273 2 -1.200000000000 95.330420835782 18.499982324930 22.265861761899
6274 2 -1.200000000000 94.994750339881 20.966646634921 21.152568673804
6275 2 -1.200000000000 96.673102819384 17.677760888267 20.039275585709
6276 2 -1.200000000000 96.337432323484 20.144425198257 18.925982497614
6277 1 2.400000000000 90.631033893173 21.377757353253 20.039275585709
6278 1 2.400000000000 91.638045380875 23.022200226580 16.699396321424
6279 1 2.400000000000 92.645056868577 24.666643099907 20.039275585709
6280 1 2.400000000000 94.323409348080 21.377757353253 18.925982497614
6281 2 -1.200000000000 92.309386372676 22.611089508248 18.925982497614
6282 2 -1.200000000000 91.973715876775 25.077753818239 17.812689409519
6283 2 -1.200000000000 93.652068356279 21.788868071584 16.699396321424
6284 2 -1.200000000000 93.316397860378 24.255532381575 15.586103233329
6285 2 -1.200000000000 94.659079843981 23.433310944912 20.039275585709
6286 2 -1.200000000000 94.323409348080 25.899975254902 18.925982497614
6287 2 -1.200000000000 96.001761827583 22.611089508248 17.812689409519
6288 2 -1.200000000000 95.666091331682 25.077753818239 16.699396321424
6289 1 2.400000000000 89.959692901372 26.311085973234 17.812689409519
6290 1 2.400000000000 90.966704389074 27.955528846561 14.472810145234
6291 1 2.400000000000 91.973715876775 29.599971719888 17.812689409519
6292 1 2.400000000000 93.652068356279 26.311085973234 16.699396321424
6293 2 -1.200000000000 91.638045380875 27.544418128229 16.699396321424
6294 2 -1.200000000000 91.302374884974 30.011082438220 15.586103233329
6295 2 -1.200000000000 92.980727364477 26.722196691566 14.472810145234
6296 2 -1.200000000000 92.645056868577 29.188861001556 13.359517057139
6297 2 -1.200000000000 93.987738852179 28.366639564893 17.812689409519
6298 2 -1.200000000000 93.652068356279 30.833303874884 16.699396321424
6299 2 -1.200000000000 95.330420835782 27.544418128229 15.586103233329
6300 2 -1.200000000000 94.994750339881 30.011082438220 14.472810145234
6301 1 2.400000000000 89.288351909570 31.244414593215 15.586103233329
6302 1 2.400000000000 90.295363397272 32.888857466542 12.246223969044
6303 1 2.400000000000 91.302374884974 34.533300339870 15.586103233329
6304 1 2.400000000000 92.980727364477 31.244414593215 14.472810145234
6305 2 -1.200000000000 90.966704389074 32.477746748211 14.472810145234
6306 2 -1.200000000000 90.631033893173 34.944411058201 13.359517057139
6307 2 -1.200000000000 92.309386372676 31.655525311547 12.246223969045
6308 2 -1.200000000000 91.973715876775 34.122189621538 11.132930880950
6309 2 -1.200000000000 93.316397860378 33.299968184874 15.586103233329
6310 2 -1.200000000000 92.980727364477 35.766632494865 14.472810145234
6311 2 -1.200000000000 94.659079843981 32.477746748211 13.359517057139
6312 2 -1.200000000000 94.323409348080 34.944411058201 12.246223969044
6313 1 2.400000000000 96.001761827583 0.000000000000 24.492447938089
6314 1 2.400000000000 97.008773315285 1.644442873327 21.152568673804
6315 1 2.400000000000 98.015784802987 3.288885746654 24.492447938089
6316 1 2.400000000000 99.694137282490 0.000000000000 23.379154849994
6317 2 -1.200000000000 97.680114307086 1.233332154995 23.379154849994
6318 2 -1.200000000000 97.344443811186 3.699996464986 22.265861761899
6319 2 -1.200000000000 99.022796290689 0.411110718332 21.152568673804
6320 2 -1.200000000000 98.687125794788 2.877775028322 20.039275585709
6321 2 -1.200000000000 100.029807778391 2.055553591659 24.492447938089
6322 2 -1.200000000000 99.694137282490 4.522217901650 23.379154849994
6323 2 -1.200000000000 101.372489761993 1.233332154995 22.265861761899
6324 2 -1.200000000000 101.036819266093 3.699996464986 21.152568673804
6325 1 2.400000000000 95.330420835782 4.933328619981 22.265861761899
6326 1 2.400000000000 96.337432323484 6.577771493308 18.925982497614
6327 1 2.400000000000 97.344443811186 8.222214366636 22.265861761899
6328 1 2.400000000000 99.022796290689 4.933328619981 21.152568673804
6329 2 -1.200000000000 97.008773315285 6.166660774977 21.152568673804
6330 2 -1.200000000000 96.673102819384 8.633325084967 20.039275585709
6331 2 -1.200000000000 98.351455298888 5.344439338313 18.925982497614
6332 2 -1.200000000000 98.015784802987 7.811103648304 17.812689409519
6333 2 -1.200000000000 99.358466786590 6.988882211640 22.265861761899
6334 2 -1.200000000000 99.022796290689 9.455546521631 21.152568673804
6335 2 -1.200000000000 100.701148770192 6.166660774977 20.039275585709
6336 2 -1.200000000000 100.365478274291 8.633325084967 18.925982497614
6337 1 2.400000000000 94.659079843981 9.866657239963 20.039275585709
6338 1 2.400000000000 95.666091331682 11.511100113290 16.699396321424
6339 1 2.400000000000 96.673102819384 13.155542986617 20.039275585709
6340 1 2.400000000000 98.351455298888 9.866657239963 18.925982497614
6341 2 -1.200000000000 96.337432323484 11.099989394958 18.925982497614
6342 2 -1.200000000000 96.001761827583 13.566653704949 17.812689409519
6343 2 -1.200000000000 97.680114307086 10.277767958295 16.699396321424
6344 2 -1.200000000000 97.344443811186 12.744432268285 15.586103233329
6345 2 -1.200000000000 98.687125794788 11.922210831622 20.039275585709
6346 2 -1.200000000000 98.351455298888 14.388875141612 18.925982497614
6347 2 -1.200000000000 100.029807778391 11.099989394958 17.812689409519
6348 2 -1.200000000000 99.694137282490 13.566653704949 16.699396321424
6349 1 2.400000000000 93.987738852179 14.799985859944 17.812689409519
6350 1 2.400000000000 94.994750339881 16.444428733271 14.472810145234
6351 1 2.400000000000 96.001761827583 18.088871606598 17.812689409519
6352 1 2.400000000000 97.680114307086 14.799985859944 16.699396321424
6353 2 -1.200000000000 95.666091331682 16.033318014939 16.699396321424
6354 2 -1.200000000000 95.330420835782 18.499982324930 15.586103233329
6355 2 -1.200000000000 97.008773315285 15.211096578276 14.472810145234
6356 2 -1.200000000000 96.673102819384 17.677760888267 13.359517057139
6357 2 -1.200000000000 98.015784802987 16.855539451603 17.812689409519
6358 2 -1.200000000000 97.680114307086 19.322203761594 16.699396321424
6359 2 -1.200000000000 99.358466786590 16.033318014939 15.586103233329
6360 2 -1.200000000000 99.022796290689 18.499982324930 14.472810145234
6361 1 2.400000000000 93.316397860378 19.733314479925 15.586103233329
6362 1 2.400000000000 94.323409348080 21.377757353253 12.246223969045
6363 1 2.400000000000 95.330420835782 23.022200226580 15.586103233329
6364 1 2.400000000000 97.008773315285 19.733314479925 14.472810145234
6365 2 -1.200000000000 94.994750339881 20.966646634921 14.472810145234
6366 2 -1.200000000000 94.659079843981 23.433310944912 13.359517057139
6367 2 -1.200000000000 96.337432323484 20.144425198257 12.246223969044
6368 2 -1.200000000000 96.001761827583 22.611089508248 11.132930880950
6369 2 -1.200000000000 97.344443811186 21.788868071584 15.586103233329
6370 2 -1.200000000000 97.008773315285 24.255532381575 14.472810145234
6371 2 -1.200000000000 98.687125794788 20.966646634921 13.359517057139
6372 2 -1.200000000000 98.351455298888 23.433310944912 12.246223969045
6373 1 2.400000000000 92.645056868577 24.666643099907 13.359517057139
6374 1 2.400000000000 93.652068356279 26.311085973234 10.019637792855
6375 1 2.400000000000 94.659079843981 27.955528846561 13.359517057139
6376 1 2.400000000000 96.337432323484 24.666643099907 12.246223969044
6377 2 -1.200000000000 94.323409348080 25.899975254902 12.246223969044
6378 2 -1.200000000000 93.987738852179 28.366639564893 11.132930880950
6379 2 -1.200000000000 95.666091331682 25.077753818239 10.019637792855
6380 2 -1.200000000000 95.330420835782 27.544418128229 8.906344704760
6381 2 -1.200000000000 96.673102819384 26.722196691566 13.359517057139
6382 2 -1.200000000000 96.337432323484 29.188861001556 12.246223969045
6383 2 -1.200000000000 98.015784802987 25.899975254902 11.132930880950
6384 2 -1.200000000000 97.680114307086 28.366639564893 10.019637792855
6385 1 2.400000000000 91.973715876775 29.599971719888 11.132930880950
6386 1 2.400000000000 92.980727364477 31.244414593215 7.793051616665
6387 1 2.400000000000 93.987738852179 32.888857466542 11.132930880950
6388 1 2.400000000000 95.666091331682 29.599971719888 10.019637792855
6389 2 -1.200000000000 93.652068356279 30.833303874884 10.019637792855
6390 2 -1.200000000000 93.316397860378 33.299968184874 8.906344704760
6391 2 -1.200000000000 94.994750339881 30.011082438220 7.793051616665
6392 2 -1.200000000000 94.659079843981 32.477746748211 6.679758528570
6393 2 -1.200000000000 96.001761827583 31.655525311547 11.132930880950
6394 2 -1.200000000000 95.666091331682 34.122189621538 10.019637792855
6395 2 -1.200000000000 97.344443811186 30.833303874884 8.906344704760
6396 2 -1.200000000000 97.008773315285 33.299968184874 7.793051616665
6397 1 2.400000000000 91.302374884974 34.533300339870 8.906344704760
6398 1 2.400000000000 92.309386372676 0.000000000000 5.566465440475
6399 1 2.400000000000 93.316397860378 1.644442873327 8.906344704760
6400 1 2.400000000000 94.994750339881 34.533300339870 7.793051616665
6401 2 -1.200000000000 92.980727364477 35.766632494865 7.793051616665
6402 2 -1.200000000000 92.645056868577 2.055553591659 6.679758528570
6403 2 -1.200000000000 94.323409348080 34.944411058201 5.566465440475
6404 2 -1.200000000000 93.987738852179 1.233332154995 4.453172352380
6405 2 -1.200000000000 95.330420835782 0.411110718332 8.906344704760
6406 2 -1.200000000000 94.994750339881 2.877775028322 7.793051616665
6407 2 -1.200000000000 96.673102819384 35.766632494865 6.679758528570
6408 2 -1.200000000000 96.337432323484 2.055553591659 5.566465440475
6409 1 2.400000000000 98.015784802987 3.288885746654 17.812689409519
6410 1 2.400000000000 99.022796290689 4.933328619981 14.472810145234
6411 1 2.400000000000 100.029807778391 6.577771493308 17.812689409519
6412 1 2.400000000000 101.708160257894 3.288885746654 16.699396321424
6413 2 -1.200000000000 99.694137282490 4.522217901650 16.699396321424
6414 2 -1.200000000000 99.358466786590 6.988882211640 15.586103233329
6415 2 -1.200000000000 101.036819266093 3.699996464986 14.472810145234
6416 2 -1.200000000000 100.701148770192 6.166660774977 13.359517057139
6417 2 -1.200000000000 102.043830753795 5.344439338313 17.812689409519
6418 2 -1.200000000000 101.708160257894 7.811103648304 16.699396321424
6419 2 -1.200000000000 103.386512737397 4.522217901650 15.586103233329
6420 2 -1.200000000000 103.050842241497 6.988882211640 14.472810145234
6421 1 2.400000000000 97.344443811186 8.222214366636 15.586103233329
6422 1 2.400000000000 98.351455298888 9.866657239963 12.246223969045
6423 1 2.400000000000 99.358466786590 11.511100113290 15.586103233329
6424 1 2.400000000000 101.036819266093 8.222214366636 14.472810145234
6425 2 -1.200000000000 99.022796290689 9.455546521631 14.472810145234
6426 2 -1.200000000000 98.687125794788 11.922210831622 13.359517057139
6427 2 -1.200000000000 100.365478274291 8.633325084967 12.246223969044
6428 2 -1.200000000000 100.029807778391 11.099989394958 11.132930880950
6429 2 -1.200000000000 101.372489761993 10.277767958295 15.586103233329
6430 2 -1.200000000000 101.036819266093 12.744432268285 14.472810145234
6431 2 -1.200000000000 102.715171745596 9.455546521631 13.359517057139
6432 2 -1.200000000000 102.379501249695 11.922210831622 12.246223969044
6433 1 2.400000000000 96.673102819384 13.155542986617 13.359517057139
6434 1 2.400000000000 97.680114307086 14.799985859944 10.019637792855
6435 1 2.400000000000 98.687125794788 16.444428733271 13.359517057139
6436 1 2.400000000000 100.365478274291 13.155542986617 12.246223969044
6437 2 -1.200000000000 98.351455298888 14.388875141612 12.246223969044
6438 2 -1.200000000000 98.015784802987 16.855539451603 11.132930880950
6439 2 -1.200000000000 99.694137282490 13.566653704949 10.019637792855
6440 2 -1.200000000000 99.358466786590 16.033318014939 8.906344704760
6441 2 -1.200000000000 100.701148770192 15.211096578276 13.359517057139
6442 2 -1.200000000000 100.365478274291 17.677760888267 12.246223969044
6443 2 -1.200000000000 102.043830753795 14.388875141612 11.132930880950
6444 2 -1.200000000000 101.708160257894 16.855539451603 10.019637792855
6445 1 2.400000000000 96.001761827583 18.088871606598 11.132930880950
6446 1 2.400000000000 97.008773315285 19.733314479925 7.793051616665
6447 1 2.400000000000 98.015784802987 21.377757353253 11.132930880950
6448 1 2.400000000000 99.694137282490 18.088871606598 10.019637792855
6449 2 -1.200000000000 97.680114307086 19.322203761594 10.019637792855
6450 2 -1.200000000000 97.344443811186 21.788868071584 8.906344704760
6451 2 -1.200000000000 99.022796290689 18.499982324930 7.793051616665
6452 2 -1.200000000000 98.687125794788 20.966646634921 6.679758528570
6453 2 -1.200000000000 100.029807778391 20.144425198257 11.132930880950
6454 2 -1.200000000000 99.694137282490 22.611089508248 10.019637792855
6455 2 -1.200000000000 101.372489761993 19.322203761594 8.906344704760
6456 2 -1.200000000000 101.036819266093 21.788868071584 7.793051616665
6457 1 2.400000000000 95.330420835782 23.022200226580 8.906344704760
6458 1 2.400000000000 96.337432323484 24.666643099907 5.566465440475
6459 1 2.400000000000 97.344443811186 26.311085973234 8.906344704760
6460 1 2.400000000000 99.022796290689 23.022200226580 7.793051616665
6461 2 -1.200000000000 97.008773315285 24.255532381575 7.793051616665
6462 2 -1.200000000000 96.673102819384 26.722196691566 6.679758528570
6463 2 -1.200000000000 98.351455298888 23.433310944911 5.566465440475
6464 2 -1.200000000000 98.015784802987 25.899975254902 4.453172352380
6465 2 -1.200000000000 99.358466786590 25.077753818239 8.906344704760
6466 2 -1.200000000000 99.022796290689 27.544418128229 7.793051616665
6467 2 -1.200000000000 100.701148770192 24.255532381575 6.679758528570
6468 2 -1.200000000000 100.365478274291 26.722196691566 5.566465440475
6469 1 2.400000000000 94.659079843981 27.955528846561 6.679758528570
6470 1 2.400000000000 95.666091331682 29.599971719888 3.339879264285
6471 1 2.400000000000 96.673102819384 31.244414593215 6.679758528570
6472 1 2.400000000000 98.351455298888 27.955528846561 5.566465440475
6473 2 -1.200000000000 96.337432323484 29.188861001556 5.566465440475
6474 2 -1.200000000000 96.001761827583 31.655525311547 4.453172352380
6475 2 -1.200000000000 97.680114307086 28.366639564893 3.339879264285
6476 2 -1.200000000000 97.344443811186 30.833303874884 2.226586176190
6477 2 -1.200000000000 98.687125794788 30.011082438220 6.679758528570
6478 2 -1.200000000000 98.351455298888 32.477746748211 5.566465440475
6479 2 -1.200000000000 100.029807778391 29.188861001556 4.453172352380
6480 2 -1.200000000000 99.694137282490 31.655525311547 3.339879264285
6481 1 2.400000000000 93.987738852179 32.888857466542 4.453172352380
6482 1 2.400000000000 94.994750339881 34.533300339870 1.113293088095
6483 1 2.400000000000 96.001761827583 0.000000000000 4.453172352380
6484 1 2.400000000000 97.680114307086 32.888857466542 3.339879264285
6485 2 -1.200000000000 95.666091331682 34.122189621538 3.339879264285
6486 2 -1.200000000000 95.330420835782 0.411110718332 2.226586176190
6487 2 -1.200000000000 97.008773315285 33.299968184874 1.113293088095
6488 2 -1.200000000000 96.673102819384 35.766632494865 0.000000000000
6489 2 -1.200000000000 98.015784802987 34.944411058201 4.453172352380
6490 2 -1.200000000000 97.680114307086 1.233332154995 3.339879264285
6491 2 -1.200000000000 99.358466786590 34.122189621538 2.226586176190
6492 2 -1.200000000000 99.022796290689 0.411110718332 1.113293088095
6493 1 2.400000000000 100.701148770192 1.644442873327 13.359517057139
6494 1 2.400000000000 101.708160257894 3.288885746654 10.019637792855
6495 1 2.400000000000 102.715171745596 4.933328619981 13.359517057139
6496 1 2.400000000000 104.393524225099 1.644442873327 12.246223969045
6497 2 -1.200000000000 102.379501249695 2.877775028322 12.246223969044
6498 2 -1.200000000000 102.043830753795 5.344439338313 11.132930880950
6499 2 -1.200000000000 103.722183233298 2.055553591659 10.019637792855
6500 2 -1.200000000000 103.386512737397 4.522217901650 8.906344704760
6501 2 -1.200000000000 104.729194721000 3.699996464986 13.359517057139
6502 2 -1.200000000000 104.393524225099 6.166660774977 12.246223969045
6503 2 -1.200000000000 106.071876704602 2.877775028322 11.132930880950
6504 2 -1.200000000000 105.736206208702 5.344439338313 10.019637792855
6505 1 2.400000000000 100.029807778391 6.577771493308 11.132930880950
6506 1 2.400000000000 101.036819266093 8.222214366636 7.793051616665
6507 1 2.400000000000 102.043830753795 9.866657239963 11.132930880950
6508 1 2.400000000000 103.722183233298 6.577771493308 10.019637792855
6509 2 -1.200000000000 101.708160257894 7.811103648304 10.019637792855
6510 2 -1.200000000000 101.372489761993 10.277767958295 8.906344704760
6511 2 -1.200000000000 103.050842241497 6.988882211640 7.793051616665
6512 2 -1.200000000000 102.715171745596 9.455546521631 6.679758528570
6513 2 -1.200000000000 104.057853729199 8.633325084967 11.132930880950
6514 2 -1.200000000000 103.722183233298 11.099989394958 10.019637792855
6515 2 -1.200000000000 105.400535712801 7.811103648304 8.906344704760
6516 2 -1.200000000000 105.064865216900 10.277767958295 7.793051616665
6517 1 2.400000000000 99.358466786590 11.511100113290 8.906344704760
6518 1 2.400000000000 100.365478274291 13.155542986617 5.566465440475
6519 1 2.400000000000 101.372489761993 14.799985859944 8.906344704760
6520 1 2.400000000000 103.050842241497 11.511100113290 7.793051616665
6521 2 -1.200000000000 101.036819266093 12.744432268285 7.793051616665
6522 2 -1.200000000000 100.701148770192 15.211096578276 6.679758528570
6523 2 -1.200000000000 102.379501249695 11.922210831622 5.566465440475
6524 2 -1.200000000000 102.043830753795 14.388875141612 4.453172352380
6525 2 -1.200000000000 103.386512737397 13.566653704949 8.906344704760
6526 2 -1.200000000000 103.050842241497 16.033318014939 7.793051616665
6527 2 -1.200000000000 104.729194721000 12.744432268285 6.679758528570
6528 2 -1.200000000000 104.393524225099 15.211096578276 5.566465440475
6529 1 2.400000000000 98.687125794788 16.444428733271 6.679758528570
6530 1 2.400000000000 99.694137282490 18.088871606598 3.339879264285
6531 1 2.400000000000 100.701148770192 19.733314479925 6.679758528570
6532 1 2.400000000000 102.379501249695 16.444428733271 5.566465440475
6533 2 -1.200000000000 100.365478274291 17.677760888267 5.566465440475
6534 2 -1.200000000000 100.029807778391 20.144425198257 4.453172352380
6535 2 -1.200000000000 101.708160257894 16.855539451603 3.339879264285
6536 2 -1.200000000000 101.372489761993 19.322203761594 2.226586176190
6537 2 -1.200000000000 102.715171745596 18.499982324930 6.679758528570
6538 2 -1.200000000000 102.379501249695 20.966646634921 5.566465440475
6539 2 -1.200000000000 104.057853729199 17.677760888267 4.453172352380
6540 2 -1.200000000000 103.722183233298 20.144425198257 3.339879264285
6541 1 2.400000000000 98.015784802987 21.377757353253 4.453172352380
6542 1 2.400000000000 99.022796290689 23.022200226580 1.113293088095
6543 1 2.400000000000 100.029807778391 24.666643099907 4.453172352380
6544 1 2.400000000000 101.708160257894 21.377757353253 3.339879264285
6545 2 -1.200000000000 99.694137282490 22.611089508248 3.339879264285
6546 2 -1.200000000000 99.358466786590 25.077753818239 2.226586176190
6547 2 -1.200000000000 101.036819266093 21.788868071584 1.113293088095
6548 2 -1.200000000000 100.701148770192 24.255532381575 0.000000000000
6549 2 -1.200000000000 102.043830753795 23.433310944911 4.453172352380
6550 2 -1.200000000000 101.708160257894 25.899975254902 3.339879264285
6551 2 -1.200000000000 103.386512737397 22.611089508248 2.226586176190
6552 2 -1.200000000000 103.050842241497 25.077753818239 1.113293088095
6553 1 2.400000000000 97.344443811186 26.311085973234 2.226586176190
6554 1 2.400000000000 98.351455298888 27.955528846561 25.605741026184
6555 1 2.400000000000 99.358466786590 29.599971719888 2.226586176190
6556 1 2.400000000000 101.036819266093 26.311085973234 1.113293088095
6557 2 -1.200000000000 99.022796290689 27.544418128229 1.113293088095
6558 2 -1.200000000000 98.687125794788 30.011082438220 0.000000000000
6559 2 -1.200000000000 100.365478274291 26.722196691566 25.605741026184
6560 2 -1.200000000000 100.029807778391 29.188861001556 24.492447938089
6561 2 -1.200000000000 101.372489761993 28.366639564893 2.226586176190
6562 2 -1.200000000000 101.036819266093 30.833303874884 1.113293088095
6563 2 -1.200000000000 102.715171745596 27.544418128229 0.000000000000
6564 2 -1.200000000000 102.379501249695 30.011082438220 25.605741026184
6565 1 2.400000000000 96.673102819384 31.244414593215 0.000000000000
6566 1 2.400000000000 97.680114307086 32.888857466542 23.379154849994
6567 1 2.400000000000 98.687125794788 34.533300339870 0.000000000000
6568 1 2.400000000000 100.365478274291 31.244414593215 25.605741026184
6569 2 -1.200000000000 98.351455298888 32.477746748211 25.605741026184
6570 2 -1.200000000000 98.015784802987 34.944411058201 24.492447938089
6571 2 -1.200000000000 99.694137282490 31.655525311547 23.379154849994
6572 2 -1.200000000000 99.358466786590 34.122189621538 22.265861761899
6573 2 -1.200000000000 100.701148770192 33.299968184874 0.000000000000
6574 2 -1.200000000000 100.365478274291 35.766632494865 25.605741026184
6575 2 -1.200000000000 102.043830753795 32.477746748211 24.492447938089
6576 2 -1.200000000000 101.708160257894 34.944411058201 23.379154849994
6577 1 2.400000000000 103.386512737397 0.000000000000 8.906344704760
6578 1 2.400000000000 104.393524225099 1.644442873327 5.566465440475
6579 1 2.400000000000 105.400535712801 3.288885746654 8.906344704760
6580 1 2.400000000000 107.078888192304 0.000000000000 7.793051616665
6581 2 -1.200000000000 105.064865216900 1.233332154995 7.793051616665
6582 2 -1.200000000000 104.729194721000 3.699996464986 6.679758528570
6583 2 -1.200000000000 106.407547200503 0.411110718332 5.566465440475
6584 2 -1.200000000000 106.071876704602 2.877775028322 4.453172352380
6585 2 -1.200000000000 107.414558688205 2.055553591659 8.906344704760
6586 2 -1.200000000000 107.078888192304 4.522217901650 7.793051616665
6587 2 -1.200000000000 108.757240671807 1.233332154995 6.679758528570
6588 2 -1.200000000000 108.421570175907 3.699996464986 5.566465440475
6589 1 2.400000000000 102.715171745596 4.933328619981 6.679758528570
6590 1 2.400000000000 103.722183233298 6.577771493308 3.339879264285
6591 1 2.400000000000 104.729194721000 8.222214366636 6.679758528570
6592 1 2.400000000000 106.407547200503 4.933328619981 5.566465440475
6593 2 -1.200000000000 104.393524225099 6.166660774977 5.566465440475
6594 2 -1.200000000000 104.057853729198 8.633325084967 4.453172352380
6595 2 -1.200000000000 105.736206208702 5.344439338313 3.339879264285
6596 2 -1.200000000000 105.400535712801 7.811103648304 2.226586176190
6597 2 -1.200000000000 106.743217696404 6.988882211640 6.679758528570
6598 2 -1.200000000000 106.407547200503 9.455546521631 5.566465440475
6599 2 -1.200000000000 108.085899680006 6.166660774977 4.453172352380
6600 2 -1.200000000000 107.750229184106 8.633325084967 3.339879264285
6601 1 2.400000000000 102.043830753795 9.866657239963 4.453172352380
6602 1 2.400000000000 103.050842241497 11.511100113290 1.113293088095
6603 1 2.400000000000 104.057853729199 13.155542986617 4.453172352380
6604 1 2.400000000000 105.736206208702 9.866657239963 3.339879264285
6605 2 -1.200000000000 103.722183233298 11.099989394958 3.339879264285
6606 2 -1.200000000000 103.386512737397 13.566653704949 2.226586176190
6607 2 -1.200000000000 105.064865216900 10.277767958295 1.113293088095
6608 2 -1.200000000000 104.729194721000 12.744432268285 0.000000000000
6609 2 -1.200000000000 106.071876704602 11.922210831622 4.453172352380
6610 2 -1.200000000000 105.736206208702 14.388875141612 3.339879264285
6611 2 -1.200000000000 107.414558688205 11.099989394958 2.226586176190
6612 2 -1.200000000000 107.078888192304 13.566653704949 1.113293088095
6613 1 2.400000000000 101.372489761993 14.799985859944 2.226586176190
6614 1 2.400000000000 102.379501249695 16.444428733271 25.605741026184
6615 1 2.400000000000 103.386512737397 18.088871606598 2.226586176190
6616 1 2.400000000000 105.064865216900 14.799985859944 1.113293088095
6617 2 -1.200000000000 103.050842241497 16.033318014939 1.113293088095
6618 2 -1.200000000000 102.715171745596 18.499982324930 0.000000000000
6619 2 -1.200000000000 104.393524225099 15.211096578276 25.605741026184
6620 2 -1.200000000000 104.057853729198 17.677760888267 24.492447938089
6621 2 -1.200000000000 105.400535712801 16.855539451603 2.226586176190
6622 2 -1.200000000000 105.064865216900 19.322203761594 1.113293088095
6623 2 -1.200000000000 106.743217696404 16.033318014939 0.000000000000
6624 2 -1.200000000000 106.407547200503 18.499982324930 25.605741026184
6625 1 2.400000000000 100.701148770192 19.733314479925 0.000000000000
6626 1 2.400000000000 101.708160257894 21.377757353253 23.379154849994
6627 1 2.400000000000 102.715171745596 23.022200226580 0.000000000000
6628 1 2.400000000000 104.393524225099 19.733314479925 25.605741026184
6629 2 -1.200000000000 102.379501249695 20.966646634921 25.605741026184
6630 2 -1.200000000000 102.043830753795 23.433310944911 24.492447938089
6631 2 -1.200000000000 103.722183233298 20.144425198257 23.379154849994
6632 2 -1.200000000000 103.386512737397 22.611089508248 22.265861761899
6633 2 -1.200000000000 104.729194721000 21.788868071584 0.000000000000
6634 2 -1.200000000000 104.393524225099 24.255532381575 25.605741026184
6635 2 -1.200000000000 106.071876704602 20.966646634921 24.492447938089
6636 2 -1.200000000000 105.736206208702 23.433310944911 23.379154849994
6637 1 2.400000000000 105.400535712801 3.288885746654 2.226586176190
6638 1 2.400000000000 106.407547200503 4.933328619981 25.605741026184
6639 1 2.400000000000 107.414558688205 6.577771493308 2.226586176190
6640 1 2.400000000000 109.092911167708 3.288885746654 1.113293088095
6641 2 -1.200000000000 107.078888192304 4.522217901650 1.113293088095
6642 2 -1.200000000000 106.743217696404 6.988882211640 0.000000000000
6643 2 -1.200000000000 108.421570175907 3.699996464986 25.605741026184
6644 2 -1.200000000000 108.085899680006 6.166660774977 24.492447938089
6645 2 -1.200000000000 109.428581663609 5.344439338313 2.226586176190
6646 2 -1.200000000000 109.092911167708 7.811103648304 1.113293088095
6647 2 -1.200000000000 110.771263647211 4.522217901650 0.000000000000
6648 2 -1.200000000000 110.435593151311 6.988882211640 25.605741026184
6649 1 2.400000000000 104.729194721000 8.222214366636 0.000000000000
6650 1 2.400000000000 105.736206208702 9.866657239963 23.379154849994
6651 1 2.400000000000 106.743217696404 11.511100113290 0.000000000000
6652 1 2.400000000000 108.421570175907 8.222214366636 25.605741026184
6653 2 -1.200000000000 106.407547200503 9.455546521631 25.605741026184
6654 2 -1.200000000000 106.071876704602 11.922210831622 24.492447938089
6655 2 -1.200000000000 107.750229184106 8.633325084967 23.379154849994
6656 2 -1.200000000000 107.414558688205 11.099989394958 22.265861761899
6657 2 -1.200000000000 108.757240671807 10.277767958295 0.000000000000
6658 2 -1.200000000000 108.421570175907 12.744432268285 25.605741026184
6659 2 -1.200000000000 110.099922655410 9.455546521631 24.492447938089
6660 2 -1.200000000000 109.764252159509 11.922210831622 23.379154849994
6661 1 2.400000000000 91.973715876775 29.599971719888 24.492447938089
6662 1 2.400000000000 92.980727364477 31.244414593215 21.152568673804
6663 1 2.400000000000 93.987738852179 32.888857466542 24.492447938089
6664 1 2.400000000000 95.666091331682 29.599971719888 23.379154849994
6665 2 -1.200000000000 93.652068356279 30.833303874884 23.379154849994
6666 2 -1.200000000000 93.316397860378 33.299968184874 22.265861761899
6667 2 -1.200000000000 94.994750339881 30.011082438220 21.152568673804
6668 2 -1.200000000000 94.659079843981 32.477746748211 20.039275585709
6669 2 -1.200000000000 96.001761827583 31.655525311547 24.492447938089
6670 2 -1.200000000000 95.666091331682 34.122189621538 23.379154849994
6671 2 -1.200000000000 97.344443811186 30.833303874884 22.265861761899
6672 2 -1.200000000000 97.008773315285 33.299968184874 21.152568673804
6673 1 2.400000000000 91.302374884974 34.533300339870 22.265861761899
6674 1 2.400000000000 92.309386372676 0.000000000000 18.925982497614
6675 1 2.400000000000 93.316397860378 1.644442873327 22.265861761899
6676 1 2.400000000000 94.994750339881 34.533300339870 21.152568673804
6677 2 -1.200000000000 92.980727364477 35.766632494865 21.152568673804
6678 2 -1.200000000000 92.645056868577 2.055553591659 20.039275585709
6679 2 -1.200000000000 94.323409348080 34.944411058201 18.925982497614
6680 2 -1.200000000000 93.987738852179 1.233332154995 17.812689409519
6681 2 -1.200000000000 95.330420835782 0.411110718332 22.265861761899
6682 2 -1.200000000000 94.994750339881 2.877775028322 21.152568673804
6683 2 -1.200000000000 96.673102819384 35.766632494865 20.039275585709
6684 2 -1.200000000000 96.337432323484 2.055553591659 18.925982497614
6685 1 2.400000000000 96.001761827583 18.088871606598 24.492447938089
6686 1 2.400000000000 97.008773315285 19.733314479925 21.152568673804
6687 1 2.400000000000 98.015784802987 21.377757353253 24.492447938089
6688 1 2.400000000000 99.694137282490 18.088871606598 23.379154849994
6689 2 -1.200000000000 97.680114307086 19.322203761594 23.379154849994
6690 2 -1.200000000000 97.344443811186 21.788868071584 22.265861761899
6691 2 -1.200000000000 99.022796290689 18.499982324930 21.152568673804
6692 2 -1.200000000000 98.687125794788 20.966646634921 20.039275585709
6693 2 -1.200000000000 100.029807778391 20.144425198257 24.492447938089
6694 2 -1.200000000000 99.694137282490 22.611089508248 23.379154849994
6695 2 -1.200000000000 101.372489761993 19.322203761594 22.265861761899
6696 2 -1.200000000000 101.036819266093 21.788868071584 21.152568673804
6697 1 2.400000000000 95.330420835782 23.022200226580 22.265861761899
6698 1 2.400000000000 96.337432323484 24.666643099907 18.925982497614
6699 1 2.400000000000 97.344443811186 26.311085973234 22.265861761899
6700 1 2.400000000000 99.022796290689 23.022200226580 21.152568673804
6701 2 -1.200000000000 97.008773315285 24.255532381575 21.152568673804
6702 2 -1.200000000000 96.673102819384 26.722196691566 20.039275585709
6703 2 -1.200000000000 98.351455298888 23.433310944911 18.925982497614
6704 2 -1.200000000000 98.015784802987 25.899975254902 17.812689409519
6705 2 -1.200000000000 99.358466786590 25.077753818239 22.265861761899
6706 2 -1.200000000000 99.022796290689 27.544418128229 21.152568673804
6707 2 -1.200000000000 100.701148770192 24.255532381575 20.039275585709
6708 2 -1.200000000000 100.365478274291 26.722196691566 18.925982497614
6709 1 2.400000000000 94.659079843981 27.955528846561 20.039275585709
6710 1 2.400000000000 95.666091331682 29.599971719888 16.699396321424
6711 1 2.400000000000 96.673102819384 31.244414593215 20.039275585709
6712 1 2.400000000000 98.351455298888 27.955528846561 18.925982497614
6713 2 -1.200000000000 96.337432323484 29.188861001556 18.925982497614
6714 2 -1.200000000000 96.001761827583 31.655525311547 17.812689409519
6715 2 -1.200000000000 97.680114307086 28.366639564893 16.699396321424
6716 2 -1.200000000000 97.344443811186 30.833303874884 15.586103233329
6717 2 -1.200000000000 98.687125794788 30.011082438220 20.039275585709
6718 2 -1.200000000000 98.351455298888 32.477746748211 18.925982497614
6719 2 -1.200000000000 100.029807778391 29.188861001556 17.812689409519
6720 2 -1.200000000000 99.694137282490 31.655525311547 16.699396321424
6721 1 2.400000000000 93.987738852179 32.888857466542 17.812689409519
6722 1 2.400000000000 94.994750339881 34.533300339870 14.472810145234
6723 1 2.400000000000 96.001761827583 0.000000000000 17.812689409519
6724 1 2.400000000000 97.680114307086 32.888857466542 16.699396321424
6725 2 -1.200000000000 95.666091331682 34.122189621538 16.699396321424
6726 2 -1.200000000000 95.330420835782 0.411110718332 15.586103233329
6727 2 -1.200000000000 97.008773315285 33.299968184874 14.472810145234
6728 2 -1.200000000000 96.673102819384 35.766632494865 13.359517057139
6729 2 -1.200000000000 98.015784802987 34.944411058201 17.812689409519
6730 2 -1.200000000000 97.680114307086 1.233332154995 16.699396321424
6731 2 -1.200000000000 99.358466786590 34.122189621538 15.586103233329
6732 2 -1.200000000000 99.022796290689 0.411110718332 14.472810145234
6733 1 2.400000000000 100.029807778391 6.577771493308 24.492447938089
6734 1 2.400000000000 101.036819266093 8.222214366636 21.152568673804
6735 1 2.400000000000 102.043830753795 9.866657239963 24.492447938089
6736 1 2.400000000000 103.722183233298 6.577771493308 23.379154849994
6737 2 -1.200000000000 101.708160257894 7.811103648304 23.379154849994
6738 2 -1.200000000000 101.372489761993 10.277767958295 22.265861761899
6739 2 -1.200000000000 103.050842241497 6.988882211640 21.152568673804
6740 2 -1.200000000000 102.715171745596 9.455546521631 20.039275585709
6741 2 -1.200000000000 104.057853729199 8.633325084967 24.492447938089
6742 2 -1.200000000000 103.722183233298 11.099989394958 23.379154849994
6743 2 -1.200000000000 105.400535712801 7.811103648304 22.265861761899
6744 2 -1.200000000000 105.064865216900 10.277767958295 21.152568673804
6745 1 2.400000000000 99.358466786590 11.511100113290 22.265861761899
6746 1 2.400000000000 100.365478274291 13.155542986617 18.925982497614
6747 1 2.400000000000 101.372489761993 14.799985859944 22.265861761899
6748 1 2.400000000000 103.050842241497 11.511100113290 21.152568673804
6749 2 -1.200000000000 101.036819266093 12.744432268285 21.152568673804
6750 2 -1.200000000000 100.701148770192 15.211096578276 20.039275585709
6751 2 -1.200000000000 102.379501249695 11.922210831622 18.925982497614
6752 2 -1.200000000000 102.043830753795 14.388875141612 17.812689409519
6753 2 -1.200000000000 103.386512737397 13.566653704949 22.265861761899
6754 2 -1.200000000000 103.050842241497 16.033318014939 21.152568673804
6755 2 -1.200000000000 104.729194721000 12.744432268285 20.039275585709
6756 2 -1.200000000000 104.393524225099 15.211096578276 18.925982497614
6757 1 2.400000000000 98.687125794788 16.444428733271 20.039275585709
6758 1 2.400000000000 99.694137282490 18.088871606598 16.699396321424
6759 1 2.400000000000 100.701148770192 19.733314479925 20.039275585709
6760 1 2.400000000000 102.379501249695 16.444428733271 18.925982497614
6761 2 -1.200000000000 100.365478274291 17.677760888267 18.925982497614
6762 2 -1.200000000000 100.029807778391 20.144425198257 17.812689409519
6763 2 -1.200000000000 101.708160257894 16.855539451603 16.699396321424
6764 2 -1.200000000000 101.372489761993 19.322203761594 15.586103233329
6765 2 -1.200000000000 102.715171745596 18.499982324930 20.039275585709
6766 2 -1.200000000000 102.379501249695 20.966646634921 18.925982497614
6767 2 -1.200000000000 104.057853729198 17.677760888267 17.812689409519
6768 2 -1.200000000000 103.722183233298 20.144425198257 16.699396321424
6769 1 2.400000000000 98.015784802987 21.377757353253 17.812689409519
6770 1 2.400000000000 99.022796290689 23.022200226580 14.472810145234
6771 1 2.400000000000 100.029807778391 24.666643099907 17.812689409519
6772 1 2.400000000000 101.708160257894 21.377757353253 16.699396321424
6773 2 -1.200000000000 99.694137282490 22.611089508248 16.699396321424
6774 2 -1.200000000000 99.358466786590 25.077753818239 15.586103233329
6775 2 -1.200000000000 101.036819266093 21.788868071584 14.472810145234
6776 2 -1.200000000000 100.701148770192 24.255532381575 13.359517057139
6777 2 -1.200000000000 102.043830753795 23.433310944911 17.812689409519
6778 2 -1.200000000000 101.708160257894 25.899975254902 16.699396321424
6779 2 -1.200000000000 103.386512737397 22.611089508248 15.586103233329
6780 2 -1.200000000000 103.050842241497 25.077753818239 14.472810145234
6781 1 2.400000000000 97.344443811186 26.311085973234 15.586103233329
6782 1 2.400000000000 98.351455298888 27.955528846561 12.246223969044
6783 1 2.400000000000 99.358466786590 29.599971719888 15.586103233329
6784 1 2.400000000000 101.036819266093 26.311085973234 14.472810145234
6785 2 -1.200000000000 99.022796290689 27.544418128229 14.472810145234
6786 2 -1.200000000000 98.687125794788 30.011082438220 13.359517057139
6787 2 -1.200000000000 100.365478274291 26.722196691566 12.246223969044
6788 2 -1.200000000000 100.029807778391 29.188861001556 11.132930880950
6789 2 -1.200000000000 101.372489761993 28.366639564893 15.586103233329
6790 2 -1.200000000000 101.036819266093 30.833303874884 14.472810145234
6791 2 -1.200000000000 102.715171745596 27.544418128229 13.359517057139
6792 2 -1.200000000000 102.379501249695 30.011082438220 12.246223969045
6793 1 2.400000000000 96.673102819384 31.244414593215 13.359517057139
6794 1 2.400000000000 97.680114307086 32.888857466542 10.019637792855
6795 1 2.400000000000 98.687125794788 34.533300339870 13.359517057139
6796 1 2.400000000000 100.365478274291 31.244414593215 12.246223969044
6797 2 -1.200000000000 98.351455298888 32.477746748211 12.246223969044
6798 2 -1.200000000000 98.015784802987 34.944411058201 11.132930880950
6799 2 -1.200000000000 99.694137282490 31.655525311547 10.019637792855
6800 2 -1.200000000000 99.358466786590 34.122189621538 8.906344704760
6801 2 -1.200000000000 100.701148770192 33.299968184874 13.359517057139
6802 2 -1.200000000000 100.365478274291 35.766632494865 12.246223969044
6803 2 -1.200000000000 102.043830753795 32.477746748211 11.132930880950
6804 2 -1.200000000000 101.708160257894 34.944411058201 10.019637792855
6805 1 2.400000000000 103.386512737397 0.000000000000 22.265861761899
6806 1 2.400000000000 104.393524225099 1.644442873327 18.925982497614
6807 1 2.400000000000 105.400535712801 3.288885746654 22.265861761899
6808 1 2.400000000000 107.078888192304 0.000000000000 21.152568673804
6809 2 -1.200000000000 105.064865216900 1.233332154995 21.152568673804
6810 2 -1.200000000000 104.729194721000 3.699996464986 20.039275585709
6811 2 -1.200000000000 106.407547200503 0.411110718332 18.925982497614
6812 2 -1.200000000000 106.071876704602 2.877775028322 17.812689409519
6813 2 -1.200000000000 107.414558688205 2.055553591659 22.265861761899
6814 2 -1.200000000000 107.078888192304 4.522217901650 21.152568673804
6815 2 -1.200000000000 108.757240671807 1.233332154995 20.039275585709
6816 2 -1.200000000000 108.421570175907 3.699996464986 18.925982497614
6817 1 2.400000000000 102.715171745596 4.933328619981 20.039275585709
6818 1 2.400000000000 103.722183233298 6.577771493308 16.699396321424
6819 1 2.400000000000 104.729194721000 8.222214366636 20.039275585709
6820 1 2.400000000000 106.407547200503 4.933328619981 18.925982497614
6821 2 -1.200000000000 104.393524225099 6.166660774977 18.925982497614
6822 2 -1.200000000000 104.057853729198 8.633325084967 17.812689409519
6823 2 -1.200000000000 105.736206208702 5.344439338313 16.699396321424
6824 2 -1.200000000000 105.400535712801 7.811103648304 15.586103233329
6825 2 -1.200000000000 106.743217696404 6.988882211640 20.039275585709
6826 2 -1.200000000000 106.407547200503 9.455546521631 18.925982497614
6827 2 -1.200000000000 108.085899680006 6.166660774977 17.812689409519
6828 2 -1.200000000000 107.750229184106 8.633325084967 16.699396321424
6829 1 2.400000000000 102.043830753795 9.866657239963 17.812689409519
6830 1 2.400000000000 103.050842241497 11.511100113290 14.472810145234
6831 1 2.400000000000 104.057853729199 13.155542986617 17.812689409519
6832 1 2.400000000000 105.736206208702 9.866657239963 16.699396321424
6833 2 -1.200000000000 103.722183233298 11.099989394958 16.699396321424
6834 2 -1.200000000000 103.386512737397 13.566653704949 15.586103233329
6835 2 -1.200000000000 105.064865216900 10.277767958295 14.472810145234
6836 2 -1.200000000000 104.729194721000 12.744432268285 13.359517057139
6837 2 -1.200000000000 106.071876704602 11.922210831622 17.812689409519
6838 2 -1.200000000000 105.736206208702 14.388875141612 16.699396321424
6839 2 -1.200000000000 107.414558688205 11.099989394958 15.586103233329
6840 2 -1.200000000000 107.078888192304 13.566653704949 14.472810145234
6841 1 2.400000000000 101.372489761993 14.799985859944 15.586103233329
6842 1 2.400000000000 102.379501249695 16.444428733271 12.246223969044
6843 1 2.400000000000 103.386512737397 18.088871606598 15.586103233329
6844 1 2.400000000000 105.064865216900 14.799985859944 14.472810145234
6845 2 -1.200000000000 103.050842241497 16.033318014939 14.472810145234
6846 2 -1.200000000000 102.715171745596 18.499982324930 13.359517057139
6847 2 -1.200000000000 104.393524225099 15.211096578276 12.246223969044
6848 2 -1.200000000000 104.057853729198 17.677760888267 11.132930880950
6849 2 -1.200000000000 105.400535712801 16.855539451603 15.586103233329
6850 2 -1.200000000000 105.064865216900 19.322203761594 14.472810145234
6851 2 -1.200000000000 106.743217696404 16.033318014939 13.359517057139
6852 2 -1.200000000000 106.407547200503 18.499982324930 12.246223969045
6853 1 2.400000000000 100.701148770192 19.733314479925 13.359517057139
6854 1 2.400000000000 101.708160257894 21.377757353253 10.019637792855
6855 1 2.400000000000 102.715171745596 23.022200226580 13.359517057139
6856 1 2.400000000000 104.393524225099 19.733314479925 12.246223969044
6857 2 -1.200000000000 102.379501249695 20.966646634921 12.246223969044
6858 2 -1.200000000000 102.043830753795 23.433310944912 11.132930880950
6859 2 -1.200000000000 103.722183233298 20.144425198257 10.019637792855
6860 2 -1.200000000000 103.386512737397 22.611089508248 8.906344704760
6861 2 -1.200000000000 104.729194721000 21.788868071584 13.359517057139
6862 2 -1.200000000000 104.393524225099 24.255532381575 12.246223969045
6863 2 -1.200000000000 106.071876704602 20.966646634921 11.132930880950
6864 2 -1.200000000000 105.736206208702 23.433310944912 10.019637792855
6865 1 2.400000000000 100.029807778391 24.666643099907 11.132930880950
6866 1 2.400000000000 101.036819266093 26.311085973234 7.793051616665
6867 1 2.400000000000 102.043830753795 27.955528846561 11.132930880950
6868 1 2.400000000000 103.722183233298 24.666643099907 10.019637792855
6869 2 -1.200000000000 101.708160257894 25.899975254902 10.019637792855
6870 2 -1.200000000000 101.372489761993 28.366639564893 8.906344704760
6871 2 -1.200000000000 103.050842241497 25.077753818239 7.793051616665
6872 2 -1.200000000000 102.715171745596 27.544418128229 6.679758528570
6873 2 -1.200000000000 104.057853729199 26.722196691566 11.132930880950
6874 2 -1.200000000000 103.722183233298 29.188861001556 10.019637792855
6875 2 -1.200000000000 105.400535712801 25.899975254902 8.906344704760
6876 2 -1.200000000000 105.064865216900 28.366639564893 7.793051616665
6877 1 2.400000000000 99.358466786590 29.599971719888 8.906344704760
6878 1 2.400000000000 100.365478274291 31.244414593215 5.566465440475
6879 1 2.400000000000 101.372489761993 32.888857466542 8.906344704760
6880 1 2.400000000000 103.050842241497 29.599971719888 7.793051616665
6881 2 -1.200000000000 101.036819266093 30.833303874884 7.793051616665
6882 2 -1.200000000000 100.701148770192 33.299968184874 6.679758528570
6883 2 -1.200000000000 102.379501249695 30.011082438220 5.566465440475
6884 2 -1.200000000000 102.043830753795 32.477746748211 4.453172352380
6885 2 -1.200000000000 103.386512737397 31.655525311547 8.906344704760
6886 2 -1.200000000000 103.050842241497 34.122189621538 7.793051616665
6887 2 -1.200000000000 104.729194721000 30.833303874884 6.679758528570
6888 2 -1.200000000000 104.393524225099 33.299968184874 5.566465440475
6889 1 2.400000000000 98.687125794788 34.533300339870 6.679758528570
6890 1 2.400000000000 99.694137282490 0.000000000000 3.339879264285
6891 1 2.400000000000 100.701148770192 1.644442873327 6.679758528570
6892 1 2.400000000000 102.379501249695 34.533300339870 5.566465440475
6893 2 -1.200000000000 100.365478274291 35.766632494865 5.566465440475
6894 2 -1.200000000000 100.029807778391 2.055553591659 4.453172352380
6895 2 -1.200000000000 101.708160257894 34.944411058201 3.339879264285
6896 2 -1.200000000000 101.372489761993 1.233332154995 2.226586176190
6897 2 -1.200000000000 102.715171745596 0.411110718332 6.679758528570
6898 2 -1.200000000000 102.379501249695 2.877775028322 5.566465440475
6899 2 -1.200000000000 104.057853729198 35.766632494865 4.453172352380
6900 2 -1.200000000000 103.722183233298 2.055553591659 3.339879264285
6901 1 2.400000000000 105.400535712801 3.288885746654 15.586103233329
6902 1 2.400000000000 106.407547200503 4.933328619981 12.246223969045
6903 1 2.400000000000 107.414558688205 6.577771493308 15.586103233329
6904 1 2.400000000000 109.092911167708 3.288885746654 14.472810145234
6905 2 -1.200000000000 107.078888192304 4.522217901650 14.472810145234
6906 2 -1.200000000000 106.743217696404 6.988882211640 13.359517057139
6907 2 -1.200000000000 108.421570175907 3.699996464986 12.246223969044
6908 2 -1.200000000000 108.085899680006 6.166660774977 11.132930880950
6909 2 -1.200000000000 109.428581663609 5.344439338313 15.586103233329
6910 2 -1.200000000000 109.092911167708 7.811103648304 14.472810145234
6911 2 -1.200000000000 110.771263647211 4.522217901650 13.359517057139
6912 2 -1.200000000000 110.435593151311 6.988882211640 12.246223969045
6913 1 2.400000000000 104.729194721000 8.222214366636 13.359517057139
6914 1 2.400000000000 105.736206208702 9.866657239963 10.019637792855
6915 1 2.400000000000 106.743217696404 11.511100113290 13.359517057139
6916 1 2.400000000000 108.421570175907 8.222214366636 12.246223969045
6917 2 -1.200000000000 106.407547200503 9.455546521631 12.246223969044
6918 2 -1.200000000000 106.071876704602 11.922210831622 11.132930880950
6919 2 -1.200000000000 107.750229184106 8.633325084967 10.019637792855
6920 2 -1.200000000000 107.414558688205 11.099989394958 8.906344704760
6921 2 -1.200000000000 108.757240671807 10.277767958295 13.359517057139
6922 2 -1.200000000000 108.421570175907 12.744432268285 12.246223969045
6923 2 -1.200000000000 110.099922655410 9.455546521631 11.132930880950
6924 2 -1.200000000000 109.764252159509 11.922210831622 10.019637792855
6925 1 2.400000000000 104.057853729199 13.155542986617 11.132930880950
6926 1 2.400000000000 105.064865216900 14.799985859944 7.793051616665
6927 1 2.400000000000 106.071876704602 16.444428733271 11.132930880950
6928 1 2.400000000000 107.750229184106 13.155542986617 10.019637792855
6929 2 -1.200000000000 105.736206208702 14.388875141612 10.019637792855
6930 2 -1.200000000000 105.400535712801 16.855539451603 8.906344704760
6931 2 -1.200000000000 107.078888192304 13.566653704949 7.793051616665
6932 2 -1.200000000000 106.743217696404 16.033318014939 6.679758528570
6933 2 -1.200000000000 108.085899680006 15.211096578276 11.132930880950
6934 2 -1.200000000000 107.750229184106 17.677760888267 10.019637792855
6935 2 -1.200000000000 109.428581663609 14.388875141612 8.906344704760
6936 2 -1.200000000000 109.092911167708 16.855539451603 7.793051616665
6937 1 2.400000000000 103.386512737397 18.088871606598 8.906344704760
6938 1 2.400000000000 104.393524225099 19.733314479925 5.566465440475
6939 1 2.400000000000 105.400535712801 21.377757353253 8.906344704760
6940 1 2.400000000000 107.078888192304 18.088871606598 7.793051616665
6941 2 -1.200000000000 105.064865216900 19.322203761594 7.793051616665
6942 2 -1.200000000000 104.729194721000 21.788868071584 6.679758528570
6943 2 -1.200000000000 106.407547200503 18.499982324930 5.566465440475
6944 2 -1.200000000000 106.071876704602 20.966646634921 4.453172352380
6945 2 -1.200000000000 107.414558688205 20.144425198257 8.906344704760
6946 2 -1.200000000000 107.078888192304 22.611089508248 7.793051616665
6947 2 -1.200000000000 108.757240671807 19.322203761594 6.679758528570
6948 2 -1.200000000000 108.421570175907 21.788868071584 5.566465440475
6949 1 2.400000000000 102.715171745596 23.022200226580 6.679758528570
6950 1 2.400000000000 103.722183233298 24.666643099907 3.339879264285
6951 1 2.400000000000 104.729194721000 26.311085973234 6.679758528570
6952 1 2.400000000000 106.407547200503 23.022200226580 5.566465440475
6953 2 -1.200000000000 104.393524225099 24.255532381575 5.566465440475
6954 2 -1.200000000000 104.057853729199 26.722196691566 4.453172352380
6955 2 -1.200000000000 105.736206208702 23.433310944911 3.339879264285
6956 2 -1.200000000000 105.400535712801 25.899975254902 2.226586176190
6957 2 -1.200000000000 106.743217696404 25.077753818239 6.679758528570
6958 2 -1.200000000000 106.407547200503 27.544418128229 5.566465440475
6959 2 -1.200000000000 108.085899680006 24.255532381575 4.453172352380
6960 2 -1.200000000000 107.750229184106 26.722196691566 3.339879264285
6961 1 2.400000000000 102.043830753795 27.955528846561 4.453172352380
6962 1 2.400000000000 103.050842241497 29.599971719888 1.113293088095
6963 1 2.400000000000 104.057853729199 31.244414593215 4.453172352380
6964 1 2.400000000000 105.736206208702 27.955528846561 3.339879264285
6965 2 -1.200000000000 103.722183233298 29.188861001556 3.339879264285
6966 2 -1.200000000000 103.386512737397 31.655525311547 2.226586176190
6967 2 -1.200000000000 105.064865216900 28.366639564893 1.113293088095
6968 2 -1.200000000000 104.729194721000 30.833303874884 0.000000000000
6969 2 -1.200000000000 106.071876704602 30.011082438220 4.453172352380
6970 2 -1.200000000000 105.736206208702 32.477746748211 3.339879264285
6971 2 -1.200000000000 107.414558688205 29.188861001556 2.226586176190
6972 2 -1.200000000000 107.078888192304 31.655525311547 1.113293088095
6973 1 2.400000000000 101.372489761993 32.888857466542 2.226586176190
6974 1 2.400000000000 102.379501249695 34.533300339870 25.605741026184
6975 1 2.400000000000 103.386512737397 0.000000000000 2.226586176190
6976 1 2.400000000000 105.064865216900 32.888857466542 1.113293088095
6977 2 -1.200000000000 103.050842241497 34.122189621538 1.113293088095
6978 2 -1.200000000000 102.715171745596 0.411110718332 0.000000000000
6979 2 -1.200000000000 104.393524225099 33.299968184874 25.605741026184
6980 2 -1.200000000000 104.057853729198 35.766632494865 24.492447938089
6981 2 -1.200000000000 105.400535712801 34.944411058201 2.226586176190
6982 2 -1.200000000000 105.064865216900 1.233332154995 1.113293088095
6983 2 -1.200000000000 106.743217696404 34.122189621538 0.000000000000
6984 2 -1.200000000000 106.407547200503 0.411110718332 25.605741026184
6985 1 2.400000000000 108.085899680006 1.644442873327 11.132930880950
6986 1 2.400000000000 109.092911167708 3.288885746654 7.793051616665
6987 1 2.400000000000 110.099922655410 4.933328619981 11.132930880950
6988 1 2.400000000000 111.778275134913 1.644442873327 10.019637792855
6989 2 -1.200000000000 109.764252159509 2.877775028322 10.019637792855
6990 2 -1.200000000000 109.428581663609 5.344439338313 8.906344704760
6991 2 -1.200000000000 111.106934143112 2.055553591659 7.793051616665
6992 2 -1.200000000000 110.771263647211 4.522217901650 6.679758528570
6993 2 -1.200000000000 112.113945630814 3.699996464986 11.132930880950
6994 2 -1.200000000000 111.778275134913 6.166660774977 10.019637792855
6995 2 -1.200000000000 113.456627614416 2.877775028322 8.906344704760
6996 2 -1.200000000000 113.120957118516 5.344439338313 7.793051616665
6997 1 2.400000000000 107.414558688205 6.577771493308 8.906344704760
6998 1 2.400000000000 108.421570175907 8.222214366636 5.566465440475
6999 1 2.400000000000 109.428581663609 9.866657239963 8.906344704760
7000 1 2.400000000000 111.106934143112 6.577771493308 7.793051616665
7001 2 -1.200000000000 109.092911167708 7.811103648304 7.793051616665
7002 2 -1.200000000000 108.757240671807 10.277767958295 6.679758528570
7003 2 -1.200000000000 110.435593151311 6.988882211640 5.566465440475
7004 2 -1.200000000000 110.099922655410 9.455546521631 4.453172352380
7005 2 -1.200000000000 111.442604639013 8.633325084967 8.906344704760
7006 2 -1.200000000000 111.106934143112 11.099989394958 7.793051616665
7007 2 -1.200000000000 112.785286622615 7.811103648304 6.679758528570
7008 2 -1.200000000000 112.449616126715 10.277767958295 5.566465440475
7009 1 2.400000000000 106.743217696404 11.511100113290 6.679758528570
7010 1 2.400000000000 107.750229184106 13.155542986617 3.339879264285
7011 1 2.400000000000 108.757240671807 14.799985859944 6.679758528570
7012 1 2.400000000000 110.435593151311 11.511100113290 5.566465440475
7013 2 -1.200000000000 108.421570175907 12.744432268285 5.566465440475
7014 2 -1.200000000000 108.085899680006 15.211096578276 4.453172352380
7015 2 -1.200000000000 109.764252159509 11.922210831622 3.339879264285
7016 2 -1.200000000000 109.428581663609 14.388875141612 2.226586176190
7017 2 -1.200000000000 110.771263647211 13.566653704949 6.679758528570
7018 2 -1.200000000000 110.435593151311 16.033318014939 5.566465440475
7019 2 -1.200000000000 112.113945630814 12.744432268285 4.453172352380
7020 2 -1.200000000000 111.778275134913 15.211096578276 3.339879264285
7021 1 2.400000000000 106.071876704602 16.444428733271 4.453172352380
7022 1 2.400000000000 107.078888192304 18.088871606598 1.113293088095
7023 1 2.400000000000 108.085899680006 19.733314479925 4.453172352380
7024 1 2.400000000000 109.764252159509 16.444428733271 3.339879264285
7025 2 -1.200000000000 107.750229184106 17.677760888267 3.339879264285
7026 2 -1.200000000000 107.414558688205 20.144425198257 2.226586176190
7027 2 -1.200000000000 109.092911167708 16.855539451603 1.113293088095
7028 2 -1.200000000000 108.757240671807 19.322203761594 0.000000000000
7029 2 -1.200000000000 110.099922655410 18.499982324930 4.453172352380
7030 2 -1.200000000000 109.764252159509 20.966646634921 3.339879264285
7031 2 -1.200000000000 111.442604639013 17.677760888267 2.226586176190
7032 2 -1.200000000000 111.106934143112 20.144425198257 1.113293088095
7033 1 2.400000000000 105.400535712801 21.377757353253 2.226586176190
7034 1 2.400000000000 106.407547200503 23.022200226580 25.605741026184
7035 1 2.400000000000 107.414558688205 24.666643099907 2.226586176190
7036 1 2.400000000000 109.092911167708 21.377757353253 1.113293088095
7037 2 -1.200000000000 107.078888192304 22.611089508248 1.113293088095
7038 2 -1.200000000000 106.743217696404 25.077753818239 0.000000000000
7039 2 -1.200000000000 108.421570175907 21.788868071584 25.605741026184
7040 2 -1.200000000000 108.085899680006 24.255532381575 24.492447938089
7041 2 -1.200000000000 109.428581663609 23.433310944911 2.226586176190
7042 2 -1.200000000000 109.092911167708 25.899975254902 1.113293088095
7043 2 -1.200000000000 110.771263647211 22.611089508248 0.000000000000
7044 2 -1.200000000000 110.435593151311 25.077753818239 25.605741026184
7045 1 2.400000000000 104.729194721000 26.311085973234 0.000000000000
7046 1 2.400000000000 105.736206208702 27.955528846561 23.379154849994
7047 1 2.400000000000 106.743217696404 29.599971719888 0.000000000000
7048 1 2.400000000000 108.421570175907 26.311085973234 25.605741026184
7049 2 -1.200000000000 106.407547200503 27.544418128229 25.605741026184
7050 2 -1.200000000000 106.071876704602 30.011082438220 24.492447938089
7051 2 -1.200000000000 107.750229184106 26.722196691566 23.379154849994
7052 2 -1.200000000000 107.414558688205 29.188861001556 22.265861761899
7053 2 -1.200000000000 108.757240671807 28.366639564893 0.000000000000
7054 2 -1.200000000000 108.421570175907 30.833303874884 25.605741026184
7055 2 -1.200000000000 110.099922655410 27.544418128229 24.492447938089
7056 2 -1.200000000000 109.764252159509 30.011082438220 23.379154849994
7057 1 2.400000000000 110.771263647211 0.000000000000 6.679758528570
7058 1 2.400000000000 111.778275134913 1.644442873327 3.339879264285
7059 1 2.400000000000 112.785286622615 3.288885746654 6.679758528570
7060 1 2.400000000000 114.463639102118 0.000000000000 5.566465440475
7061 2 -1.200000000000 112.449616126715 1.233332154995 5.566465440475
7062 2 -1.200000000000 112.113945630814 3.699996464986 4.453172352380
7063 2 -1.200000000000 113.792298110317 0.411110718332 3.339879264285
7064 2 -1.200000000000 113.456627614416 2.877775028322 2.226586176190
7065 2 -1.200000000000 114.799309598019 2.055553591659 6.679758528570
7066 2 -1.200000000000 114.463639102118 4.522217901650 5.566465440475
7067 2 -1.200000000000 116.141991581622 1.233332154995 4.453172352380
7068 2 -1.200000000000 115.806321085721 3.699996464986 3.339879264285
7069 1 2.400000000000 110.099922655410 4.933328619981 4.453172352380
7070 1 2.400000000000 111.106934143112 6.577771493308 1.113293088095
7071 1 2.400000000000 112.113945630814 8.222214366636 4.453172352380
7072 1 2.400000000000 113.792298110317 4.933328619981 3.339879264285
7073 2 -1.200000000000 111.778275134913 6.166660774977 3.339879264285
7074 2 -1.200000000000 111.442604639013 8.633325084967 2.226586176190
7075 2 -1.200000000000 113.120957118516 5.344439338313 1.113293088095
7076 2 -1.200000000000 112.785286622615 7.811103648304 0.000000000000
7077 2 -1.200000000000 114.127968606218 6.988882211640 4.453172352380
7078 2 -1.200000000000 113.792298110317 9.455546521631 3.339879264285
7079 2 -1.200000000000 115.470650589820 6.166660774977 2.226586176190
7080 2 -1.200000000000 115.134980093920 8.633325084967 1.113293088095
7081 1 2.400000000000 109.428581663609 9.866657239963 2.226586176190
7082 1 2.400000000000 110.435593151311 11.511100113290 25.605741026184
7083 1 2.400000000000 111.442604639013 13.155542986617 2.226586176190
7084 1 2.400000000000 113.120957118516 9.866657239963 1.113293088095
7085 2 -1.200000000000 111.106934143112 11.099989394958 1.113293088095
7086 2 -1.200000000000 110.771263647211 13.566653704949 0.000000000000
7087 2 -1.200000000000 112.449616126715 10.277767958295 25.605741026184
7088 2 -1.200000000000 112.113945630814 12.744432268285 24.492447938089
7089 2 -1.200000000000 113.456627614416 11.922210831622 2.226586176190
7090 2 -1.200000000000 113.120957118516 14.388875141612 1.113293088095
7091 2 -1.200000000000 114.799309598019 11.099989394958 0.000000000000
7092 2 -1.200000000000 114.463639102118 13.566653704949 25.605741026184
7093 1 2.400000000000 108.757240671807 14.799985859944 0.000000000000
7094 1 2.400000000000 109.764252159509 16.444428733271 23.379154849994
7095 1 2.400000000000 110.771263647211 18.088871606598 0.000000000000
7096 1 2.400000000000 112.449616126715 14.799985859944 25.605741026184
7097 2 -1.200000000000 110.435593151311 16.033318014939 25.605741026184
7098 2 -1.200000000000 110.099922655410 18.499982324930 24.492447938089
7099 2 -1.200000000000 111.778275134913 15.211096578276 23.379154849994
7100 2 -1.200000000000 111.442604639013 17.677760888267 22.265861761899
7101 2 -1.200000000000 112.785286622615 16.855539451603 0.000000000000
7102 2 -1.200000000000 112.449616126715 19.322203761594 25.605741026184
7103 2 -1.200000000000 114.127968606218 16.033318014939 24.492447938089
7104 2 -1.200000000000 113.792298110317 18.499982324930 23.379154849994
7105 1 2.400000000000 112.785286622615 3.288885746654 0.000000000000
7106 1 2.400000000000 113.792298110317 4.933328619981 23.379154849994
7107 1 2.400000000000 114.799309598019 6.577771493308 0.000000000000
7108 1 2.400000000000 116.477662077522 3.288885746654 25.605741026184
7109 2 -1.200000000000 114.463639102118 4.522217901650 25.605741026184
7110 2 -1.200000000000 114.127968606218 6.988882211640 24.492447938089
7111 2 -1.200000000000 115.806321085721 3.699996464986 23.379154849994
7112 2 -1.200000000000 115.470650589820 6.166660774977 22.265861761899
7113 2 -1.200000000000 116.813332573423 5.344439338313 0.000000000000
7114 2 -1.200000000000 116.477662077522 7.811103648304 25.605741026184
7115 2 -1.200000000000 118.156014557025 4.522217901650 24.492447938089
7116 2 -1.200000000000 117.820344061125 6.988882211640 23.379154849994
7117 1 2.400000000000 100.029807778391 24.666643099907 24.492447938089
7118 1 2.400000000000 101.036819266093 26.311085973234 21.152568673804
7119 1 2.400000000000 102.043830753795 27.955528846561 24.492447938089
7120 1 2.400000000000 103.722183233298 24.666643099907 23.379154849994
7121 2 -1.200000000000 101.708160257894 25.899975254902 23.379154849994
7122 2 -1.200000000000 101.372489761993 28.366639564893 22.265861761899
7123 2 -1.200000000000 103.050842241497 25.077753818239 21.152568673804
7124 2 -1.200000000000 102.715171745596 27.544418128229 20.039275585709
7125 2 -1.200000000000 104.057853729199 26.722196691566 24.492447938089
7126 2 -1.200000000000 103.722183233298 29.188861001556 23.379154849994
7127 2 -1.200000000000 105.400535712801 25.899975254902 22.265861761899
7128 2 -1.200000000000 105.064865216900 28.366639564893 21.152568673804
7129 1 2.400000000000 99.358466786590 29.599971719888 22.265861761899
7130 1 2.400000000000 100.365478274291 31.244414593215 18.925982497614
7131 1 2.400000000000 101.372489761993 32.888857466542 22.265861761899
7132 1 2.400000000000 103.050842241497 29.599971719888 21.152568673804
7133 2 -1.200000000000 101.036819266093 30.833303874884 21.152568673804
7134 2 -1.200000000000 100.701148770192 33.299968184874 20.039275585709
7135 2 -1.200000000000 102.379501249695 30.011082438220 18.925982497614
7136 2 -1.200000000000 102.043830753795 32.477746748211 17.812689409519
7137 2 -1.200000000000 103.386512737397 31.655525311547 22.265861761899
7138 2 -1.200000000000 103.050842241497 34.122189621538 21.152568673804
7139 2 -1.200000000000 104.729194721000 30.833303874884 20.039275585709
7140 2 -1.200000000000 104.393524225099 33.299968184874 18.925982497614
7141 1 2.400000000000 98.687125794788 34.533300339870 20.039275585709
7142 1 2.400000000000 99.694137282490 0.000000000000 16.699396321424
7143 1 2.400000000000 100.701148770192 1.644442873327 20.039275585709
7144 1 2.400000000000 102.379501249695 34.533300339870 18.925982497614
7145 2 -1.200000000000 100.365478274291 35.766632494865 18.925982497614
7146 2 -1.200000000000 100.029807778391 2.055553591659 17.812689409519
7147 2 -1.200000000000 101.708160257894 34.944411058201 16.699396321424
7148 2 -1.200000000000 101.372489761993 1.233332154995 15.586103233329
7149 2 -1.200000000000 102.715171745596 0.411110718332 20.039275585709
7150 2 -1.200000000000 102.379501249695 2.877775028322 18.925982497614
7151 2 -1.200000000000 104.057853729199 35.766632494865 17.812689409519
7152 2 -1.200000000000 103.722183233298 2.055553591659 16.699396321424
7153 1 2.400000000000 104.057853729199 13.155542986617 24.492447938089
7154 1 2.400000000000 105.064865216900 14.799985859944 21.152568673804
7155 1 2.400000000000 106.071876704602 16.444428733271 24.492447938089
7156 1 2.400000000000 107.750229184106 13.155542986617 23.379154849994
7157 2 -1.200000000000 105.736206208702 14.388875141612 23.379154849994
7158 2 -1.200000000000 105.400535712801 16.855539451603 22.265861761899
7159 2 -1.200000000000 107.078888192304 13.566653704949 21.152568673804
7160 2 -1.200000000000 106.743217696404 16.033318014939 20.039275585709
7161 2 -1.200000000000 108.085899680006 15.211096578276 24.492447938089
7162 2 -1.200000000000 107.750229184106 17.677760888267 23.379154849994
7163 2 -1.200000000000 109.428581663609 14.388875141612 22.265861761899
7164 2 -1.200000000000 109.092911167708 16.855539451603 21.152568673804
7165 1 2.400000000000 103.386512737397 18.088871606598 22.265861761899
7166 1 2.400000000000 104.393524225099 19.733314479925 18.925982497614
7167 1 2.400000000000 105.400535712801 21.377757353253 22.265861761899
7168 1 2.400000000000 107.078888192304 18.088871606598 21.152568673804
7169 2 -1.200000000000 105.064865216900 19.322203761594 21.152568673804
7170 2 -1.200000000000 104.729194721000 21.788868071584 20.039275585709
7171 2 -1.200000000000 106.407547200503 18.499982324930 18.925982497614
7172 2 -1.200000000000 106.071876704602 20.966646634921 17.812689409519
7173 2 -1.200000000000 107.414558688205 20.144425198257 22.265861761899
7174 2 -1.200000000000 107.078888192304 22.611089508248 21.152568673804
7175 2 -1.200000000000 108.757240671807 19.322203761594 20.039275585709
7176 2 -1.200000000000 108.421570175907 21.788868071584 18.925982497614
7177 1 2.400000000000 102.715171745596 23.022200226580 20.039275585709
7178 1 2.400000000000 103.722183233298 24.666643099907 16.699396321424
7179 1 2.400000000000 104.729194721000 26.311085973234 20.039275585709
7180 1 2.400000000000 106.407547200503 23.022200226580 18.925982497614
7181 2 -1.200000000000 104.393524225099 24.255532381575 18.925982497614
7182 2 -1.200000000000 104.057853729199 26.722196691566 17.812689409519
7183 2 -1.200000000000 105.736206208702 23.433310944912 16.699396321424
7184 2 -1.200000000000 105.400535712801 25.899975254902 15.586103233329
7185 2 -1.200000000000 106.743217696404 25.077753818239 20.039275585709
7186 2 -1.200000000000 106.407547200503 27.544418128229 18.925982497614
7187 2 -1.200000000000 108.085899680006 24.255532381575 17.812689409519
7188 2 -1.200000000000 107.750229184106 26.722196691566 16.699396321424
7189 1 2.400000000000 102.043830753795 27.955528846561 17.812689409519
7190 1 2.400000000000 103.050842241497 29.599971719888 14.472810145234
7191 1 2.400000000000 104.057853729199 31.244414593215 17.812689409519
7192 1 2.400000000000 105.736206208702 27.955528846561 16.699396321424
7193 2 -1.200000000000 103.722183233298 29.188861001556 16.699396321424
7194 2 -1.200000000000 103.386512737397 31.655525311547 15.586103233329
7195 2 -1.200000000000 105.064865216900 28.366639564893 14.472810145234
7196 2 -1.200000000000 104.729194721000 30.833303874884 13.359517057139
7197 2 -1.200000000000 106.071876704602 30.011082438220 17.812689409519
7198 2 -1.200000000000 105.736206208702 32.477746748211 16.699396321424
7199 2 -1.200000000000 107.414558688205 29.188861001556 15.586103233329
7200 2 -1.200000000000 107.078888192304 31.655525311547 14.472810145234
7201 1 2.400000000000 101.372489761993 32.888857466542 15.586103233329
7202 1 2.400000000000 102.379501249695 34.533300339870 12.246223969044
7203 1 2.400000000000 103.386512737397 0.000000000000 15.586103233329
7204 1 2.400000000000 105.064865216900 32.888857466542 14.472810145234
7205 2 -1.200000000000 103.050842241497 34.122189621538 14.472810145234
7206 2 -1.200000000000 102.715171745596 0.411110718332 13.359517057139
7207 2 -1.200000000000 104.393524225099 33.299968184874 12.246223969045
7208 2 -1.200000000000 104.057853729198 35.766632494865 11.132930880950
7209 2 -1.200000000000 105.400535712801 34.944411058201 15.586103233329
7210 2 -1.200000000000 105.064865216900 1.233332154995 14.472810145234
7211 2 -1.200000000000 106.743217696404 34.122189621538 13.359517057139
7212 2 -1.200000000000 106.407547200503 0.411110718332 12.246223969044
7213 1 2.400000000000 108.085899680006 1.644442873327 24.492447938089
7214 1 2.400000000000 109.092911167708 3.288885746654 21.152568673804
7215 1 2.400000000000 110.099922655410 4.933328619981 24.492447938089
7216 1 2.400000000000 111.778275134913 1.644442873327 23.379154849994
7217 2 -1.200000000000 109.764252159509 2.877775028322 23.379154849994
7218 2 -1.200000000000 109.428581663609 5.344439338313 22.265861761899
7219 2 -1.200000000000 111.106934143112 2.055553591659 21.152568673804
7220 2 -1.200000000000 110.771263647211 4.522217901650 20.039275585709
7221 2 -1.200000000000 112.113945630814 3.699996464986 24.492447938089
7222 2 -1.200000000000 111.778275134913 6.166660774977 23.379154849994
7223 2 -1.200000000000 113.456627614416 2.877775028322 22.265861761899
7224 2 -1.200000000000 113.120957118516 5.344439338313 21.152568673804
7225 1 2.400000000000 107.414558688205 6.577771493308 22.265861761899
7226 1 2.400000000000 108.421570175907 8.222214366636 18.925982497614
7227 1 2.400000000000 109.428581663609 9.866657239963 22.265861761899
7228 1 2.400000000000 111.106934143112 6.577771493308 21.152568673804
7229 2 -1.200000000000 109.092911167708 7.811103648304 21.152568673804
7230 2 -1.200000000000 108.757240671807 10.277767958295 20.039275585709
7231 2 -1.200000000000 110.435593151311 6.988882211640 18.925982497614
7232 2 -1.200000000000 110.099922655410 9.455546521631 17.812689409519
7233 2 -1.200000000000 111.442604639013 8.633325084967 22.265861761899
7234 2 -1.200000000000 111.106934143112 11.099989394958 21.152568673804
7235 2 -1.200000000000 112.785286622615 7.811103648304 20.039275585709
7236 2 -1.200000000000 112.449616126715 10.277767958295 18.925982497614
7237 1 2.400000000000 106.743217696404 11.511100113290 20.039275585709
7238 1 2.400000000000 107.750229184106 13.155542986617 16.699396321424
7239 1 2.400000000000 108.757240671807 14.799985859944 20.039275585709
7240 1 2.400000000000 110.435593151311 11.511100113290 18.925982497614
7241 2 -1.200000000000 108.421570175907 12.744432268285 18.925982497614
7242 2 -1.200000000000 108.085899680006 15.211096578276 17.812689409519
7243 2 -1.200000000000 109.764252159509 11.922210831622 16.699396321424
7244 2 -1.200000000000 109.428581663609 14.388875141612 15.586103233329
7245 2 -1.200000000000 110.771263647211 13.566653704949 20.039275585709
7246 2 -1.200000000000 110.435593151311 16.033318014939 18.925982497614
7247 2 -1.200000000000 112.113945630814 12.744432268285 17.812689409519
7248 2 -1.200000000000 111.778275134913 15.211096578276 16.699396321424
7249 1 2.400000000000 106.071876704602 16.444428733271 17.812689409519
7250 1 2.400000000000 107.078888192304 18.088871606598 14.472810145234
7251 1 2.400000000000 108.085899680006 19.733314479925 17.812689409519
7252 1 2.400000000000 109.764252159509 16.444428733271 16.699396321424
7253 2 -1.200000000000 107.750229184106 17.677760888267 16.699396321424
7254 2 -1.200000000000 107.414558688205 20.144425198257 15.586103233329
7255 2 -1.200000000000 109.092911167708 16.855539451603 14.472810145234
7256 2 -1.200000000000 108.757240671807 19.322203761594 13.359517057139
7257 2 -1.200000000000 110.099922655410 18.499982324930 17.812689409519
7258 2 -1.200000000000 109.764252159509 20.966646634921 16.699396321424
7259 2 -1.200000000000 111.442604639013 17.677760888267 15.586103233329
7260 2 -1.200000000000 111.106934143112 20.144425198257 14.472810145234
7261 1 2.400000000000 105.400535712801 21.377757353253 15.586103233329
7262 1 2.400000000000 106.407547200503 23.022200226580 12.246223969045
7263 1 2.400000000000 107.414558688205 24.666643099907 15.586103233329
7264 1 2.400000000000 109.092911167708 21.377757353253 14.472810145234
7265 2 -1.200000000000 107.078888192304 22.611089508248 14.472810145234
7266 2 -1.200000000000 106.743217696404 25.077753818239 13.359517057139
7267 2 -1.200000000000 108.421570175907 21.788868071584 12.246223969044
7268 2 -1.200000000000 108.085899680006 24.255532381575 11.132930880950
7269 2 -1.200000000000 109.428581663609 23.433310944911 15.586103233329
7270 2 -1.200000000000 109.092911167708 25.899975254902 14.472810145234
7271 2 -1.200000000000 110.771263647211 22.611089508248 13.359517057139
7272 2 -1.200000000000 110.435593151311 25.077753818239 12.246223969045
7273 1 2.400000000000 104.729194721000 26.311085973234 13.359517057139
7274 1 2.400000000000 105.736206208702 27.955528846561 10.019637792855
7275 1 2.400000000000 106.743217696404 29.599971719888 13.359517057139
7276 1 2.400000000000 108.421570175907 26.311085973234 12.246223969045
7277 2 -1.200000000000 106.407547200503 27.544418128229 12.246223969044
7278 2 -1.200000000000 106.071876704602 30.011082438220 11.132930880950
7279 2 -1.200000000000 107.750229184106 26.722196691566 10.019637792855
7280 2 -1.200000000000 107.414558688205 29.188861001556 8.906344704760
7281 2 -1.200000000000 108.757240671807 28.366639564893 13.359517057139
7282 2 -1.200000000000 108.421570175907 30.833303874884 12.246223969045
7283 2 -1.200000000000 110.099922655410 27.544418128229 11.132930880950
7284 2 -1.200000000000 109.764252159509 30.011082438220 10.019637792855
7285 1 2.400000000000 104.057853729199 31.244414593215 11.132930880950
7286 1 2.400000000000 105.064865216900 32.888857466542 7.793051616665
7287 1 2.400000000000 106.071876704602 34.533300339870 11.132930880950
7288 1 2.400000000000 107.750229184106 31.244414593215 10.019637792855
7289 2 -1.200000000000 105.736206208702 32.477746748211 10.019637792855
7290 2 -1.200000000000 105.400535712801 34.944411058201 8.906344704760
7291 2 -1.200000000000 107.078888192304 31.655525311547 7.793051616665
7292 2 -1.200000000000 106.743217696404 34.122189621538 6.679758528570
7293 2 -1.200000000000 108.085899680006 33.299968184874 11.132930880950
7294 2 -1.200000000000 107.750229184106 35.766632494865 10.019637792855
7295 2 -1.200000000000 109.428581663609 32.477746748211 8.906344704760
7296 2 -1.200000000000 109.092911167708 34.944411058201 7.793051616665
7297 1 2.400000000000 110.771263647211 0.000000000000 20.039275585709
7298 1 2.400000000000 111.778275134913 1.644442873327 16.699396321424
7299 1 2.400000000000 112.785286622615 3.288885746654 20.039275585709
7300 1 2.400000000000 114.463639102118 0.000000000000 18.925982497614
7301 2 -1.200000000000 112.449616126715 1.233332154995 18.925982497614
7302 2 -1.200000000000 112.113945630814 3.699996464986 17.812689409519
7303 2 -1.200000000000 113.792298110317 0.411110718332 16.699396321424
7304 2 -1.200000000000 113.456627614416 2.877775028322 15.586103233329
7305 2 -1.200000000000 114.799309598019 2.055553591659 20.039275585709
7306 2 -1.200000000000 114.463639102118 4.522217901650 18.925982497614
7307 2 -1.200000000000 116.141991581622 1.233332154995 17.812689409519
7308 2 -1.200000000000 115.806321085721 3.699996464986 16.699396321424
7309 1 2.400000000000 110.099922655410 4.933328619981 17.812689409519
7310 1 2.400000000000 111.106934143112 6.577771493308 14.472810145234
7311 1 2.400000000000 112.113945630814 8.222214366636 17.812689409519
7312 1 2.400000000000 113.792298110317 4.933328619981 16.699396321424
7313 2 -1.200000000000 111.778275134913 6.166660774977 16.699396321424
7314 2 -1.200000000000 111.442604639013 8.633325084967 15.586103233329
7315 2 -1.200000000000 113.120957118516 5.344439338313 14.472810145234
7316 2 -1.200000000000 112.785286622615 7.811103648304 13.359517057139
7317 2 -1.200000000000 114.127968606218 6.988882211640 17.812689409519
7318 2 -1.200000000000 113.792298110317 9.455546521631 16.699396321424
7319 2 -1.200000000000 115.470650589820 6.166660774977 15.586103233329
7320 2 -1.200000000000 115.134980093920 8.633325084967 14.472810145234
7321 1 2.400000000000 109.428581663609 9.866657239963 15.586103233329
7322 1 2.400000000000 110.435593151311 11.511100113290 12.246223969045
7323 1 2.400000000000 111.442604639013 13.155542986617 15.586103233329
7324 1 2.400000000000 113.120957118516 9.866657239963 14.472810145234
7325 2 -1.200000000000 111.106934143112 11.099989394958 14.472810145234
7326 2 -1.200000000000 110.771263647211 13.566653704949 13.359517057139
7327 2 -1.200000000000 112.449616126715 10.277767958295 12.246223969044
7328 2 -1.200000000000 112.113945630814 12.744432268285 11.132930880950
7329 2 -1.200000000000 113.456627614416 11.922210831622 15.586103233329
7330 2 -1.200000000000 113.120957118516 14.388875141612 14.472810145234
7331 2 -1.200000000000 114.799309598019 11.099989394958 13.359517057139
7332 2 -1.200000000000 114.463639102118 13.566653704949 12.246223969044
7333 1 2.400000000000 108.757240671807 14.799985859944 13.359517057139
7334 1 2.400000000000 109.764252159509 16.444428733271 10.019637792855
7335 1 2.400000000000 110.771263647211 18.088871606598 13.359517057139
7336 1 2.400000000000 112.449616126715 14.799985859944 12.246223969045
7337 2 -1.200000000000 110.435593151311 16.033318014939 12.246223969045
7338 2 -1.200000000000 110.099922655410 18.499982324930 11.132930880950
7339 2 -1.200000000000 111.778275134913 15.211096578276 10.019637792855
7340 2 -1.200000000000 111.442604639013 17.677760888267 8.906344704760
7341 2 -1.200000000000 112.785286622615 16.855539451603 13.359517057139
7342 2 -1.200000000000 112.449616126715 19.322203761594 12.246223969044
7343 2 -1.200000000000 114.127968606218 16.033318014939 11.132930880950
7344 2 -1.200000000000 113.792298110317 18.499982324930 10.019637792855
7345 1 2.400000000000 108.085899680006 19.733314479925 11.132930880950
7346 1 2.400000000000 109.092911167708 21.377757353253 7.793051616665
7347 1 2.400000000000 110.099922655410 23.022200226580 11.132930880950
7348 1 2.400000000000 111.778275134913 19.733314479925 10.019637792855
7349 2 -1.200000000000 109.764252159509 20.966646634921 10.019637792855
7350 2 -1.200000000000 109.428581663609 23.433310944912 8.906344704760
7351 2 -1.200000000000 111.106934143112 20.144425198257 7.793051616665
7352 2 -1.200000000000 110.771263647211 22.611089508248 6.679758528570
7353 2 -1.200000000000 112.113945630814 21.788868071584 11.132930880950
7354 2 -1.200000000000 111.778275134913 24.255532381575 10.019637792855
7355 2 -1.200000000000 113.456627614416 20.966646634921 8.906344704760
7356 2 -1.200000000000 113.120957118516 23.433310944912 7.793051616665
7357 1 2.400000000000 107.414558688205 24.666643099907 8.906344704760
7358 1 2.400000000000 108.421570175907 26.311085973234 5.566465440475
7359 1 2.400000000000 109.428581663609 27.955528846561 8.906344704760
7360 1 2.400000000000 111.106934143112 24.666643099907 7.793051616665
7361 2 -1.200000000000 109.092911167708 25.899975254902 7.793051616665
7362 2 -1.200000000000 108.757240671807 28.366639564893 6.679758528570
7363 2 -1.200000000000 110.435593151311 25.077753818239 5.566465440475
7364 2 -1.200000000000 110.099922655410 27.544418128229 4.453172352380
7365 2 -1.200000000000 111.442604639013 26.722196691566 8.906344704760
7366 2 -1.200000000000 111.106934143112 29.188861001556 7.793051616665
7367 2 -1.200000000000 112.785286622615 25.899975254902 6.679758528570
7368 2 -1.200000000000 112.449616126715 28.366639564893 5.566465440475
7369 1 2.400000000000 106.743217696404 29.599971719888 6.679758528570
7370 1 2.400000000000 107.750229184106 31.244414593215 3.339879264285
7371 1 2.400000000000 108.757240671807 32.888857466542 6.679758528570
7372 1 2.400000000000 110.435593151311 29.599971719888 5.566465440475
7373 2 -1.200000000000 108.421570175907 30.833303874884 5.566465440475
7374 2 -1.200000000000 108.085899680006 33.299968184874 4.453172352380
7375 2 -1.200000000000 109.764252159509 30.011082438220 3.339879264285
7376 2 -1.200000000000 109.428581663609 32.477746748211 2.226586176190
7377 2 -1.200000000000 110.771263647211 31.655525311547 6.679758528570
7378 2 -1.200000000000 110.435593151311 34.122189621538 5.566465440475
7379 2 -1.200000000000 112.113945630814 30.833303874884 4.453172352380
7380 2 -1.200000000000 111.778275134913 33.299968184874 3.339879264285
7381 1 2.400000000000 106.071876704602 34.533300339870 4.453172352380
7382 1 2.400000000000 107.078888192304 0.000000000000 1.113293088095
7383 1 2.400000000000 108.085899680006 1.644442873327 4.453172352380
7384 1 2.400000000000 109.764252159509 34.533300339870 3.339879264285
7385 2 -1.200000000000 107.750229184106 35.766632494865 3.339879264285
7386 2 -1.200000000000 107.414558688205 2.055553591659 2.226586176190
7387 2 -1.200000000000 109.092911167708 34.944411058201 1.113293088095
7388 2 -1.200000000000 108.757240671807 1.233332154995 0.000000000000
7389 2 -1.200000000000 110.099922655410 0.411110718332 4.453172352380
7390 2 -1.200000000000 109.764252159509 2.877775028322 3.339879264285
7391 2 -1.200000000000 111.442604639013 35.766632494865 2.226586176190
7392 2 -1.200000000000 111.106934143112 2.055553591659 1.113293088095
7393 1 2.400000000000 112.785286622615 3.288885746654 13.359517057139
7394 1 2.400000000000 113.792298110317 4.933328619981 10.019637792855
7395 1 2.400000000000 114.799309598019 6.577771493308 13.359517057139
7396 1 2.400000000000 116.477662077522 3.288885746654 12.246223969045
7397 2 -1.200000000000 114.463639102118 4.522217901650 12.246223969045
7398 2 -1.200000000000 114.127968606218 6.988882211640 11.132930880950
7399 2 -1.200000000000 115.806321085721 3.699996464986 10.019637792855
7400 2 -1.200000000000 115.470650589820 6.166660774977 8.906344704760
7401 2 -1.200000000000 116.813332573423 5.344439338313 13.359517057139
7402 2 -1.200000000000 116.477662077522 7.811103648304 12.246223969045
7403 2 -1.200000000000 118.156014557025 4.522217901650 11.132930880950
7404 2 -1.200000000000 117.820344061125 6.988882211640 10.019637792855
7405 1 2.400000000000 112.113945630814 8.222214366636 11.132930880950
7406 1 2.400000000000 113.120957118516 9.866657239963 7.793051616665
7407 1 2.400000000000 114.127968606218 11.511100113290 11.132930880950
7408 1 2.400000000000 115.806321085721 8.222214366636 10.019637792855
7409 2 -1.200000000000 113.792298110317 9.455546521631 10.019637792855
7410 2 -1.200000000000 113.456627614416 11.922210831622 8.906344704760
7411 2 -1.200000000000 115.134980093920 8.633325084967 7.793051616665
7412 2 -1.200000000000 114.799309598019 11.099989394958 6.679758528570
7413 2 -1.200000000000 116.141991581622 10.277767958295 11.132930880950
7414 2 -1.200000000000 115.806321085721 12.744432268285 10.019637792855
7415 2 -1.200000000000 117.484673565224 9.455546521631 8.906344704760
7416 2 -1.200000000000 117.149003069323 11.922210831622 7.793051616665
7417 1 2.400000000000 111.442604639013 13.155542986617 8.906344704760
7418 1 2.400000000000 112.449616126715 14.799985859944 5.566465440475
7419 1 2.400000000000 113.456627614416 16.444428733271 8.906344704760
7420 1 2.400000000000 115.134980093920 13.155542986617 7.793051616665
7421 2 -1.200000000000 113.120957118516 14.388875141612 7.793051616665
7422 2 -1.200000000000 112.785286622615 16.855539451603 6.679758528570
7423 2 -1.200000000000 114.463639102118 13.566653704949 5.566465440475
7424 2 -1.200000000000 114.127968606218 16.033318014939 4.453172352380
7425 2 -1.200000000000 115.470650589820 15.211096578276 8.906344704760
7426 2 -1.200000000000 115.134980093920 17.677760888267 7.793051616665
7427 2 -1.200000000000 116.813332573423 14.388875141612 6.679758528570
7428 2 -1.200000000000 116.477662077522 16.855539451603 5.566465440475
7429 1 2.400000000000 110.771263647211 18.088871606598 6.679758528570
7430 1 2.400000000000 111.778275134913 19.733314479925 3.339879264285
7431 1 2.400000000000 112.785286622615 21.377757353253 6.679758528570
7432 1 2.400000000000 114.463639102118 18.088871606598 5.566465440475
7433 2 -1.200000000000 112.449616126715 19.322203761594 5.566465440475
7434 2 -1.200000000000 112.113945630814 21.788868071584 4.453172352380
7435 2 -1.200000000000 113.792298110317 18.499982324930 3.339879264285
7436 2 -1.200000000000 113.456627614416 20.966646634921 2.226586176190
7437 2 -1.200000000000 114.799309598019 20.144425198257 6.679758528570
7438 2 -1.200000000000 114.463639102118 22.611089508248 5.566465440475
7439 2 -1.200000000000 116.141991581622 19.322203761594 4.453172352380
7440 2 -1.200000000000 115.806321085721 21.788868071584 3.339879264285
7441 1 2.400000000000 110.099922655410 23.022200226580 4.453172352380
7442 1 2.400000000000 111.106934143112 24.666643099907 1.113293088095
7443 1 2.400000000000 112.113945630814 26.311085973234 4.453172352380
7444 1 2.400000000000 113.792298110317 23.022200226580 3.339879264285
7445 2 -1.200000000000 111.778275134913 24.255532381575 3.339879264285
7446 2 -1.200000000000 111.442604639013 26.722196691566 2.226586176190
7447 2 -1.200000000000 113.120957118516 23.433310944911 1.113293088095
7448 2 -1.200000000000 112.785286622615 25.899975254902 0.000000000000
7449 2 -1.200000000000 114.127968606218 25.077753818239 4.453172352380
7450 2 -1.200000000000 113.792298110317 27.544418128229 3.339879264285
7451 2 -1.200000000000 115.470650589820 24.255532381575 2.226586176190
7452 2 -1.200000000000 115.134980093920 26.722196691566 1.113293088095
7453 1 2.400000000000 109.428581663609 27.955528846561 2.226586176190
7454 1 2.400000000000 110.435593151311 29.599971719888 25.605741026184
7455 1 2.400000000000 111.442604639013 31.244414593215 2.226586176190
7456 1 2.400000000000 113.120957118516 27.955528846561 1.113293088095
7457 2 -1.200000000000 111.106934143112 29.188861001556 1.113293088095
7458 2 -1.200000000000 110.771263647211 31.655525311547 0.000000000000
7459 2 -1.200000000000 112.449616126715 28.366639564893 25.605741026184
7460 2 -1.200000000000 112.113945630814 30.833303874884 24.492447938089
7461 2 -1.200000000000 113.456627614416 30.011082438220 2.226586176190
7462 2 -1.200000000000 113.120957118516 32.477746748211 1.113293088095
7463 2 -1.200000000000 114.799309598019 29.188861001556 0.000000000000
7464 2 -1.200000000000 114.463639102118 31.655525311547 25.605741026184
7465 1 2.400000000000 108.757240671807 32.888857466542 0.000000000000
7466 1 2.400000000000 109.764252159509 34.533300339870 23.379154849994
7467 1 2.400000000000 110.771263647211 0.000000000000 0.000000000000
7468 1 2.400000000000 112.449616126715 32.888857466542 25.605741026184
7469 2 -1.200000000000 110.435593151311 34.122189621538 25.605741026184
7470 2 -1.200000000000 110.099922655410 0.411110718332 24.492447938089
7471 2 -1.200000000000 111.778275134913 33.299968184874 23.379154849994
7472 2 -1.200000000000 111.442604639013 35.766632494865 22.265861761899
7473 2 -1.200000000000 112.785286622615 34.944411058201 0.000000000000
7474 2 -1.200000000000 112.449616126715 1.233332154995 25.605741026184
7475 2 -1.200000000000 114.127968606218 34.122189621538 24.492447938089
7476 2 -1.200000000000 113.792298110317 0.411110718332 23.379154849994
7477 1 2.400000000000 115.470650589820 1.644442873327 8.906344704760
7478 1 2.400000000000 116.477662077522 3.288885746654 5.566465440475
7479 1 2.400000000000 117.484673565224 4.933328619981 8.906344704760
7480 1 2.400000000000 119.163026044727 1.644442873327 7.793051616665
7481 2 -1.200000000000 117.149003069323 2.877775028322 7.793051616665
7482 2 -1.200000000000 116.813332573423 5.344439338313 6.679758528570
7483 2 -1.200000000000 118.491685052926 2.055553591659 5.566465440475
7484 2 -1.200000000000 118.156014557025 4.522217901650 4.453172352380
7485 2 -1.200000000000 119.498696540628 3.699996464986 8.906344704760
7486 2 -1.200000000000 119.163026044727 6.166660774977 7.793051616665
7487 2 -1.200000000000 120.841378524231 2.877775028322 6.679758528570
7488 2 -1.200000000000 120.505708028330 5.344439338313 5.566465440475
7489 1 2.400000000000 114.799309598019 6.577771493308 6.679758528570
7490 1 2.400000000000 115.806321085721 8.222214366636 3.339879264285
7491 1 2.400000000000 116.813332573423 9.866657239963 6.679758528570
7492 1 2.400000000000 118.491685052926 6.577771493308 5.566465440475
7493 2 -1.200000000000 116.477662077522 7.811103648304 5.566465440475
7494 2 -1.200000000000 116.141991581622 10.277767958295 4.453172352380
7495 2 -1.200000000000 117.820344061125 6.988882211640 3.339879264285
7496 2 -1.200000000000 117.484673565224 9.455546521631 2.226586176190
7497 2 -1.200000000000 118.827355548827 8.633325084967 6.679758528570
7498 2 -1.200000000000 118.491685052926 11.099989394958 5.566465440475
7499 2 -1.200000000000 120.170037532429 7.811103648304 4.453172352380
7500 2 -1.200000000000 119.834367036529 10.277767958295 3.339879264285
7501 1 2.400000000000 114.127968606218 11.511100113290 4.453172352380
7502 1 2.400000000000 115.134980093920 13.155542986617 1.113293088095
7503 1 2.400000000000 116.141991581622 14.799985859944 4.453172352380
7504 1 2.400000000000 117.820344061125 11.511100113290 3.339879264285
7505 2 -1.200000000000 115.806321085721 12.744432268285 3.339879264285
7506 2 -1.200000000000 115.470650589820 15.211096578276 2.226586176190
7507 2 -1.200000000000 117.149003069323 11.922210831622 1.113293088095
7508 2 -1.200000000000 116.813332573423 14.388875141612 0.000000000000
7509 2 -1.200000000000 118.156014557025 13.566653704949 4.453172352380
7510 2 -1.200000000000 117.820344061125 16.033318014939 3.339879264285
7511 2 -1.200000000000 119.498696540628 12.744432268285 2.226586176190
7512 2 -1.200000000000 119.163026044727 15.211096578276 1.113293088095
7513 1 2.400000000000 113.456627614416 16.444428733271 2.226586176190
7514 1 2.400000000000 114.463639102118 18.088871606598 25.605741026184
7515 1 2.400000000000 115.470650589820 19.733314479925 2.226586176190
7516 1 2.400000000000 117.149003069323 16.444428733271 1.113293088095
7517 2 -1.200000000000 115.134980093920 17.677760888267 1.113293088095
7518 2 -1.200000000000 114.799309598019 20.144425198257 0.000000000000
7519 2 -1.200000000000 116.477662077522 16.855539451603 25.605741026184
7520 2 -1.200000000000 116.141991581622 19.322203761594 24.492447938089
7521 2 -1.200000000000 117.484673565224 18.499982324930 2.226586176190
7522 2 -1.200000000000 117.149003069323 20.966646634921 1.113293088095
7523 2 -1.200000000000 118.827355548827 17.677760888267 0.000000000000
7524 2 -1.200000000000 118.491685052926 20.144425198257 25.605741026184
7525 1 2.400000000000 112.785286622615 21.377757353253 0.000000000000
7526 1 2.400000000000 113.792298110317 23.022200226580 23.379154849994
7527 1 2.400000000000 114.799309598019 24.666643099907 0.000000000000
7528 1 2.400000000000 116.477662077522 21.377757353253 25.605741026184
7529 2 -1.200000000000 114.463639102118 22.611089508248 25.605741026184
7530 2 -1.200000000000 114.127968606218 25.077753818239 24.492447938089
7531 2 -1.200000000000 115.806321085721 21.788868071584 23.379154849994
7532 2 -1.200000000000 115.470650589820 24.255532381575 22.265861761899
7533 2 -1.200000000000 116.813332573423 23.433310944911 0.000000000000
7534 2 -1.200000000000 116.477662077522 25.899975254902 25.605741026184
7535 2 -1.200000000000 118.156014557025 22.611089508248 24.492447938089
7536 2 -1.200000000000 117.820344061125 25.077753818239 23.379154849994
7537 1 2.400000000000 118.156014557025 0.000000000000 4.453172352380
7538 1 2.400000000000 119.163026044727 1.644442873327 1.113293088095
7539 1 2.400000000000 120.170037532429 3.288885746654 4.453172352380
7540 1 2.400000000000 121.848390011932 0.000000000000 3.339879264285
7541 2 -1.200000000000 119.834367036529 1.233332154995 3.339879264285
7542 2 -1.200000000000 119.498696540628 3.699996464986 2.226586176190
7543 2 -1.200000000000 121.177049020131 0.411110718332 1.113293088095
7544 2 -1.200000000000 120.841378524231 2.877775028322 0.000000000000
7545 2 -1.200000000000 122.184060507833 2.055553591659 4.453172352380
7546 2 -1.200000000000 121.848390011932 4.522217901650 3.339879264285
7547 2 -1.200000000000 123.526742491436 1.233332154995 2.226586176190
7548 2 -1.200000000000 123.191071995535 3.699996464986 1.113293088095
7549 1 2.400000000000 117.484673565224 4.933328619981 2.226586176190
7550 1 2.400000000000 118.491685052926 6.577771493308 25.605741026184
7551 1 2.400000000000 119.498696540628 8.222214366636 2.226586176190
7552 1 2.400000000000 121.177049020131 4.933328619981 1.113293088095
7553 2 -1.200000000000 119.163026044727 6.166660774977 1.113293088095
7554 2 -1.200000000000 118.827355548827 8.633325084967 0.000000000000
7555 2 -1.200000000000 120.505708028330 5.344439338313 25.605741026184
7556 2 -1.200000000000 120.170037532429 7.811103648304 24.492447938089
7557 2 -1.200000000000 121.512719516032 6.988882211640 2.226586176190
7558 2 -1.200000000000 121.177049020131 9.455546521631 1.113293088095
7559 2 -1.200000000000 122.855401499634 6.166660774977 0.000000000000
7560 2 -1.200000000000 122.519731003734 8.633325084967 25.605741026184
7561 1 2.400000000000 116.813332573423 9.866657239963 0.000000000000
7562 1 2.400000000000 117.820344061125 11.511100113290 23.379154849994
7563 1 2.400000000000 118.827355548827 13.155542986617 0.000000000000
7564 1 2.400000000000 120.505708028330 9.866657239963 25.605741026184
7565 2 -1.200000000000 118.491685052926 11.099989394958 25.605741026184
7566 2 -1.200000000000 118.156014557025 13.566653704949 24.492447938089
7567 2 -1.200000000000 119.834367036529 10.277767958295 23.379154849994
7568 2 -1.200000000000 119.498696540628 12.744432268285 22.265861761899
7569 2 -1.200000000000 120.841378524231 11.922210831622 0.000000000000
7570 2 -1.200000000000 120.505708028330 14.388875141612 25.605741026184
7571 2 -1.200000000000 122.184060507833 11.099989394958 24.492447938089
7572 2 -1.200000000000 121.848390011932 13.566653704949 23.379154849994
7573 1 2.400000000000 104.057853729198 31.244414593215 24.492447938089
7574 1 2.400000000000 105.064865216900 32.888857466542 21.152568673804
7575 1 2.400000000000 106.071876704602 34.533300339870 24.492447938089
7576 1 2.400000000000 107.750229184106 31.244414593215 23.379154849994
7577 2 -1.200000000000 105.736206208702 32.477746748211 23.379154849994
7578 2 -1.200000000000 105.400535712801 34.944411058201 22.265861761899
7579 2 -1.200000000000 107.078888192304 31.655525311547 21.152568673804
7580 2 -1.200000000000 106.743217696404 34.122189621538 20.039275585709
7581 2 -1.200000000000 108.085899680006 33.299968184874 24.492447938089
7582 2 -1.200000000000 107.750229184106 35.766632494865 23.379154849994
7583 2 -1.200000000000 109.428581663609 32.477746748211 22.265861761899
7584 2 -1.200000000000 109.092911167708 34.944411058201 21.152568673804
7585 1 2.400000000000 108.085899680006 19.733314479925 24.492447938089
7586 1 2.400000000000 109.092911167708 21.377757353253 21.152568673804
7587 1 2.400000000000 110.099922655410 23.022200226580 24.492447938089
7588 1 2.400000000000 111.778275134913 19.733314479925 23.379154849994
7589 2 -1.200000000000 109.764252159509 20.966646634921 23.379154849994
7590 2 -1.200000000000 109.428581663609 23.433310944911 22.265861761899
7591 2 -1.200000000000 111.106934143112 20.144425198257 21.152568673804
7592 2 -1.200000000000 110.771263647211 22.611089508248 20.039275585709
7593 2 -1.200000000000 112.113945630814 21.788868071584 24.492447938089
7594 2 -1.200000000000 111.778275134913 24.255532381575 23.379154849994
7595 2 -1.200000000000 113.456627614416 20.966646634921 22.265861761899
7596 2 -1.200000000000 113.120957118516 23.433310944912 21.152568673804
7597 1 2.400000000000 107.414558688205 24.666643099907 22.265861761899
7598 1 2.400000000000 108.421570175907 26.311085973234 18.925982497614
7599 1 2.400000000000 109.428581663609 27.955528846561 22.265861761899
7600 1 2.400000000000 111.106934143112 24.666643099907 21.152568673804
7601 2 -1.200000000000 109.092911167708 25.899975254902 21.152568673804
7602 2 -1.200000000000 108.757240671807 28.366639564893 20.039275585709
7603 2 -1.200000000000 110.435593151311 25.077753818239 18.925982497614
7604 2 -1.200000000000 110.099922655410 27.544418128229 17.812689409519
7605 2 -1.200000000000 111.442604639013 26.722196691566 22.265861761899
7606 2 -1.200000000000 111.106934143112 29.188861001556 21.152568673804
7607 2 -1.200000000000 112.785286622615 25.899975254902 20.039275585709
7608 2 -1.200000000000 112.449616126715 28.366639564893 18.925982497614
7609 1 2.400000000000 106.743217696404 29.599971719888 20.039275585709
7610 1 2.400000000000 107.750229184106 31.244414593215 16.699396321424
7611 1 2.400000000000 108.757240671807 32.888857466542 20.039275585709
7612 1 2.400000000000 110.435593151311 29.599971719888 18.925982497614
7613 2 -1.200000000000 108.421570175907 30.833303874884 18.925982497614
7614 2 -1.200000000000 108.085899680006 33.299968184874 17.812689409519
7615 2 -1.200000000000 109.764252159509 30.011082438220 16.699396321424
7616 2 -1.200000000000 109.428581663609 32.477746748211 15.586103233329
7617 2 -1.200000000000 110.771263647211 31.655525311547 20.039275585709
7618 2 -1.200000000000 110.435593151311 34.122189621538 18.925982497614
7619 2 -1.200000000000 112.113945630814 30.833303874884 17.812689409519
7620 2 -1.200000000000 111.778275134913 33.299968184874 16.699396321424
7621 1 2.400000000000 106.071876704602 34.533300339870 17.812689409519
7622 1 2.400000000000 107.078888192304 0.000000000000 14.472810145234
7623 1 2.400000000000 108.085899680006 1.644442873327 17.812689409519
7624 1 2.400000000000 109.764252159509 34.533300339870 16.699396321424
7625 2 -1.200000000000 107.750229184106 35.766632494865 16.699396321424
7626 2 -1.200000000000 107.414558688205 2.055553591659 15.586103233329
7627 2 -1.200000000000 109.092911167708 34.944411058201 14.472810145234
7628 2 -1.200000000000 108.757240671807 1.233332154995 13.359517057139
7629 2 -1.200000000000 110.099922655410 0.411110718332 17.812689409519
7630 2 -1.200000000000 109.764252159509 2.877775028322 16.699396321424
7631 2 -1.200000000000 111.442604639013 35.766632494865 15.586103233329
7632 2 -1.200000000000 111.106934143112 2.055553591659 14.472810145234
7633 1 2.400000000000 112.113945630814 8.222214366636 24.492447938089
7634 1 2.400000000000 113.120957118516 9.866657239963 21.152568673804
7635 1 2.400000000000 114.127968606218 11.511100113290 24.492447938089
7636 1 2.400000000000 115.806321085721 8.222214366636 23.379154849994
7637 2 -1.200000000000 113.792298110317 9.455546521631 23.379154849994
7638 2 -1.200000000000 113.456627614416 11.922210831622 22.265861761899
7639 2 -1.200000000000 115.134980093920 8.633325084967 21.152568673804
7640 2 -1.200000000000 114.799309598019 11.099989394958 20.039275585709
7641 2 -1.200000000000 116.141991581622 10.277767958295 24.492447938089
7642 2 -1.200000000000 115.806321085721 12.744432268285 23.379154849994
7643 2 -1.200000000000 117.484673565224 9.455546521631 22.265861761899
7644 2 -1.200000000000 117.149003069323 11.922210831622 21.152568673804
7645 1 2.400000000000 111.442604639013 13.155542986617 22.265861761899
7646 1 2.400000000000 112.449616126715 14.799985859944 18.925982497614
7647 1 2.400000000000 113.456627614416 16.444428733271 22.265861761899
7648 1 2.400000000000 115.134980093920 13.155542986617 21.152568673804
7649 2 -1.200000000000 113.120957118516 14.388875141612 21.152568673804
7650 2 -1.200000000000 112.785286622615 16.855539451603 20.039275585709
7651 2 -1.200000000000 114.463639102118 13.566653704949 18.925982497614
7652 2 -1.200000000000 114.127968606218 16.033318014939 17.812689409519
7653 2 -1.200000000000 115.470650589820 15.211096578276 22.265861761899
7654 2 -1.200000000000 115.134980093920 17.677760888267 21.152568673804
7655 2 -1.200000000000 116.813332573423 14.388875141612 20.039275585709
7656 2 -1.200000000000 116.477662077522 16.855539451603 18.925982497614
7657 1 2.400000000000 110.771263647211 18.088871606598 20.039275585709
7658 1 2.400000000000 111.778275134913 19.733314479925 16.699396321424
7659 1 2.400000000000 112.785286622615 21.377757353253 20.039275585709
7660 1 2.400000000000 114.463639102118 18.088871606598 18.925982497614
7661 2 -1.200000000000 112.449616126715 19.322203761594 18.925982497614
7662 2 -1.200000000000 112.113945630814 21.788868071584 17.812689409519
7663 2 -1.200000000000 113.792298110317 18.499982324930 16.699396321424
7664 2 -1.200000000000 113.456627614416 20.966646634921 15.586103233329
7665 2 -1.200000000000 114.799309598019 20.144425198257 20.039275585709
7666 2 -1.200000000000 114.463639102118 22.611089508248 18.925982497614
7667 2 -1.200000000000 116.141991581622 19.322203761594 17.812689409519
7668 2 -1.200000000000 115.806321085721 21.788868071584 16.699396321424
7669 1 2.400000000000 110.099922655410 23.022200226580 17.812689409519
7670 1 2.400000000000 111.106934143112 24.666643099907 14.472810145234
7671 1 2.400000000000 112.113945630814 26.311085973234 17.812689409519
7672 1 2.400000000000 113.792298110317 23.022200226580 16.699396321424
7673 2 -1.200000000000 111.778275134913 24.255532381575 16.699396321424
7674 2 -1.200000000000 111.442604639013 26.722196691566 15.586103233329
7675 2 -1.200000000000 113.120957118516 23.433310944911 14.472810145234
7676 2 -1.200000000000 112.785286622615 25.899975254902 13.359517057139
7677 2 -1.200000000000 114.127968606218 25.077753818239 17.812689409519
7678 2 -1.200000000000 113.792298110317 27.544418128229 16.699396321424
7679 2 -1.200000000000 115.470650589820 24.255532381575 15.586103233329
7680 2 -1.200000000000 115.134980093920 26.722196691566 14.472810145234
7681 1 2.400000000000 109.428581663609 27.955528846561 15.586103233329
7682 1 2.400000000000 110.435593151311 29.599971719888 12.246223969044
7683 1 2.400000000000 111.442604639013 31.244414593215 15.586103233329
7684 1 2.400000000000 113.120957118516 27.955528846561 14.472810145234
7685 2 -1.200000000000 111.106934143112 29.188861001556 14.472810145234
7686 2 -1.200000000000 110.771263647211 31.655525311547 13.359517057139
7687 2 -1.200000000000 112.449616126715 28.366639564893 12.246223969045
7688 2 -1.200000000000 112.113945630814 30.833303874884 11.132930880950
7689 2 -1.200000000000 113.456627614416 30.011082438220 15.586103233329
7690 2 -1.200000000000 113.120957118516 32.477746748211 14.472810145234
7691 2 -1.200000000000 114.799309598019 29.188861001556 13.359517057139
7692 2 -1.200000000000 114.463639102118 31.655525311547 12.246223969045
7693 1 2.400000000000 108.757240671807 32.888857466542 13.359517057139
7694 1 2.400000000000 109.764252159509 34.533300339870 10.019637792855
7695 1 2.400000000000 110.771263647211 0.000000000000 13.359517057139
7696 1 2.400000000000 112.449616126715 32.888857466542 12.246223969044
7697 2 -1.200000000000 110.435593151311 34.122189621538 12.246223969045
7698 2 -1.200000000000 110.099922655410 0.411110718332 11.132930880950
7699 2 -1.200000000000 111.778275134913 33.299968184874 10.019637792855
7700 2 -1.200000000000 111.442604639013 35.766632494865 8.906344704760
7701 2 -1.200000000000 112.785286622615 34.944411058201 13.359517057139
7702 2 -1.200000000000 112.449616126715 1.233332154995 12.246223969044
7703 2 -1.200000000000 114.127968606218 34.122189621538 11.132930880950
7704 2 -1.200000000000 113.792298110317 0.411110718332 10.019637792855
7705 1 2.400000000000 115.470650589820 1.644442873327 22.265861761899
7706 1 2.400000000000 116.477662077522 3.288885746654 18.925982497614
7707 1 2.400000000000 117.484673565224 4.933328619981 22.265861761899
7708 1 2.400000000000 119.163026044727 1.644442873327 21.152568673804
7709 2 -1.200000000000 117.149003069323 2.877775028322 21.152568673804
7710 2 -1.200000000000 116.813332573423 5.344439338313 20.039275585709
7711 2 -1.200000000000 118.491685052926 2.055553591659 18.925982497614
7712 2 -1.200000000000 118.156014557025 4.522217901650 17.812689409519
7713 2 -1.200000000000 119.498696540628 3.699996464986 22.265861761899
7714 2 -1.200000000000 119.163026044727 6.166660774977 21.152568673804
7715 2 -1.200000000000 120.841378524231 2.877775028322 20.039275585709
7716 2 -1.200000000000 120.505708028330 5.344439338313 18.925982497614
7717 1 2.400000000000 114.799309598019 6.577771493308 20.039275585709
7718 1 2.400000000000 115.806321085721 8.222214366636 16.699396321424
7719 1 2.400000000000 116.813332573423 9.866657239963 20.039275585709
7720 1 2.400000000000 118.491685052926 6.577771493308 18.925982497614
7721 2 -1.200000000000 116.477662077522 7.811103648304 18.925982497614
7722 2 -1.200000000000 116.141991581622 10.277767958295 17.812689409519
7723 2 -1.200000000000 117.820344061125 6.988882211640 16.699396321424
7724 2 -1.200000000000 117.484673565224 9.455546521631 15.586103233329
7725 2 -1.200000000000 118.827355548827 8.633325084967 20.039275585709
7726 2 -1.200000000000 118.491685052926 11.099989394958 18.925982497614
7727 2 -1.200000000000 120.170037532429 7.811103648304 17.812689409519
7728 2 -1.200000000000 119.834367036529 10.277767958295 16.699396321424
7729 1 2.400000000000 114.127968606218 11.511100113290 17.812689409519
7730 1 2.400000000000 115.134980093920 13.155542986617 14.472810145234
7731 1 2.400000000000 116.141991581622 14.799985859944 17.812689409519
7732 1 2.400000000000 117.820344061125 11.511100113290 16.699396321424
7733 2 -1.200000000000 115.806321085721 12.744432268285 16.699396321424
7734 2 -1.200000000000 115.470650589820 15.211096578276 15.586103233329
7735 2 -1.200000000000 117.149003069323 11.922210831622 14.472810145234
7736 2 -1.200000000000 116.813332573423 14.388875141612 13.359517057139
7737 2 -1.200000000000 118.156014557025 13.566653704949 17.812689409519
7738 2 -1.200000000000 117.820344061125 16.033318014939 16.699396321424
7739 2 -1.200000000000 119.498696540628 12.744432268285 15.586103233329
7740 2 -1.200000000000 119.163026044727 15.211096578276 14.472810145234
7741 1 2.400000000000 113.456627614416 16.444428733271 15.586103233329
7742 1 2.400000000000 114.463639102118 18.088871606598 12.246223969045
7743 1 2.400000000000 115.470650589820 19.733314479925 15.586103233329
7744 1 2.400000000000 117.149003069323 16.444428733271 14.472810145234
7745 2 -1.200000000000 115.134980093920 17.677760888267 14.472810145234
7746 2 -1.200000000000 114.799309598019 20.144425198257 13.359517057139
7747 2 -1.200000000000 116.477662077522 16.855539451603 12.246223969045
7748 2 -1.200000000000 116.141991581622 19.322203761594 11.132930880950
7749 2 -1.200000000000 117.484673565224 18.499982324930 15.586103233329
7750 2 -1.200000000000 117.149003069323 20.966646634921 14.472810145234
7751 2 -1.200000000000 118.827355548827 17.677760888267 13.359517057139
7752 2 -1.200000000000 118.491685052926 20.144425198257 12.246223969044
7753 1 2.400000000000 112.785286622615 21.377757353253 13.359517057139
7754 1 2.400000000000 113.792298110317 23.022200226580 10.019637792855
7755 1 2.400000000000 114.799309598019 24.666643099907 13.359517057139
7756 1 2.400000000000 116.477662077522 21.377757353253 12.246223969044
7757 2 -1.200000000000 114.463639102118 22.611089508248 12.246223969044
7758 2 -1.200000000000 114.127968606218 25.077753818239 11.132930880950
7759 2 -1.200000000000 115.806321085721 21.788868071584 10.019637792855
7760 2 -1.200000000000 115.470650589820 24.255532381575 8.906344704760
7761 2 -1.200000000000 116.813332573423 23.433310944911 13.359517057139
7762 2 -1.200000000000 116.477662077522 25.899975254902 12.246223969044
7763 2 -1.200000000000 118.156014557025 22.611089508248 11.132930880950
7764 2 -1.200000000000 117.820344061125 25.077753818239 10.019637792855
7765 1 2.400000000000 112.113945630814 26.311085973234 11.132930880950
7766 1 2.400000000000 113.120957118516 27.955528846561 7.793051616665
7767 1 2.400000000000 114.127968606218 29.599971719888 11.132930880950
7768 1 2.400000000000 115.806321085721 26.311085973234 10.019637792855
7769 2 -1.200000000000 113.792298110317 27.544418128229 10.019637792855
7770 2 -1.200000000000 113.456627614416 30.011082438220 8.906344704760
7771 2 -1.200000000000 115.134980093920 26.722196691566 7.793051616665
7772 2 -1.200000000000 114.799309598019 29.188861001556 6.679758528570
7773 2 -1.200000000000 116.141991581622 28.366639564893 11.132930880950
7774 2 -1.200000000000 115.806321085721 30.833303874884 10.019637792855
7775 2 -1.200000000000 117.484673565224 27.544418128229 8.906344704760
7776 2 -1.200000000000 117.149003069323 30.011082438220 7.793051616665
7777 1 2.400000000000 111.442604639013 31.244414593215 8.906344704760
7778 1 2.400000000000 112.449616126715 32.888857466542 5.566465440475
7779 1 2.400000000000 113.456627614416 34.533300339870 8.906344704760
7780 1 2.400000000000 115.134980093920 31.244414593215 7.793051616665
7781 2 -1.200000000000 113.120957118516 32.477746748211 7.793051616665
7782 2 -1.200000000000 112.785286622615 34.944411058201 6.679758528570
7783 2 -1.200000000000 114.463639102118 31.655525311547 5.566465440475
7784 2 -1.200000000000 114.127968606218 34.122189621538 4.453172352380
7785 2 -1.200000000000 115.470650589820 33.299968184874 8.906344704760
7786 2 -1.200000000000 115.134980093920 35.766632494865 7.793051616665
7787 2 -1.200000000000 116.813332573423 32.477746748211 6.679758528570
7788 2 -1.200000000000 116.477662077522 34.944411058201 5.566465440475
7789 1 2.400000000000 118.156014557025 0.000000000000 17.812689409519
7790 1 2.400000000000 119.163026044727 1.644442873327 14.472810145234
7791 1 2.400000000000 120.170037532429 3.288885746654 17.812689409519
7792 1 2.400000000000 121.848390011932 0.000000000000 16.699396321424
7793 2 -1.200000000000 119.834367036529 1.233332154995 16.699396321424
7794 2 -1.200000000000 119.498696540628 3.699996464986 15.586103233329
7795 2 -1.200000000000 121.177049020131 0.411110718332 14.472810145234
7796 2 -1.200000000000 120.841378524231 2.877775028322 13.359517057139
7797 2 -1.200000000000 122.184060507833 2.055553591659 17.812689409519
7798 2 -1.200000000000 121.848390011932 4.522217901650 16.699396321424
7799 2 -1.200000000000 123.526742491436 1.233332154995 15.586103233329
7800 2 -1.200000000000 123.191071995535 3.699996464986 14.472810145234
7801 1 2.400000000000 117.484673565224 4.933328619981 15.586103233329
7802 1 2.400000000000 118.491685052926 6.577771493308 12.246223969044
7803 1 2.400000000000 119.498696540628 8.222214366636 15.586103233329
7804 1 2.400000000000 121.177049020131 4.933328619981 14.472810145234
7805 2 -1.200000000000 119.163026044727 6.166660774977 14.472810145234
7806 2 -1.200000000000 118.827355548827 8.633325084967 13.359517057139
7807 2 -1.200000000000 120.505708028330 5.344439338313 12.246223969045
7808 2 -1.200000000000 120.170037532429 7.811103648304 11.132930880950
7809 2 -1.200000000000 121.512719516032 6.988882211640 15.586103233329
7810 2 -1.200000000000 121.177049020131 9.455546521631 14.472810145234
7811 2 -1.200000000000 122.855401499634 6.166660774977 13.359517057139
7812 2 -1.200000000000 122.519731003734 8.633325084967 12.246223969044
7813 1 2.400000000000 116.813332573423 9.866657239963 13.359517057139
7814 1 2.400000000000 117.820344061125 11.511100113290 10.019637792855
7815 1 2.400000000000 118.827355548827 13.155542986617 13.359517057139
7816 1 2.400000000000 120.505708028330 9.866657239963 12.246223969044
7817 2 -1.200000000000 118.491685052926 11.099989394958 12.246223969045
7818 2 -1.200000000000 118.156014557025 13.566653704949 11.132930880950
7819 2 -1.200000000000 119.834367036529 10.277767958295 10.019637792855
7820 2 -1.200000000000 119.498696540628 12.744432268285 8.906344704760
7821 2 -1.200000000000 120.841378524231 11.922210831622 13.359517057139
7822 2 -1.200000000000 120.505708028330 14.388875141612 12.246223969044
7823 2 -1.200000000000 122.184060507833 11.099989394958 11.132930880950
7824 2 -1.200000000000 121.848390011932 13.566653704949 10.019637792855
7825 1 2.400000000000 116.141991581622 14.799985859944 11.132930880950
7826 1 2.400000000000 117.149003069323 16.444428733271 7.793051616665
7827 1 2.400000000000 118.156014557025 18.088871606598 11.132930880950
7828 1 2.400000000000 119.834367036529 14.799985859944 10.019637792855
7829 2 -1.200000000000 117.820344061125 16.033318014939 10.019637792855
7830 2 -1.200000000000 117.484673565224 18.499982324930 8.906344704760
7831 2 -1.200000000000 119.163026044727 15.211096578276 7.793051616665
7832 2 -1.200000000000 118.827355548827 17.677760888267 6.679758528570
7833 2 -1.200000000000 120.170037532429 16.855539451603 11.132930880950
7834 2 -1.200000000000 119.834367036529 19.322203761594 10.019637792855
7835 2 -1.200000000000 121.512719516032 16.033318014939 8.906344704760
7836 2 -1.200000000000 121.177049020131 18.499982324930 7.793051616665
7837 1 2.400000000000 115.470650589820 19.733314479925 8.906344704760
7838 1 2.400000000000 116.477662077522 21.377757353253 5.566465440475
7839 1 2.400000000000 117.484673565224 23.022200226580 8.906344704760
7840 1 2.400000000000 119.163026044727 19.733314479925 7.793051616665
7841 2 -1.200000000000 117.149003069323 20.966646634921 7.793051616665
7842 2 -1.200000000000 116.813332573423 23.433310944912 6.679758528570
7843 2 -1.200000000000 118.491685052926 20.144425198257 5.566465440475
7844 2 -1.200000000000 118.156014557025 22.611089508248 4.453172352380
7845 2 -1.200000000000 119.498696540628 21.788868071584 8.906344704760
7846 2 -1.200000000000 119.163026044727 24.255532381575 7.793051616665
7847 2 -1.200000000000 120.841378524231 20.966646634921 6.679758528570
7848 2 -1.200000000000 120.505708028330 23.433310944912 5.566465440475
7849 1 2.400000000000 114.799309598019 24.666643099907 6.679758528570
7850 1 2.400000000000 115.806321085721 26.311085973234 3.339879264285
7851 1 2.400000000000 116.813332573423 27.955528846561 6.679758528570
7852 1 2.400000000000 118.491685052926 24.666643099907 5.566465440475
7853 2 -1.200000000000 116.477662077522 25.899975254902 5.566465440475
7854 2 -1.200000000000 116.141991581622 28.366639564893 4.453172352380
7855 2 -1.200000000000 117.820344061125 25.077753818239 3.339879264285
7856 2 -1.200000000000 117.484673565224 27.544418128229 2.226586176190
7857 2 -1.200000000000 118.827355548827 26.722196691566 6.679758528570
7858 2 -1.200000000000 118.491685052926 29.188861001556 5.566465440475
7859 2 -1.200000000000 120.170037532429 25.899975254902 4.453172352380
7860 2 -1.200000000000 119.834367036529 28.366639564893 3.339879264285
7861 1 2.400000000000 114.127968606218 29.599971719888 4.453172352380
7862 1 2.400000000000 115.134980093920 31.244414593215 1.113293088095
7863 1 2.400000000000 116.141991581622 32.888857466542 4.453172352380
7864 1 2.400000000000 117.820344061125 29.599971719888 3.339879264285
7865 2 -1.200000000000 115.806321085721 30.833303874884 3.339879264285
7866 2 -1.200000000000 115.470650589820 33.299968184874 2.226586176190
7867 2 -1.200000000000 117.149003069323 30.011082438220 1.113293088095
7868 2 -1.200000000000 116.813332573423 32.477746748211 0.000000000000
7869 2 -1.200000000000 118.156014557025 31.655525311547 4.453172352380
7870 2 -1.200000000000 117.820344061125 34.122189621538 3.339879264285
7871 2 -1.200000000000 119.498696540628 30.833303874884 2.226586176190
7872 2 -1.200000000000 119.163026044727 33.299968184874 1.113293088095
7873 1 2.400000000000 113.456627614416 34.533300339870 2.226586176190
7874 1 2.400000000000 114.463639102118 0.000000000000 25.605741026184
7875 1 2.400000000000 115.470650589820 1.644442873327 2.226586176190
7876 1 2.400000000000 117.149003069323 34.533300339870 1.113293088095
7877 2 -1.200000000000 115.134980093920 35.766632494865 1.113293088095
7878 2 -1.200000000000 114.799309598019 2.055553591659 0.000000000000
7879 2 -1.200000000000 116.477662077522 34.944411058201 25.605741026184
7880 2 -1.200000000000 116.141991581622 1.233332154995 24.492447938089
7881 2 -1.200000000000 117.484673565224 0.411110718332 2.226586176190
7882 2 -1.200000000000 117.149003069323 2.877775028322 1.113293088095
7883 2 -1.200000000000 118.827355548827 35.766632494865 0.000000000000
7884 2 -1.200000000000 118.491685052926 2.055553591659 25.605741026184
7885 1 2.400000000000 120.170037532429 3.288885746654 11.132930880950
7886 1 2.400000000000 121.177049020131 4.933328619981 7.793051616665
7887 1 2.400000000000 122.184060507833 6.577771493308 11.132930880950
7888 1 2.400000000000 123.862412987336 3.288885746654 10.019637792855
7889 2 -1.200000000000 121.848390011932 4.522217901650 10.019637792855
7890 2 -1.200000000000 121.512719516032 6.988882211640 8.906344704760
7891 2 -1.200000000000 123.191071995535 3.699996464986 7.793051616665
7892 2 -1.200000000000 122.855401499634 6.166660774977 6.679758528570
7893 2 -1.200000000000 124.198083483237 5.344439338313 11.132930880950
7894 2 -1.200000000000 123.862412987336 7.811103648304 10.019637792855
7895 2 -1.200000000000 125.540765466839 4.522217901650 8.906344704760
7896 2 -1.200000000000 125.205094970939 6.988882211640 7.793051616665
7897 1 2.400000000000 119.498696540628 8.222214366636 8.906344704760
7898 1 2.400000000000 120.505708028330 9.866657239963 5.566465440475
7899 1 2.400000000000 121.512719516032 11.511100113290 8.906344704760
7900 1 2.400000000000 123.191071995535 8.222214366636 7.793051616665
7901 2 -1.200000000000 121.177049020131 9.455546521631 7.793051616665
7902 2 -1.200000000000 120.841378524231 11.922210831622 6.679758528570
7903 2 -1.200000000000 122.519731003734 8.633325084967 5.566465440475
7904 2 -1.200000000000 122.184060507833 11.099989394958 4.453172352380
7905 2 -1.200000000000 123.526742491436 10.277767958295 8.906344704760
7906 2 -1.200000000000 123.191071995535 12.744432268285 7.793051616665
7907 2 -1.200000000000 124.869424475038 9.455546521631 6.679758528570
7908 2 -1.200000000000 124.533753979138 11.922210831622 5.566465440475
7909 1 2.400000000000 118.827355548827 13.155542986617 6.679758528570
7910 1 2.400000000000 119.834367036529 14.799985859944 3.339879264285
7911 1 2.400000000000 120.841378524231 16.444428733271 6.679758528570
7912 1 2.400000000000 122.519731003734 13.155542986617 5.566465440475
7913 2 -1.200000000000 120.505708028330 14.388875141612 5.566465440475
7914 2 -1.200000000000 120.170037532429 16.855539451603 4.453172352380
7915 2 -1.200000000000 121.848390011932 13.566653704949 3.339879264285
7916 2 -1.200000000000 121.512719516032 16.033318014939 2.226586176190
7917 2 -1.200000000000 122.855401499634 15.211096578276 6.679758528570
7918 2 -1.200000000000 122.519731003734 17.677760888267 5.566465440475
7919 2 -1.200000000000 124.198083483237 14.388875141612 4.453172352380
7920 2 -1.200000000000 123.862412987336 16.855539451603 3.339879264285
7921 1 2.400000000000 118.156014557025 18.088871606598 4.453172352380
7922 1 2.400000000000 119.163026044727 19.733314479925 1.113293088095
7923 1 2.400000000000 120.170037532429 21.377757353253 4.453172352380
7924 1 2.400000000000 121.848390011932 18.088871606598 3.339879264285
7925 2 -1.200000000000 119.834367036529 19.322203761594 3.339879264285
7926 2 -1.200000000000 119.498696540628 21.788868071584 2.226586176190
7927 2 -1.200000000000 121.177049020131 18.499982324930 1.113293088095
7928 2 -1.200000000000 120.841378524231 20.966646634921 0.000000000000
7929 2 -1.200000000000 122.184060507833 20.144425198257 4.453172352380
7930 2 -1.200000000000 121.848390011932 22.611089508248 3.339879264285
7931 2 -1.200000000000 123.526742491436 19.322203761594 2.226586176190
7932 2 -1.200000000000 123.191071995535 21.788868071584 1.113293088095
7933 1 2.400000000000 117.484673565224 23.022200226580 2.226586176190
7934 1 2.400000000000 118.491685052926 24.666643099907 25.605741026184
7935 1 2.400000000000 119.498696540628 26.311085973234 2.226586176190
7936 1 2.400000000000 121.177049020131 23.022200226580 1.113293088095
7937 2 -1.200000000000 119.163026044727 24.255532381575 1.113293088095
7938 2 -1.200000000000 118.827355548827 26.722196691566 0.000000000000
7939 2 -1.200000000000 120.505708028330 23.433310944911 25.605741026184
7940 2 -1.200000000000 120.170037532429 25.899975254902 24.492447938089
7941 2 -1.200000000000 121.512719516032 25.077753818239 2.226586176190
7942 2 -1.200000000000 121.177049020131 27.544418128229 1.113293088095
7943 2 -1.200000000000 122.855401499634 24.255532381575 0.000000000000
7944 2 -1.200000000000 122.519731003734 26.722196691566 25.605741026184
7945 1 2.400000000000 116.813332573423 27.955528846561 0.000000000000
7946 1 2.400000000000 117.820344061125 29.599971719888 23.379154849994
7947 1 2.400000000000 118.827355548827 31.244414593215 0.000000000000
7948 1 2.400000000000 120.505708028330 27.955528846561 25.605741026184
7949 2 -1.200000000000 118.491685052926 29.188861001556 25.605741026184
7950 2 -1.200000000000 118.156014557025 31.655525311547 24.492447938089
7951 2 -1.200000000000 119.834367036529 28.366639564893 23.379154849994
7952 2 -1.200000000000 119.498696540628 30.833303874884 22.265861761899
7953 2 -1.200000000000 120.841378524231 30.011082438220 0.000000000000
7954 2 -1.200000000000 120.505708028330 32.477746748211 25.605741026184
7955 2 -1.200000000000 122.184060507833 29.188861001556 24.492447938089
7956 2 -1.200000000000 121.848390011932 31.655525311547 23.379154849994
7957 1 2.400000000000 122.855401499634 1.644442873327 6.679758528570
7958 1 2.400000000000 123.862412987336 3.288885746654 3.339879264285
7959 1 2.400000000000 124.869424475038 4.933328619981 6.679758528570
7960 1 2.400000000000 126.547776954541 1.644442873327 5.566465440475
7961 2 -1.200000000000 124.533753979138 2.877775028322 5.566465440475
7962 2 -1.200000000000 124.198083483237 5.344439338313 4.453172352380
7963 2 -1.200000000000 125.876435962740 2.055553591659 3.339879264285
7964 2 -1.200000000000 125.540765466839 4.522217901650 2.226586176190
7965 2 -1.200000000000 126.883447450442 3.699996464986 6.679758528570
7966 2 -1.200000000000 126.547776954541 6.166660774977 5.566465440475
7967 2 -1.200000000000 128.226129434045 2.877775028322 4.453172352380
7968 2 -1.200000000000 127.890458938144 5.344439338313 3.339879264285
7969 1 2.400000000000 122.184060507833 6.577771493308 4.453172352380
7970 1 2.400000000000 123.191071995535 8.222214366636 1.113293088095
7971 1 2.400000000000 124.198083483237 9.866657239963 4.453172352380
7972 1 2.400000000000 125.876435962740 6.577771493308 3.339879264285
7973 2 -1.200000000000 123.862412987336 7.811103648304 3.339879264285
7974 2 -1.200000000000 123.526742491436 10.277767958295 2.226586176190
7975 2 -1.200000000000 125.205094970939 6.988882211640 1.113293088095
7976 2 -1.200000000000 124.869424475038 9.455546521631 0.000000000000
7977 2 -1.200000000000 126.212106458641 8.633325084967 4.453172352380
7978 2 -1.200000000000 125.876435962740 11.099989394958 3.339879264285
7979 2 -1.200000000000 127.554788442243 7.811103648304 2.226586176190
7980 2 -1.200000000000 127.219117946343 10.277767958295 1.113293088095
7981 1 2.400000000000 121.512719516032 11.511100113290 2.226586176190
7982 1 2.400000000000 122.519731003734 13.155542986617 25.605741026184
7983 1 2.400000000000 123.526742491436 14.799985859944 2.226586176190
7984 1 2.400000000000 125.205094970939 11.511100113290 1.113293088095
7985 2 -1.200000000000 123.191071995535 12.744432268285 1.113293088095
7986 2 -1.200000000000 122.855401499634 15.211096578276 0.000000000000
7987 2 -1.200000000000 124.533753979138 11.922210831622 25.605741026184
7988 2 -1.200000000000 124.198083483237 14.388875141612 24.492447938089
7989 2 -1.200000000000 125.540765466839 13.566653704949 2.226586176190
7990 2 -1.200000000000 125.205094970939 16.033318014939 1.113293088095
7991 2 -1.200000000000 126.883447450442 12.744432268285 0.000000000000
7992 2 -1.200000000000 126.547776954541 15.211096578276 25.605741026184
7993 1 2.400000000000 120.841378524231 16.444428733271 0.000000000000
7994 1 2.400000000000 121.848390011932 18.088871606598 23.379154849994
7995 1 2.400000000000 122.855401499634 19.733314479925 0.000000000000
7996 1 2.400000000000 124.533753979138 16.444428733271 25.605741026184
7997 2 -1.200000000000 122.519731003734 17.677760888267 25.605741026184
7998 2 -1.200000000000 122.184060507833 20.144425198257 24.492447938089
7999 2 -1.200000000000 123.862412987336 16.855539451603 23.379154849994
8000 2 -1.200000000000 123.526742491436 19.322203761594 22.265861761899
8001 2 -1.200000000000 124.869424475038 18.499982324930 0.000000000000
8002 2 -1.200000000000 124.533753979138 20.966646634921 25.605741026184
8003 2 -1.200000000000 126.212106458641 17.677760888267 24.492447938089
8004 2 -1.200000000000 125.876435962740 20.144425198257 23.379154849994
8005 1 2.400000000000 125.540765466839 0.000000000000 2.226586176190
8006 1 2.400000000000 126.547776954541 1.644442873327 25.605741026184
8007 1 2.400000000000 127.554788442243 3.288885746654 2.226586176190
8008 1 2.400000000000 129.233140921747 0.000000000000 1.113293088095
8009 2 -1.200000000000 127.219117946343 1.233332154995 1.113293088095
8010 2 -1.200000000000 126.883447450442 3.699996464986 0.000000000000
8011 2 -1.200000000000 128.561799929945 0.411110718332 25.605741026184
8012 2 -1.200000000000 128.226129434045 2.877775028322 24.492447938089
8013 2 -1.200000000000 129.568811417647 2.055553591659 2.226586176190
8014 2 -1.200000000000 129.233140921747 4.522217901650 1.113293088095
8015 2 -1.200000000000 130.911493401250 1.233332154995 0.000000000000
8016 2 -1.200000000000 130.575822905349 3.699996464986 25.605741026184
8017 1 2.400000000000 124.869424475038 4.933328619981 0.000000000000
8018 1 2.400000000000 125.876435962740 6.577771493308 23.379154849994
8019 1 2.400000000000 126.883447450442 8.222214366636 0.000000000000
8020 1 2.400000000000 128.561799929945 4.933328619981 25.605741026184
8021 2 -1.200000000000 126.547776954541 6.166660774977 25.605741026184
8022 2 -1.200000000000 126.212106458641 8.633325084967 24.492447938089
8023 2 -1.200000000000 127.890458938144 5.344439338313 23.379154849994
8024 2 -1.200000000000 127.554788442243 7.811103648304 22.265861761899
8025 2 -1.200000000000 128.897470425846 6.988882211640 0.000000000000
8026 2 -1.200000000000 128.561799929945 9.455546521631 25.605741026184
8027 2 -1.200000000000 130.240152409448 6.166660774977 24.492447938089
8028 2 -1.200000000000 129.904481913548 8.633325084967 23.379154849994
8029 1 2.400000000000 112.113945630814 26.311085973234 24.492447938089
8030 1 2.400000000000 113.120957118516 27.955528846561 21.152568673804
8031 1 2.400000000000 114.127968606218 29.599971719888 24.492447938089
8032 1 2.400000000000 115.806321085721 26.311085973234 23.379154849994
8033 2 -1.200000000000 113.792298110317 27.544418128229 23.379154849994
8034 2 -1.200000000000 113.456627614416 30.011082438220 22.265861761899
8035 2 -1.200000000000 115.134980093920 26.722196691566 21.152568673804
8036 2 -1.200000000000 114.799309598019 29.188861001556 20.039275585709
8037 2 -1.200000000000 116.141991581622 28.366639564893 24.492447938089
8038 2 -1.200000000000 115.806321085721 30.833303874884 23.379154849994
8039 2 -1.200000000000 117.484673565224 27.544418128229 22.265861761899
8040 2 -1.200000000000 117.149003069323 30.011082438220 21.152568673804
8041 1 2.400000000000 111.442604639013 31.244414593215 22.265861761899
8042 1 2.400000000000 112.449616126715 32.888857466542 18.925982497614
8043 1 2.400000000000 113.456627614416 34.533300339870 22.265861761899
8044 1 2.400000000000 115.134980093920 31.244414593215 21.152568673804
8045 2 -1.200000000000 113.120957118516 32.477746748211 21.152568673804
8046 2 -1.200000000000 112.785286622615 34.944411058201 20.039275585709
8047 2 -1.200000000000 114.463639102118 31.655525311547 18.925982497614
8048 2 -1.200000000000 114.127968606218 34.122189621538 17.812689409519
8049 2 -1.200000000000 115.470650589820 33.299968184874 22.265861761899
8050 2 -1.200000000000 115.134980093920 35.766632494865 21.152568673804
8051 2 -1.200000000000 116.813332573423 32.477746748211 20.039275585709
8052 2 -1.200000000000 116.477662077522 34.944411058201 18.925982497614
8053 1 2.400000000000 116.141991581622 14.799985859944 24.492447938089
8054 1 2.400000000000 117.149003069323 16.444428733271 21.152568673804
8055 1 2.400000000000 118.156014557025 18.088871606598 24.492447938089
8056 1 2.400000000000 119.834367036529 14.799985859944 23.379154849994
8057 2 -1.200000000000 117.820344061125 16.033318014939 23.379154849994
8058 2 -1.200000000000 117.484673565224 18.499982324930 22.265861761899
8059 2 -1.200000000000 119.163026044727 15.211096578276 21.152568673804
8060 2 -1.200000000000 118.827355548827 17.677760888267 20.039275585709
8061 2 -1.200000000000 120.170037532429 16.855539451603 24.492447938089
8062 2 -1.200000000000 119.834367036529 19.322203761594 23.379154849994
8063 2 -1.200000000000 121.512719516032 16.033318014939 22.265861761899
8064 2 -1.200000000000 121.177049020131 18.499982324930 21.152568673804
8065 1 2.400000000000 115.470650589820 19.733314479925 22.265861761899
8066 1 2.400000000000 116.477662077522 21.377757353253 18.925982497614
8067 1 2.400000000000 117.484673565224 23.022200226580 22.265861761899
8068 1 2.400000000000 119.163026044727 19.733314479925 21.152568673804
8069 2 -1.200000000000 117.149003069323 20.966646634921 21.152568673804
8070 2 -1.200000000000 116.813332573423 23.433310944912 20.039275585709
8071 2 -1.200000000000 118.491685052926 20.144425198257 18.925982497614
8072 2 -1.200000000000 118.156014557025 22.611089508248 17.812689409519
8073 2 -1.200000000000 119.498696540628 21.788868071584 22.265861761899
8074 2 -1.200000000000 119.163026044727 24.255532381575 21.152568673804
8075 2 -1.200000000000 120.841378524231 20.966646634921 20.039275585709
8076 2 -1.200000000000 120.505708028330 23.433310944911 18.925982497614
8077 1 2.400000000000 114.799309598019 24.666643099907 20.039275585709
8078 1 2.400000000000 115.806321085721 26.311085973234 16.699396321424
8079 1 2.400000000000 116.813332573423 27.955528846561 20.039275585709
8080 1 2.400000000000 118.491685052926 24.666643099907 18.925982497614
8081 2 -1.200000000000 116.477662077522 25.899975254902 18.925982497614
8082 2 -1.200000000000 116.141991581622 28.366639564893 17.812689409519
8083 2 -1.200000000000 117.820344061125 25.077753818239 16.699396321424
8084 2 -1.200000000000 117.484673565224 27.544418128229 15.586103233329
8085 2 -1.200000000000 118.827355548827 26.722196691566 20.039275585709
8086 2 -1.200000000000 118.491685052926 29.188861001556 18.925982497614
8087 2 -1.200000000000 120.170037532429 25.899975254902 17.812689409519
8088 2 -1.200000000000 119.834367036529 28.366639564893 16.699396321424
8089 1 2.400000000000 114.127968606218 29.599971719888 17.812689409519
8090 1 2.400000000000 115.134980093920 31.244414593215 14.472810145234
8091 1 2.400000000000 116.141991581622 32.888857466542 17.812689409519
8092 1 2.400000000000 117.820344061125 29.599971719888 16.699396321424
8093 2 -1.200000000000 115.806321085721 30.833303874884 16.699396321424
8094 2 -1.200000000000 115.470650589820 33.299968184874 15.586103233329
8095 2 -1.200000000000 117.149003069323 30.011082438220 14.472810145234
8096 2 -1.200000000000 116.813332573423 32.477746748211 13.359517057139
8097 2 -1.200000000000 118.156014557025 31.655525311547 17.812689409519
8098 2 -1.200000000000 117.820344061125 34.122189621538 16.699396321424
8099 2 -1.200000000000 119.498696540628 30.833303874884 15.586103233329
8100 2 -1.200000000000 119.163026044727 33.299968184874 14.472810145234
8101 1 2.400000000000 113.456627614416 34.533300339870 15.586103233329
8102 1 2.400000000000 114.463639102118 0.000000000000 12.246223969044
8103 1 2.400000000000 115.470650589820 1.644442873327 15.586103233329
8104 1 2.400000000000 117.149003069323 34.533300339870 14.472810145234
8105 2 -1.200000000000 115.134980093920 35.766632494865 14.472810145234
8106 2 -1.200000000000 114.799309598019 2.055553591659 13.359517057139
8107 2 -1.200000000000 116.477662077522 34.944411058201 12.246223969045
8108 2 -1.200000000000 116.141991581622 1.233332154995 11.132930880950
8109 2 -1.200000000000 117.484673565224 0.411110718332 15.586103233329
8110 2 -1.200000000000 117.149003069323 2.877775028322 14.472810145234
8111 2 -1.200000000000 118.827355548827 35.766632494865 13.359517057139
8112 2 -1.200000000000 118.491685052926 2.055553591659 12.246223969044
8113 1 2.400000000000 120.170037532429 3.288885746654 24.492447938089
8114 1 2.400000000000 121.177049020131 4.933328619981 21.152568673804
8115 1 2.400000000000 122.184060507833 6.577771493308 24.492447938089
8116 1 2.400000000000 123.862412987336 3.288885746654 23.379154849994
8117 2 -1.200000000000 121.848390011932 4.522217901650 23.379154849994
8118 2 -1.200000000000 121.512719516032 6.988882211640 22.265861761899
8119 2 -1.200000000000 123.191071995535 3.699996464986 21.152568673804
8120 2 -1.200000000000 122.855401499634 6.166660774977 20.039275585709
8121 2 -1.200000000000 124.198083483237 5.344439338313 24.492447938089
8122 2 -1.200000000000 123.862412987336 7.811103648304 23.379154849994
8123 2 -1.200000000000 125.540765466839 4.522217901650 22.265861761899
8124 2 -1.200000000000 125.205094970939 6.988882211640 21.152568673804
8125 1 2.400000000000 119.498696540628 8.222214366636 22.265861761899
8126 1 2.400000000000 120.505708028330 9.866657239963 18.925982497614
8127 1 2.400000000000 121.512719516032 11.511100113290 22.265861761899
8128 1 2.400000000000 123.191071995535 8.222214366636 21.152568673804
8129 2 -1.200000000000 121.177049020131 9.455546521631 21.152568673804
8130 2 -1.200000000000 120.841378524231 11.922210831622 20.039275585709
8131 2 -1.200000000000 122.519731003734 8.633325084967 18.925982497614
8132 2 -1.200000000000 122.184060507833 11.099989394958 17.812689409519
8133 2 -1.200000000000 123.526742491436 10.277767958295 22.265861761899
8134 2 -1.200000000000 123.191071995535 12.744432268285 21.152568673804
8135 2 -1.200000000000 124.869424475038 9.455546521631 20.039275585709
8136 2 -1.200000000000 124.533753979138 11.922210831622 18.925982497614
8137 1 2.400000000000 118.827355548827 13.155542986617 20.039275585709
8138 1 2.400000000000 119.834367036529 14.799985859944 16.699396321424
8139 1 2.400000000000 120.841378524231 16.444428733271 20.039275585709
8140 1 2.400000000000 122.519731003734 13.155542986617 18.925982497614
8141 2 -1.200000000000 120.505708028330 14.388875141612 18.925982497614
8142 2 -1.200000000000 120.170037532429 16.855539451603 17.812689409519
8143 2 -1.200000000000 121.848390011932 13.566653704949 16.699396321424
8144 2 -1.200000000000 121.512719516032 16.033318014939 15.586103233329
8145 2 -1.200000000000 122.855401499634 15.211096578276 20.039275585709
8146 2 -1.200000000000 122.519731003734 17.677760888267 18.925982497614
8147 2 -1.200000000000 124.198083483237 14.388875141612 17.812689409519
8148 2 -1.200000000000 123.862412987336 16.855539451603 16.699396321424
8149 1 2.400000000000 118.156014557025 18.088871606598 17.812689409519
8150 1 2.400000000000 119.163026044727 19.733314479925 14.472810145234
8151 1 2.400000000000 120.170037532429 21.377757353253 17.812689409519
8152 1 2.400000000000 121.848390011932 18.088871606598 16.699396321424
8153 2 -1.200000000000 119.834367036529 19.322203761594 16.699396321424
8154 2 -1.200000000000 119.498696540628 21.788868071584 15.586103233329
8155 2 -1.200000000000 121.177049020131 18.499982324930 14.472810145234
8156 2 -1.200000000000 120.841378524231 20.966646634921 13.359517057139
8157 2 -1.200000000000 122.184060507833 20.144425198257 17.812689409519
8158 2 -1.200000000000 121.848390011932 22.611089508248 16.699396321424
8159 2 -1.200000000000 123.526742491436 19.322203761594 15.586103233329
8160 2 -1.200000000000 123.191071995535 21.788868071584 14.472810145234
8161 1 2.400000000000 117.484673565224 23.022200226580 15.586103233329
8162 1 2.400000000000 118.491685052926 24.666643099907 12.246223969045
8163 1 2.400000000000 119.498696540628 26.311085973234 15.586103233329
8164 1 2.400000000000 121.177049020131 23.022200226580 14.472810145234
8165 2 -1.200000000000 119.163026044727 24.255532381575 14.472810145234
8166 2 -1.200000000000 118.827355548827 26.722196691566 13.359517057139
8167 2 -1.200000000000 120.505708028330 23.433310944912 12.246223969045
8168 2 -1.200000000000 120.170037532429 25.899975254902 11.132930880950
8169 2 -1.200000000000 121.512719516032 25.077753818239 15.586103233329
8170 2 -1.200000000000 121.177049020131 27.544418128229 14.472810145234
8171 2 -1.200000000000 122.855401499634 24.255532381575 13.359517057139
8172 2 -1.200000000000 122.519731003734 26.722196691566 12.246223969045
8173 1 2.400000000000 116.813332573423 27.955528846561 13.359517057139
8174 1 2.400000000000 117.820344061125 29.599971719888 10.019637792855
8175 1 2.400000000000 118.827355548827 31.244414593215 13.359517057139
8176 1 2.400000000000 120.505708028330 27.955528846561 12.246223969044
8177 2 -1.200000000000 118.491685052926 29.188861001556 12.246223969045
8178 2 -1.200000000000 118.156014557025 31.655525311547 11.132930880950
8179 2 -1.200000000000 119.834367036529 28.366639564893 10.019637792855
8180 2 -1.200000000000 119.498696540628 30.833303874884 8.906344704760
8181 2 -1.200000000000 120.841378524231 30.011082438220 13.359517057139
8182 2 -1.200000000000 120.505708028330 32.477746748211 12.246223969045
8183 2 -1.200000000000 122.184060507833 29.188861001556 11.132930880950
8184 2 -1.200000000000 121.848390011932 31.655525311547 10.019637792855
8185 1 2.400000000000 116.141991581622 32.888857466542 11.132930880950
8186 1 2.400000000000 117.149003069323 34.533300339870 7.793051616665
8187 1 2.400000000000 118.156014557025 0.000000000000 11.132930880950
8188 1 2.400000000000 119.834367036529 32.888857466542 10.019637792855
8189 2 -1.200000000000 117.820344061125 34.122189621538 10.019637792855
8190 2 -1.200000000000 117.484673565224 0.411110718332 8.906344704760
8191 2 -1.200000000000 119.163026044727 33.299968184874 7.793051616665
8192 2 -1.200000000000 118.827355548827 35.766632494865 6.679758528570
8193 2 -1.200000000000 120.170037532429 34.944411058201 11.132930880950
8194 2 -1.200000000000 119.834367036529 1.233332154995 10.019637792855
8195 2 -1.200000000000 121.512719516032 34.122189621538 8.906344704760
8196 2 -1.200000000000 121.177049020131 0.411110718332 7.793051616665
8197 1 2.400000000000 122.855401499634 1.644442873327 20.039275585709
8198 1 2.400000000000 123.862412987336 3.288885746654 16.699396321424
8199 1 2.400000000000 124.869424475038 4.933328619981 20.039275585709
8200 1 2.400000000000 126.547776954541 1.644442873327 18.925982497614
8201 2 -1.200000000000 124.533753979138 2.877775028322 18.925982497614
8202 2 -1.200000000000 124.198083483237 5.344439338313 17.812689409519
8203 2 -1.200000000000 125.876435962740 2.055553591659 16.699396321424
8204 2 -1.200000000000 125.540765466839 4.522217901650 15.586103233329
8205 2 -1.200000000000 126.883447450442 3.699996464986 20.039275585709
8206 2 -1.200000000000 126.547776954541 6.166660774977 18.925982497614
8207 2 -1.200000000000 128.226129434045 2.877775028322 17.812689409519
8208 2 -1.200000000000 127.890458938144 5.344439338313 16.699396321424
8209 1 2.400000000000 122.184060507833 6.577771493308 17.812689409519
8210 1 2.400000000000 123.191071995535 8.222214366636 14.472810145234
8211 1 2.400000000000 124.198083483237 9.866657239963 17.812689409519
8212 1 2.400000000000 125.876435962740 6.577771493308 16.699396321424
8213 2 -1.200000000000 123.862412987336 7.811103648304 16.699396321424
8214 2 -1.200000000000 123.526742491436 10.277767958295 15.586103233329
8215 2 -1.200000000000 125.205094970939 6.988882211640 14.472810145234
8216 2 -1.200000000000 124.869424475038 9.455546521631 13.359517057139
8217 2 -1.200000000000 126.212106458641 8.633325084967 17.812689409519
8218 2 -1.200000000000 125.876435962740 11.099989394958 16.699396321424
8219 2 -1.200000000000 127.554788442243 7.811103648304 15.586103233329
8220 2 -1.200000000000 127.219117946343 10.277767958295 14.472810145234
8221 1 2.400000000000 121.512719516032 11.511100113290 15.586103233329
8222 1 2.400000000000 122.519731003734 13.155542986617 12.246223969044
8223 1 2.400000000000 123.526742491436 14.799985859944 15.586103233329
8224 1 2.400000000000 125.205094970939 11.511100113290 14.472810145234
8225 2 -1.200000000000 123.191071995535 12.744432268285 14.472810145234
8226 2 -1.200000000000 122.855401499634 15.211096578276 13.359517057139
8227 2 -1.200000000000 124.533753979138 11.922210831622 12.246223969045
8228 2 -1.200000000000 124.198083483237 14.388875141612 11.132930880950
8229 2 -1.200000000000 125.540765466839 13.566653704949 15.586103233329
8230 2 -1.200000000000 125.205094970939 16.033318014939 14.472810145234
8231 2 -1.200000000000 126.883447450442 12.744432268285 13.359517057139
8232 2 -1.200000000000 126.547776954541 15.211096578276 12.246223969044
8233 1 2.400000000000 120.841378524231 16.444428733271 13.359517057139
8234 1 2.400000000000 121.848390011932 18.088871606598 10.019637792855
8235 1 2.400000000000 122.855401499634 19.733314479925 13.359517057139
8236 1 2.400000000000 124.533753979138 16.444428733271 12.246223969044
8237 2 -1.200000000000 122.519731003734 17.677760888267 12.246223969045
8238 2 -1.200000000000 122.184060507833 20.144425198257 11.132930880950
8239 2 -1.200000000000 123.862412987336 16.855539451603 10.019637792855
8240 2 -1.200000000000 123.526742491436 19.322203761594 8.906344704760
8241 2 -1.200000000000 124.869424475038 18.499982324930 13.359517057139
8242 2 -1.200000000000 124.533753979138 20.966646634921 12.246223969044
8243 2 -1.200000000000 126.212106458641 17.677760888267 11.132930880950
8244 2 -1.200000000000 125.876435962740 20.144425198257 10.019637792855
8245 1 2.400000000000 120.170037532429 21.377757353253 11.132930880950
8246 1 2.400000000000 121.177049020131 23.022200226580 7.793051616665
8247 1 2.400000000000 122.184060507833 24.666643099907 11.132930880950
8248 1 2.400000000000 123.862412987336 21.377757353253 10.019637792855
8249 2 -1.200000000000 121.848390011932 22.611089508248 10.019637792855
8250 2 -1.200000000000 121.512719516032 25.077753818239 8.906344704760
8251 2 -1.200000000000 123.191071995535 21.788868071584 7.793051616665
8252 2 -1.200000000000 122.855401499634 24.255532381575 6.679758528570
8253 2 -1.200000000000 124.198083483237 23.433310944911 11.132930880950
8254 2 -1.200000000000 123.862412987336 25.899975254902 10.019637792855
8255 2 -1.200000000000 125.540765466839 22.611089508248 8.906344704760
8256 2 -1.200000000000 125.205094970939 25.077753818239 7.793051616665
8257 1 2.400000000000 119.498696540628 26.311085973234 8.906344704760
8258 1 2.400000000000 120.505708028330 27.955528846561 5.566465440475
8259 1 2.400000000000 121.512719516032 29.599971719888 8.906344704760
8260 1 2.400000000000 123.191071995535 26.311085973234 7.793051616665
8261 2 -1.200000000000 121.177049020131 27.544418128229 7.793051616665
8262 2 -1.200000000000 120.841378524231 30.011082438220 6.679758528570
8263 2 -1.200000000000 122.519731003734 26.722196691566 5.566465440475
8264 2 -1.200000000000 122.184060507833 29.188861001556 4.453172352380
8265 2 -1.200000000000 123.526742491436 28.366639564893 8.906344704760
8266 2 -1.200000000000 123.191071995535 30.833303874884 7.793051616665
8267 2 -1.200000000000 124.869424475038 27.544418128229 6.679758528570
8268 2 -1.200000000000 124.533753979138 30.011082438220 5.566465440475
8269 1 2.400000000000 118.827355548827 31.244414593215 6.679758528570
8270 1 2.400000000000 119.834367036529 32.888857466542 3.339879264285
8271 1 2.400000000000 120.841378524231 34.533300339870 6.679758528570
8272 1 2.400000000000 122.519731003734 31.244414593215 5.566465440475
8273 2 -1.200000000000 120.505708028330 32.477746748211 5.566465440475
8274 2 -1.200000000000 120.170037532429 34.944411058201 4.453172352380
8275 2 -1.200000000000 121.848390011932 31.655525311547 3.339879264285
8276 2 -1.200000000000 121.512719516032 34.122189621538 2.226586176190
8277 2 -1.200000000000 122.855401499634 33.299968184874 6.679758528570
8278 2 -1.200000000000 122.519731003734 35.766632494865 5.566465440475
8279 2 -1.200000000000 124.198083483237 32.477746748211 4.453172352380
8280 2 -1.200000000000 123.862412987336 34.944411058201 3.339879264285
8281 1 2.400000000000 125.540765466839 0.000000000000 15.586103233329
8282 1 2.400000000000 126.547776954541 1.644442873327 12.246223969045
8283 1 2.400000000000 127.554788442243 3.288885746654 15.586103233329
8284 1 2.400000000000 129.233140921747 0.000000000000 14.472810145234
8285 2 -1.200000000000 127.219117946343 1.233332154995 14.472810145234
8286 2 -1.200000000000 126.883447450442 3.699996464986 13.359517057139
8287 2 -1.200000000000 128.561799929945 0.411110718332 12.246223969045
8288 2 -1.200000000000 128.226129434045 2.877775028322 11.132930880950
8289 2 -1.200000000000 129.568811417647 2.055553591659 15.586103233329
8290 2 -1.200000000000 129.233140921747 4.522217901650 14.472810145234
8291 2 -1.200000000000 130.911493401250 1.233332154995 13.359517057139
8292 2 -1.200000000000 130.575822905349 3.699996464986 12.246223969044
8293 1 2.400000000000 124.869424475038 4.933328619981 13.359517057139
8294 1 2.400000000000 125.876435962740 6.577771493308 10.019637792855
8295 1 2.400000000000 126.883447450442 8.222214366636 13.359517057139
8296 1 2.400000000000 128.561799929945 4.933328619981 12.246223969045
8297 2 -1.200000000000 126.547776954541 6.166660774977 12.246223969045
8298 2 -1.200000000000 126.212106458641 8.633325084967 11.132930880950
8299 2 -1.200000000000 127.890458938144 5.344439338313 10.019637792855
8300 2 -1.200000000000 127.554788442243 7.811103648304 8.906344704760
8301 2 -1.200000000000 128.897470425846 6.988882211640 13.359517057139
8302 2 -1.200000000000 128.561799929945 9.455546521631 12.246223969045
8303 2 -1.200000000000 130.240152409448 6.166660774977 11.132930880950
8304 2 -1.200000000000 129.904481913548 8.633325084967 10.019637792855
8305 1 2.400000000000 124.198083483237 9.866657239963 11.132930880950
8306 1 2.400000000000 125.205094970939 11.511100113290 7.793051616665
8307 1 2.400000000000 126.212106458641 13.155542986617 11.132930880950
8308 1 2.400000000000 127.890458938144 9.866657239963 10.019637792855
8309 2 -1.200000000000 125.876435962740 11.099989394958 10.019637792855
8310 2 -1.200000000000 125.540765466839 13.566653704949 8.906344704760
8311 2 -1.200000000000 127.219117946343 10.277767958295 7.793051616665
8312 2 -1.200000000000 126.883447450442 12.744432268285 6.679758528570
8313 2 -1.200000000000 128.226129434045 11.922210831622 11.132930880950
8314 2 -1.200000000000 127.890458938144 14.388875141612 10.019637792855
8315 2 -1.200000000000 129.568811417647 11.099989394958 8.906344704760
8316 2 -1.200000000000 129.233140921747 13.566653704949 7.793051616665
8317 1 2.400000000000 123.526742491436 14.799985859944 8.906344704760
8318 1 2.400000000000 124.533753979138 16.444428733271 5.566465440475
8319 1 2.400000000000 125.540765466839 18.088871606598 8.906344704760
8320 1 2.400000000000 127.219117946343 14.799985859944 7.793051616665
8321 2 -1.200000000000 125.205094970939 16.033318014939 7.793051616665
8322 2 -1.200000000000 124.869424475038 18.499982324930 6.679758528570
8323 2 -1.200000000000 126.547776954541 15.211096578276 5.566465440475
8324 2 -1.200000000000 126.212106458641 17.677760888267 4.453172352380
8325 2 -1.200000000000 127.554788442243 16.855539451603 8.906344704760
8326 2 -1.200000000000 127.219117946343 19.322203761594 7.793051616665
8327 2 -1.200000000000 128.897470425846 16.033318014939 6.679758528570
8328 2 -1.200000000000 128.561799929945 18.499982324930 5.566465440475
8329 1 2.400000000000 122.855401499634 19.733314479925 6.679758528570
8330 1 2.400000000000 123.862412987336 21.377757353253 3.339879264285
8331 1 2.400000000000 124.869424475038 23.022200226580 6.679758528570
8332 1 2.400000000000 126.547776954541 19.733314479925 5.566465440475
8333 2 -1.200000000000 124.533753979138 20.966646634921 5.566465440475
8334 2 -1.200000000000 124.198083483237 23.433310944912 4.453172352380
8335 2 -1.200000000000 125.876435962740 20.144425198257 3.339879264285
8336 2 -1.200000000000 125.540765466840 22.611089508248 2.226586176190
8337 2 -1.200000000000 126.883447450442 21.788868071584 6.679758528570
8338 2 -1.200000000000 126.547776954541 24.255532381575 5.566465440475
8339 2 -1.200000000000 128.226129434045 20.966646634921 4.453172352380
8340 2 -1.200000000000 127.890458938144 23.433310944912 3.339879264285
8341 1 2.400000000000 122.184060507833 24.666643099907 4.453172352380
8342 1 2.400000000000 123.191071995535 26.311085973234 1.113293088095
8343 1 2.400000000000 124.198083483237 27.955528846561 4.453172352380
8344 1 2.400000000000 125.876435962740 24.666643099907 3.339879264285
8345 2 -1.200000000000 123.862412987336 25.899975254902 3.339879264285
8346 2 -1.200000000000 123.526742491436 28.366639564893 2.226586176190
8347 2 -1.200000000000 125.205094970939 25.077753818239 1.113293088095
8348 2 -1.200000000000 124.869424475038 27.544418128229 0.000000000000
8349 2 -1.200000000000 126.212106458641 26.722196691566 4.453172352380
8350 2 -1.200000000000 125.876435962740 29.188861001556 3.339879264285
8351 2 -1.200000000000 127.554788442243 25.899975254902 2.226586176190
8352 2 -1.200000000000 127.219117946343 28.366639564893 1.113293088095
8353 1 2.400000000000 121.512719516032 29.599971719888 2.226586176190
8354 1 2.400000000000 122.519731003734 31.244414593215 25.605741026184
8355 1 2.400000000000 123.526742491436 32.888857466542 2.226586176190
8356 1 2.400000000000 125.205094970939 29.599971719888 1.113293088095
8357 2 -1.200000000000 123.191071995535 30.833303874884 1.113293088095
8358 2 -1.200000000000 122.855401499634 33.299968184874 0.000000000000
8359 2 -1.200000000000 124.533753979138 30.011082438220 25.605741026184
8360 2 -1.200000000000 124.198083483237 32.477746748211 24.492447938089
8361 2 -1.200000000000 125.540765466839 31.655525311547 2.226586176190
8362 2 -1.200000000000 125.205094970939 34.122189621538 1.113293088095
8363 2 -1.200000000000 126.883447450442 30.833303874884 0.000000000000
8364 2 -1.200000000000 126.547776954541 33.299968184874 25.605741026184
8365 1 2.400000000000 120.841378524231 34.533300339870 0.000000000000
8366 1 2.400000000000 121.848390011932 0.000000000000 23.379154849994
8367 1 2.400000000000 122.855401499634 1.644442873327 0.000000000000
8368 1 2.400000000000 124.533753979138 34.533300339870 25.605741026184
8369 2 -1.200000000000 122.519731003734 35.766632494865 25.605741026184
8370 2 -1.200000000000 122.184060507833 2.055553591659 24.492447938089
8371 2 -1.200000000000 123.862412987336 34.944411058201 23.379154849994
8372 2 -1.200000000000 123.526742491436 1.233332154995 22.265861761899
8373 2 -1.200000000000 124.869424475038 0.411110718332 0.000000000000
8374 2 -1.200000000000 124.533753979138 2.877775028322 25.605741026184
8375 2 -1.200000000000 126.212106458641 35.766632494865 24.492447938089
8376 2 -1.200000000000 125.876435962740 2.055553591659 23.379154849994
8377 1 2.400000000000 127.554788442243 3.288885746654 8.906344704760
8378 1 2.400000000000 128.561799929945 4.933328619981 5.566465440475
8379 1 2.400000000000 129.568811417647 6.577771493308 8.906344704760
8380 1 2.400000000000 131.247163897150 3.288885746654 7.793051616665
8381 2 -1.200000000000 129.233140921747 4.522217901650 7.793051616665
8382 2 -1.200000000000 128.897470425846 6.988882211640 6.679758528570
8383 2 -1.200000000000 130.575822905349 3.699996464986 5.566465440475
8384 2 -1.200000000000 130.240152409448 6.166660774977 4.453172352380
8385 2 -1.200000000000 131.582834393051 5.344439338313 8.906344704760
8386 2 -1.200000000000 131.247163897150 7.811103648304 7.793051616665
8387 2 -1.200000000000 132.925516376654 4.522217901650 6.679758528570
8388 2 -1.200000000000 132.589845880753 6.988882211640 5.566465440475
8389 1 2.400000000000 126.883447450442 8.222214366636 6.679758528570
8390 1 2.400000000000 127.890458938144 9.866657239963 3.339879264285
8391 1 2.400000000000 128.897470425846 11.511100113290 6.679758528570
8392 1 2.400000000000 130.575822905349 8.222214366636 5.566465440475
8393 2 -1.200000000000 128.561799929945 9.455546521631 5.566465440475
8394 2 -1.200000000000 128.226129434045 11.922210831622 4.453172352380
8395 2 -1.200000000000 129.904481913548 8.633325084967 3.339879264285
8396 2 -1.200000000000 129.568811417647 11.099989394958 2.226586176190
8397 2 -1.200000000000 130.911493401250 10.277767958295 6.679758528570
8398 2 -1.200000000000 130.575822905349 12.744432268285 5.566465440475
8399 2 -1.200000000000 132.254175384852 9.455546521631 4.453172352380
8400 2 -1.200000000000 131.918504888952 11.922210831622 3.339879264285
8401 1 2.400000000000 126.212106458641 13.155542986617 4.453172352380
8402 1 2.400000000000 127.219117946343 14.799985859944 1.113293088095
8403 1 2.400000000000 128.226129434045 16.444428733271 4.453172352380
8404 1 2.400000000000 129.904481913548 13.155542986617 3.339879264285
8405 2 -1.200000000000 127.890458938144 14.388875141612 3.339879264285
8406 2 -1.200000000000 127.554788442243 16.855539451603 2.226586176190
8407 2 -1.200000000000 129.233140921747 13.566653704949 1.113293088095
8408 2 -1.200000000000 128.897470425846 16.033318014939 0.000000000000
8409 2 -1.200000000000 130.240152409448 15.211096578276 4.453172352380
8410 2 -1.200000000000 129.904481913548 17.677760888267 3.339879264285
8411 2 -1.200000000000 131.582834393051 14.388875141612 2.226586176190
8412 2 -1.200000000000 131.247163897150 16.855539451603 1.113293088095
8413 1 2.400000000000 125.540765466839 18.088871606598 2.226586176190
8414 1 2.400000000000 126.547776954541 19.733314479925 25.605741026184
8415 1 2.400000000000 127.554788442243 21.377757353253 2.226586176190
8416 1 2.400000000000 129.233140921747 18.088871606598 1.113293088095
8417 2 -1.200000000000 127.219117946343 19.322203761594 1.113293088095
8418 2 -1.200000000000 126.883447450442 21.788868071584 0.000000000000
8419 2 -1.200000000000 128.561799929945 18.499982324930 25.605741026184
8420 2 -1.200000000000 128.226129434045 20.966646634921 24.492447938089
8421 2 -1.200000000000 129.568811417647 20.144425198257 2.226586176190
8422 2 -1.200000000000 129.233140921747 22.611089508248 1.113293088095
8423 2 -1.200000000000 130.911493401250 19.322203761594 0.000000000000
8424 2 -1.200000000000 130.575822905349 21.788868071584 25.605741026184
8425 1 2.400000000000 124.869424475038 23.022200226580 0.000000000000
8426 1 2.400000000000 125.876435962740 24.666643099907 23.379154849994
8427 1 2.400000000000 126.883447450442 26.311085973234 0.000000000000
8428 1 2.400000000000 128.561799929945 23.022200226580 25.605741026184
8429 2 -1.200000000000 126.547776954541 24.255532381575 25.605741026184
8430 2 -1.200000000000 126.212106458641 26.722196691566 24.492447938089
8431 2 -1.200000000000 127.890458938144 23.433310944911 23.379154849994
8432 2 -1.200000000000 127.554788442243 25.899975254902 22.265861761899
8433 2 -1.200000000000 128.897470425846 25.077753818239 0.000000000000
8434 2 -1.200000000000 128.561799929945 27.544418128229 25.605741026184
8435 2 -1.200000000000 130.240152409448 24.255532381575 24.492447938089
8436 2 -1.200000000000 129.904481913548 26.722196691566 23.379154849994
8437 1 2.400000000000 130.240152409448 1.644442873327 4.453172352380
8438 1 2.400000000000 131.247163897150 3.288885746654 1.113293088095
8439 1 2.400000000000 132.254175384852 4.933328619981 4.453172352380
8440 1 2.400000000000 133.932527864356 1.644442873327 3.339879264285
8441 2 -1.200000000000 131.918504888952 2.877775028322 3.339879264285
8442 2 -1.200000000000 131.582834393051 5.344439338313 2.226586176190
8443 2 -1.200000000000 133.261186872554 2.055553591659 1.113293088095
8444 2 -1.200000000000 132.925516376654 4.522217901650 0.000000000000
8445 2 -1.200000000000 134.268198360256 3.699996464986 4.453172352380
8446 2 -1.200000000000 133.932527864356 6.166660774977 3.339879264285
8447 2 -1.200000000000 135.610880343859 2.877775028322 2.226586176190
8448 2 -1.200000000000 135.275209847958 5.344439338313 1.113293088095
8449 1 2.400000000000 129.568811417647 6.577771493308 2.226586176190
8450 1 2.400000000000 130.575822905349 8.222214366636 25.605741026184
8451 1 2.400000000000 131.582834393051 9.866657239963 2.226586176190
8452 1 2.400000000000 133.261186872554 6.577771493308 1.113293088095
8453 2 -1.200000000000 131.247163897150 7.811103648304 1.113293088095
8454 2 -1.200000000000 130.911493401250 10.277767958295 0.000000000000
8455 2 -1.200000000000 132.589845880753 6.988882211640 25.605741026184
8456 2 -1.200000000000 132.254175384852 9.455546521631 24.492447938089
8457 2 -1.200000000000 133.596857368455 8.633325084967 2.226586176190
8458 2 -1.200000000000 133.261186872554 11.099989394958 1.113293088095
8459 2 -1.200000000000 134.939539352057 7.811103648304 0.000000000000
8460 2 -1.200000000000 134.603868856157 10.277767958295 25.605741026184
8461 1 2.400000000000 128.897470425846 11.511100113290 0.000000000000
8462 1 2.400000000000 129.904481913548 13.155542986617 23.379154849994
8463 1 2.400000000000 130.911493401250 14.799985859944 0.000000000000
8464 1 2.400000000000 132.589845880753 11.511100113290 25.605741026184
8465 2 -1.200000000000 130.575822905349 12.744432268285 25.605741026184
8466 2 -1.200000000000 130.240152409448 15.211096578276 24.492447938089
8467 2 -1.200000000000 131.918504888952 11.922210831622 23.379154849994
8468 2 -1.200000000000 131.582834393051 14.388875141612 22.265861761899
8469 2 -1.200000000000 132.925516376654 13.566653704949 0.000000000000
8470 2 -1.200000000000 132.589845880753 16.033318014939 25.605741026184
8471 2 -1.200000000000 134.268198360256 12.744432268285 24.492447938089
8472 2 -1.200000000000 133.932527864356 15.211096578276 23.379154849994
8473 1 2.400000000000 132.925516376654 0.000000000000 0.000000000000
8474 1 2.400000000000 133.932527864356 1.644442873327 23.379154849994
8475 1 2.400000000000 134.939539352057 3.288885746654 0.000000000000
8476 1 2.400000000000 136.617891831561 0.000000000000 25.605741026184
8477 2 -1.200000000000 134.603868856157 1.233332154995 25.605741026184
8478 2 -1.200000000000 134.268198360256 3.699996464986 24.492447938089
8479 2 -1.200000000000 135.946550839759 0.411110718332 23.379154849994
8480 2 -1.200000000000 135.610880343859 2.877775028322 22.265861761899
8481 2 -1.200000000000 136.953562327461 2.055553591659 0.000000000000
8482 2 -1.200000000000 136.617891831561 4.522217901650 25.605741026184
8483 2 -1.200000000000 138.296244311064 1.233332154995 24.492447938089
8484 2 -1.200000000000 137.960573815163 3.699996464986 23.379154849994
8485 1 2.400000000000 116.141991581622 32.888857466542 24.492447938089
8486 1 2.400000000000 117.149003069323 34.533300339870 21.152568673804
8487 1 2.400000000000 118.156014557025 0.000000000000 24.492447938089
8488 1 2.400000000000 119.834367036529 32.888857466542 23.379154849994
8489 2 -1.200000000000 117.820344061125 34.122189621538 23.379154849994
8490 2 -1.200000000000 117.484673565224 0.411110718332 22.265861761899
8491 2 -1.200000000000 119.163026044727 33.299968184874 21.152568673804
8492 2 -1.200000000000 118.827355548827 35.766632494865 20.039275585709
8493 2 -1.200000000000 120.170037532429 34.944411058201 24.492447938089
8494 2 -1.200000000000 119.834367036529 1.233332154995 23.379154849994
8495 2 -1.200000000000 121.512719516032 34.122189621538 22.265861761899
8496 2 -1.200000000000 121.177049020131 0.411110718332 21.152568673804
8497 1 2.400000000000 120.170037532429 21.377757353253 24.492447938089
8498 1 2.400000000000 121.177049020131 23.022200226580 21.152568673804
8499 1 2.400000000000 122.184060507833 24.666643099907 24.492447938089
8500 1 2.400000000000 123.862412987336 21.377757353253 23.379154849994
8501 2 -1.200000000000 121.848390011932 22.611089508248 23.379154849994
8502 2 -1.200000000000 121.512719516032 25.077753818239 22.265861761899
8503 2 -1.200000000000 123.191071995535 21.788868071584 21.152568673804
8504 2 -1.200000000000 122.855401499634 24.255532381575 20.039275585709
8505 2 -1.200000000000 124.198083483237 23.433310944911 24.492447938089
8506 2 -1.200000000000 123.862412987336 25.899975254902 23.379154849994
8507 2 -1.200000000000 125.540765466839 22.611089508248 22.265861761899
8508 2 -1.200000000000 125.205094970939 25.077753818239 21.152568673804
8509 1 2.400000000000 119.498696540628 26.311085973234 22.265861761899
8510 1 2.400000000000 120.505708028330 27.955528846561 18.925982497614
8511 1 2.400000000000 121.512719516032 29.599971719888 22.265861761899
8512 1 2.400000000000 123.191071995535 26.311085973234 21.152568673804
8513 2 -1.200000000000 121.177049020131 27.544418128229 21.152568673804
8514 2 -1.200000000000 120.841378524231 30.011082438220 20.039275585709
8515 2 -1.200000000000 122.519731003734 26.722196691566 18.925982497614
8516 2 -1.200000000000 122.184060507833 29.188861001556 17.812689409519
8517 2 -1.200000000000 123.526742491436 28.366639564893 22.265861761899
8518 2 -1.200000000000 123.191071995535 30.833303874884 21.152568673804
8519 2 -1.200000000000 124.869424475038 27.544418128229 20.039275585709
8520 2 -1.200000000000 124.533753979138 30.011082438220 18.925982497614
8521 1 2.400000000000 118.827355548827 31.244414593215 20.039275585709
8522 1 2.400000000000 119.834367036529 32.888857466542 16.699396321424
8523 1 2.400000000000 120.841378524231 34.533300339870 20.039275585709
8524 1 2.400000000000 122.519731003734 31.244414593215 18.925982497614
8525 2 -1.200000000000 120.505708028330 32.477746748211 18.925982497614
8526 2 -1.200000000000 120.170037532429 34.944411058201 17.812689409519
8527 2 -1.200000000000 121.848390011932 31.655525311547 16.699396321424
8528 2 -1.200000000000 121.512719516032 34.122189621538 15.586103233329
8529 2 -1.200000000000 122.855401499634 33.299968184874 20.039275585709
8530 2 -1.200000000000 122.519731003734 35.766632494865 18.925982497614
8531 2 -1.200000000000 124.198083483237 32.477746748211 17.812689409519
8532 2 -1.200000000000 123.862412987336 34.944411058201 16.699396321424
8533 1 2.400000000000 124.198083483237 9.866657239963 24.492447938089
8534 1 2.400000000000 125.205094970939 11.511100113290 21.152568673804
8535 1 2.400000000000 126.212106458641 13.155542986617 24.492447938089
8536 1 2.400000000000 127.890458938144 9.866657239963 23.379154849994
8537 2 -1.200000000000 125.876435962740 11.099989394958 23.379154849994
8538 2 -1.200000000000 125.540765466840 13.566653704949 22.265861761899
8539 2 -1.200000000000 127.219117946343 10.277767958295 21.152568673804
8540 2 -1.200000000000 126.883447450442 12.744432268285 20.039275585709
8541 2 -1.200000000000 128.226129434045 11.922210831622 24.492447938089
8542 2 -1.200000000000 127.890458938144 14.388875141612 23.379154849994
8543 2 -1.200000000000 129.568811417647 11.099989394958 22.265861761899
8544 2 -1.200000000000 129.233140921747 13.566653704949 21.152568673804
8545 1 2.400000000000 123.526742491436 14.799985859944 22.265861761899
8546 1 2.400000000000 124.533753979138 16.444428733271 18.925982497614
8547 1 2.400000000000 125.540765466839 18.088871606598 22.265861761899
8548 1 2.400000000000 127.219117946343 14.799985859944 21.152568673804
8549 2 -1.200000000000 125.205094970939 16.033318014939 21.152568673804
8550 2 -1.200000000000 124.869424475038 18.499982324930 20.039275585709
8551 2 -1.200000000000 126.547776954541 15.211096578276 18.925982497614
8552 2 -1.200000000000 126.212106458641 17.677760888267 17.812689409519
8553 2 -1.200000000000 127.554788442243 16.855539451603 22.265861761899
8554 2 -1.200000000000 127.219117946343 19.322203761594 21.152568673804
8555 2 -1.200000000000 128.897470425846 16.033318014939 20.039275585709
8556 2 -1.200000000000 128.561799929945 18.499982324930 18.925982497614
8557 1 2.400000000000 122.855401499634 19.733314479925 20.039275585709
8558 1 2.400000000000 123.862412987336 21.377757353253 16.699396321424
8559 1 2.400000000000 124.869424475038 23.022200226580 20.039275585709
8560 1 2.400000000000 126.547776954541 19.733314479925 18.925982497614
8561 2 -1.200000000000 124.533753979138 20.966646634921 18.925982497614
8562 2 -1.200000000000 124.198083483237 23.433310944912 17.812689409519
8563 2 -1.200000000000 125.876435962740 20.144425198257 16.699396321424
8564 2 -1.200000000000 125.540765466840 22.611089508248 15.586103233329
8565 2 -1.200000000000 126.883447450442 21.788868071584 20.039275585709
8566 2 -1.200000000000 126.547776954541 24.255532381575 18.925982497614
8567 2 -1.200000000000 128.226129434045 20.966646634921 17.812689409519
8568 2 -1.200000000000 127.890458938144 23.433310944912 16.699396321424
8569 1 2.400000000000 122.184060507833 24.666643099907 17.812689409519
8570 1 2.400000000000 123.191071995535 26.311085973234 14.472810145234
8571 1 2.400000000000 124.198083483237 27.955528846561 17.812689409519
8572 1 2.400000000000 125.876435962740 24.666643099907 16.699396321424
8573 2 -1.200000000000 123.862412987336 25.899975254902 16.699396321424
8574 2 -1.200000000000 123.526742491436 28.366639564893 15.586103233329
8575 2 -1.200000000000 125.205094970939 25.077753818239 14.472810145234
8576 2 -1.200000000000 124.869424475038 27.544418128229 13.359517057139
8577 2 -1.200000000000 126.212106458641 26.722196691566 17.812689409519
8578 2 -1.200000000000 125.876435962740 29.188861001556 16.699396321424
8579 2 -1.200000000000 127.554788442243 25.899975254902 15.586103233329
8580 2 -1.200000000000 127.219117946343 28.366639564893 14.472810145234
8581 1 2.400000000000 121.512719516032 29.599971719888 15.586103233329
8582 1 2.400000000000 122.519731003734 31.244414593215 12.246223969044
8583 1 2.400000000000 123.526742491436 32.888857466542 15.586103233329
8584 1 2.400000000000 125.205094970939 29.599971719888 14.472810145234
8585 2 -1.200000000000 123.191071995535 30.833303874884 14.472810145234
8586 2 -1.200000000000 122.855401499634 33.299968184874 13.359517057139
8587 2 -1.200000000000 124.533753979138 30.011082438220 12.246223969045
8588 2 -1.200000000000 124.198083483237 32.477746748211 11.132930880950
8589 2 -1.200000000000 125.540765466839 31.655525311547 15.586103233329
8590 2 -1.200000000000 125.205094970939 34.122189621538 14.472810145234
8591 2 -1.200000000000 126.883447450442 30.833303874884 13.359517057139
8592 2 -1.200000000000 126.547776954541 33.299968184874 12.246223969045
8593 1 2.400000000000 120.841378524231 34.533300339870 13.359517057139
8594 1 2.400000000000 121.848390011932 0.000000000000 10.019637792855
8595 1 2.400000000000 122.855401499634 1.644442873327 13.359517057139
8596 1 2.400000000000 124.533753979138 34.533300339870 12.246223969044
8597 2 -1.200000000000 122.519731003734 35.766632494865 12.246223969045
8598 2 -1.200000000000 122.184060507833 2.055553591659 11.132930880950
8599 2 -1.200000000000 123.862412987336 34.944411058201 10.019637792855
8600 2 -1.200000000000 123.526742491436 1.233332154995 8.906344704760
8601 2 -1.200000000000 124.869424475038 0.411110718332 13.359517057139
8602 2 -1.200000000000 124.533753979138 2.877775028322 12.246223969044
8603 2 -1.200000000000 126.212106458641 35.766632494865 11.132930880950
8604 2 -1.200000000000 125.876435962740 2.055553591659 10.019637792855
8605 1 2.400000000000 127.554788442243 3.288885746654 22.265861761899
8606 1 2.400000000000 128.561799929945 4.933328619981 18.925982497614
8607 1 2.400000000000 129.568811417647 6.577771493308 22.265861761899
8608 1 2.400000000000 131.247163897150 3.288885746654 21.152568673804
8609 2 -1.200000000000 129.233140921747 4.522217901650 21.152568673804
8610 2 -1.200000000000 128.897470425846 6.988882211640 20.039275585709
8611 2 -1.200000000000 130.575822905349 3.699996464986 18.925982497614
8612 2 -1.200000000000 130.240152409448 6.166660774977 17.812689409519
8613 2 -1.200000000000 131.582834393051 5.344439338313 22.265861761899
8614 2 -1.200000000000 131.247163897150 7.811103648304 21.152568673804
8615 2 -1.200000000000 132.925516376654 4.522217901650 20.039275585709
8616 2 -1.200000000000 132.589845880753 6.988882211640 18.925982497614
8617 1 2.400000000000 126.883447450442 8.222214366636 20.039275585709
8618 1 2.400000000000 127.890458938144 9.866657239963 16.699396321424
8619 1 2.400000000000 128.897470425846 11.511100113290 20.039275585709
8620 1 2.400000000000 130.575822905349 8.222214366636 18.925982497614
8621 2 -1.200000000000 128.561799929945 9.455546521631 18.925982497614
8622 2 -1.200000000000 128.226129434045 11.922210831622 17.812689409519
8623 2 -1.200000000000 129.904481913548 8.633325084967 16.699396321424
8624 2 -1.200000000000 129.568811417647 11.099989394958 15.586103233329
8625 2 -1.200000000000 130.911493401250 10.277767958295 20.039275585709
8626 2 -1.200000000000 130.575822905349 12.744432268285 18.925982497614
8627 2 -1.200000000000 132.254175384852 9.455546521631 17.812689409519
8628 2 -1.200000000000 131.918504888952 11.922210831622 16.699396321424
8629 1 2.400000000000 126.212106458641 13.155542986617 17.812689409519
8630 1 2.400000000000 127.219117946343 14.799985859944 14.472810145234
8631 1 2.400000000000 128.226129434045 16.444428733271 17.812689409519
8632 1 2.400000000000 129.904481913548 13.155542986617 16.699396321424
8633 2 -1.200000000000 127.890458938144 14.388875141612 16.699396321424
8634 2 -1.200000000000 127.554788442243 16.855539451603 15.586103233329
8635 2 -1.200000000000 129.233140921747 13.566653704949 14.472810145234
8636 2 -1.200000000000 128.897470425846 16.033318014939 13.359517057139
8637 2 -1.200000000000 130.240152409448 15.211096578276 17.812689409519
8638 2 -1.200000000000 129.904481913548 17.677760888267 16.699396321424
8639 2 -1.200000000000 131.582834393051 14.388875141612 15.586103233329
8640 2 -1.200000000000 131.247163897150 16.855539451603 14.472810145234
8641 1 2.400000000000 125.540765466839 18.088871606598 15.586103233329
8642 1 2.400000000000 126.547776954541 19.733314479925 12.246223969044
8643 1 2.400000000000 127.554788442243 21.377757353253 15.586103233329
8644 1 2.400000000000 129.233140921747 18.088871606598 14.472810145234
8645 2 -1.200000000000 127.219117946343 19.322203761594 14.472810145234
8646 2 -1.200000000000 126.883447450442 21.788868071584 13.359517057139
8647 2 -1.200000000000 128.561799929945 18.499982324930 12.246223969045
8648 2 -1.200000000000 128.226129434045 20.966646634921 11.132930880950
8649 2 -1.200000000000 129.568811417647 20.144425198257 15.586103233329
8650 2 -1.200000000000 129.233140921747 22.611089508248 14.472810145234
8651 2 -1.200000000000 130.911493401250 19.322203761594 13.359517057139
8652 2 -1.200000000000 130.575822905349 21.788868071584 12.246223969044
8653 1 2.400000000000 124.869424475038 23.022200226580 13.359517057139
8654 1 2.400000000000 125.876435962740 24.666643099907 10.019637792855
8655 1 2.400000000000 126.883447450442 26.311085973234 13.359517057139
8656 1 2.400000000000 128.561799929945 23.022200226580 12.246223969044
8657 2 -1.200000000000 126.547776954541 24.255532381575 12.246223969044
8658 2 -1.200000000000 126.212106458641 26.722196691566 11.132930880950
8659 2 -1.200000000000 127.890458938144 23.433310944912 10.019637792855
8660 2 -1.200000000000 127.554788442243 25.899975254902 8.906344704760
8661 2 -1.200000000000 128.897470425846 25.077753818239 13.359517057139
8662 2 -1.200000000000 128.561799929945 27.544418128229 12.246223969044
8663 2 -1.200000000000 130.240152409448 24.255532381575 11.132930880950
8664 2 -1.200000000000 129.904481913548 26.722196691566 10.019637792855
8665 1 2.400000000000 124.198083483237 27.955528846561 11.132930880950
8666 1 2.400000000000 125.205094970939 29.599971719888 7.793051616665
8667 1 2.400000000000 126.212106458641 31.244414593215 11.132930880950
8668 1 2.400000000000 127.890458938144 27.955528846561 10.019637792855
8669 2 -1.200000000000 125.876435962740 29.188861001556 10.019637792855
8670 2 -1.200000000000 125.540765466839 31.655525311547 8.906344704760
8671 2 -1.200000000000 127.219117946343 28.366639564893 7.793051616665
8672 2 -1.200000000000 126.883447450442 30.833303874884 6.679758528570
8673 2 -1.200000000000 128.226129434045 30.011082438220 11.132930880950
8674 2 -1.200000000000 127.890458938144 32.477746748211 10.019637792855
8675 2 -1.200000000000 129.568811417647 29.188861001556 8.906344704760
8676 2 -1.200000000000 129.233140921747 31.655525311547 7.793051616665
8677 1 2.400000000000 123.526742491436 32.888857466542 8.906344704760
8678 1 2.400000000000 124.533753979138 34.533300339870 5.566465440475
8679 1 2.400000000000 125.540765466839 0.000000000000 8.906344704760
8680 1 2.400000000000 127.219117946343 32.888857466542 7.793051616665
8681 2 -1.200000000000 125.205094970939 34.122189621538 7.793051616665
8682 2 -1.200000000000 124.869424475038 0.411110718332 6.679758528570
8683 2 -1.200000000000 126.547776954541 33.299968184874 5.566465440475
8684 2 -1.200000000000 126.212106458641 35.766632494865 4.453172352380
8685 2 -1.200000000000 127.554788442243 34.944411058201 8.906344704760
8686 2 -1.200000000000 127.219117946343 1.233332154995 7.793051616665
8687 2 -1.200000000000 128.897470425846 34.122189621538 6.679758528570
8688 2 -1.200000000000 128.561799929945 0.411110718332 5.566465440475
8689 1 2.400000000000 130.240152409448 1.644442873327 17.812689409519
8690 1 2.400000000000 131.247163897150 3.288885746654 14.472810145234
8691 1 2.400000000000 132.254175384852 4.933328619981 17.812689409519
8692 1 2.400000000000 133.932527864355 1.644442873327 16.699396321424
8693 2 -1.200000000000 131.918504888952 2.877775028322 16.699396321424
8694 2 -1.200000000000 131.582834393051 5.344439338313 15.586103233329
8695 2 -1.200000000000 133.261186872554 2.055553591659 14.472810145234
8696 2 -1.200000000000 132.925516376654 4.522217901650 13.359517057139
8697 2 -1.200000000000 134.268198360256 3.699996464986 17.812689409519
8698 2 -1.200000000000 133.932527864356 6.166660774977 16.699396321424
8699 2 -1.200000000000 135.610880343859 2.877775028322 15.586103233329
8700 2 -1.200000000000 135.275209847958 5.344439338313 14.472810145234
8701 1 2.400000000000 129.568811417647 6.577771493308 15.586103233329
8702 1 2.400000000000 130.575822905349 8.222214366636 12.246223969045
8703 1 2.400000000000 131.582834393051 9.866657239963 15.586103233329
8704 1 2.400000000000 133.261186872554 6.577771493308 14.472810145234
8705 2 -1.200000000000 131.247163897150 7.811103648304 14.472810145234
8706 2 -1.200000000000 130.911493401250 10.277767958295 13.359517057139
8707 2 -1.200000000000 132.589845880753 6.988882211640 12.246223969045
8708 2 -1.200000000000 132.254175384852 9.455546521631 11.132930880950
8709 2 -1.200000000000 133.596857368455 8.633325084967 15.586103233329
8710 2 -1.200000000000 133.261186872554 11.099989394958 14.472810145234
8711 2 -1.200000000000 134.939539352057 7.811103648304 13.359517057139
8712 2 -1.200000000000 134.603868856157 10.277767958295 12.246223969044
8713 1 2.400000000000 128.897470425846 11.511100113290 13.359517057139
8714 1 2.400000000000 129.904481913548 13.155542986617 10.019637792855
8715 1 2.400000000000 130.911493401250 14.799985859944 13.359517057139
8716 1 2.400000000000 132.589845880753 11.511100113290 12.246223969044
8717 2 -1.200000000000 130.575822905349 12.744432268285 12.246223969045
8718 2 -1.200000000000 130.240152409448 15.211096578276 11.132930880950
8719 2 -1.200000000000 131.918504888952 11.922210831622 10.019637792855
8720 2 -1.200000000000 131.582834393051 14.388875141612 8.906344704760
8721 2 -1.200000000000 132.925516376654 13.566653704949 13.359517057139
8722 2 -1.200000000000 132.589845880753 16.033318014939 12.246223969044
8723 2 -1.200000000000 134.268198360256 12.744432268285 11.132930880950
8724 2 -1.200000000000 133.932527864356 15.211096578276 10.019637792855
8725 1 2.400000000000 128.226129434045 16.444428733271 11.132930880950
8726 1 2.400000000000 129.233140921747 18.088871606598 7.793051616665
8727 1 2.400000000000 130.240152409448 19.733314479925 11.132930880950
8728 1 2.400000000000 131.918504888952 16.444428733271 10.019637792855
8729 2 -1.200000000000 129.904481913548 17.677760888267 10.019637792855
8730 2 -1.200000000000 129.568811417647 20.144425198257 8.906344704760
8731 2 -1.200000000000 131.247163897150 16.855539451603 7.793051616665
8732 2 -1.200000000000 130.911493401250 19.322203761594 6.679758528570
8733 2 -1.200000000000 132.254175384852 18.499982324930 11.132930880950
8734 2 -1.200000000000 131.918504888952 20.966646634921 10.019637792855
8735 2 -1.200000000000 133.596857368455 17.677760888267 8.906344704760
8736 2 -1.200000000000 133.261186872554 20.144425198257 7.793051616665
8737 1 2.400000000000 127.554788442243 21.377757353253 8.906344704760
8738 1 2.400000000000 128.561799929945 23.022200226580 5.566465440475
8739 1 2.400000000000 129.568811417647 24.666643099907 8.906344704760
8740 1 2.400000000000 131.247163897150 21.377757353253 7.793051616665
8741 2 -1.200000000000 129.233140921747 22.611089508248 7.793051616665
8742 2 -1.200000000000 128.897470425846 25.077753818239 6.679758528570
8743 2 -1.200000000000 130.575822905349 21.788868071584 5.566465440475
8744 2 -1.200000000000 130.240152409448 24.255532381575 4.453172352380
8745 2 -1.200000000000 131.582834393051 23.433310944912 8.906344704760
8746 2 -1.200000000000 131.247163897150 25.899975254902 7.793051616665
8747 2 -1.200000000000 132.925516376654 22.611089508248 6.679758528570
8748 2 -1.200000000000 132.589845880753 25.077753818239 5.566465440475
8749 1 2.400000000000 126.883447450442 26.311085973234 6.679758528570
8750 1 2.400000000000 127.890458938144 27.955528846561 3.339879264285
8751 1 2.400000000000 128.897470425846 29.599971719888 6.679758528570
8752 1 2.400000000000 130.575822905349 26.311085973234 5.566465440475
8753 2 -1.200000000000 128.561799929945 27.544418128229 5.566465440475
8754 2 -1.200000000000 128.226129434045 30.011082438220 4.453172352380
8755 2 -1.200000000000 129.904481913548 26.722196691566 3.339879264285
8756 2 -1.200000000000 129.568811417647 29.188861001556 2.226586176190
8757 2 -1.200000000000 130.911493401250 28.366639564893 6.679758528570
8758 2 -1.200000000000 130.575822905349 30.833303874884 5.566465440475
8759 2 -1.200000000000 132.254175384852 27.544418128229 4.453172352380
8760 2 -1.200000000000 131.918504888952 30.011082438220 3.339879264285
8761 1 2.400000000000 126.212106458641 31.244414593215 4.453172352380
8762 1 2.400000000000 127.219117946343 32.888857466542 1.113293088095
8763 1 2.400000000000 128.226129434045 34.533300339870 4.453172352380
8764 1 2.400000000000 129.904481913548 31.244414593215 3.339879264285
8765 2 -1.200000000000 127.890458938144 32.477746748211 3.339879264285
8766 2 -1.200000000000 127.554788442243 34.944411058201 2.226586176190
8767 2 -1.200000000000 129.233140921747 31.655525311547 1.113293088095
8768 2 -1.200000000000 128.897470425846 34.122189621538 0.000000000000
8769 2 -1.200000000000 130.240152409448 33.299968184874 4.453172352380
8770 2 -1.200000000000 129.904481913548 35.766632494865 3.339879264285
8771 2 -1.200000000000 131.582834393051 32.477746748211 2.226586176190
8772 2 -1.200000000000 131.247163897150 34.944411058201 1.113293088095
8773 1 2.400000000000 132.925516376654 0.000000000000 13.359517057139
8774 1 2.400000000000 133.932527864356 1.644442873327 10.019637792855
8775 1 2.400000000000 134.939539352057 3.288885746654 13.359517057139
8776 1 2.400000000000 136.617891831561 0.000000000000 12.246223969044
8777 2 -1.200000000000 134.603868856157 1.233332154995 12.246223969045
8778 2 -1.200000000000 134.268198360256 3.699996464986 11.132930880950
8779 2 -1.200000000000 135.946550839759 0.411110718332 10.019637792855
8780 2 -1.200000000000 135.610880343859 2.877775028322 8.906344704760
8781 2 -1.200000000000 136.953562327461 2.055553591659 13.359517057139
8782 2 -1.200000000000 136.617891831561 4.522217901650 12.246223969044
8783 2 -1.200000000000 138.296244311064 1.233332154995 11.132930880950
8784 2 -1.200000000000 137.960573815163 3.699996464986 10.019637792855
8785 1 2.400000000000 132.254175384852 4.933328619981 11.132930880950
8786 1 2.400000000000 133.261186872554 6.577771493308 7.793051616665
8787 1 2.400000000000 134.268198360256 8.222214366636 11.132930880950
8788 1 2.400000000000 135.946550839759 4.933328619981 10.019637792855
8789 2 -1.200000000000 133.932527864356 6.166660774977 10.019637792855
8790 2 -1.200000000000 133.596857368455 8.633325084967 8.906344704760
8791 2 -1.200000000000 135.275209847958 5.344439338313 7.793051616665
8792 2 -1.200000000000 134.939539352057 7.811103648304 6.679758528570
8793 2 -1.200000000000 136.282221335660 6.988882211640 11.132930880950
8794 2 -1.200000000000 135.946550839759 9.455546521631 10.019637792855
8795 2 -1.200000000000 137.624903319263 6.166660774977 8.906344704760
8796 2 -1.200000000000 137.289232823362 8.633325084967 7.793051616665
8797 1 2.400000000000 131.582834393051 9.866657239963 8.906344704760
8798 1 2.400000000000 132.589845880753 11.511100113290 5.566465440475
8799 1 2.400000000000 133.596857368455 13.155542986617 8.906344704760
8800 1 2.400000000000 135.275209847958 9.866657239963 7.793051616665
8801 2 -1.200000000000 133.261186872554 11.099989394958 7.793051616665
8802 2 -1.200000000000 132.925516376654 13.566653704949 6.679758528570
8803 2 -1.200000000000 134.603868856157 10.277767958295 5.566465440475
8804 2 -1.200000000000 134.268198360256 12.744432268285 4.453172352380
8805 2 -1.200000000000 135.610880343859 11.922210831622 8.906344704760
8806 2 -1.200000000000 135.275209847958 14.388875141612 7.793051616665
8807 2 -1.200000000000 136.953562327461 11.099989394958 6.679758528570
8808 2 -1.200000000000 136.617891831561 13.566653704949 5.566465440475
8809 1 2.400000000000 130.911493401250 14.799985859944 6.679758528570
8810 1 2.400000000000 131.918504888952 16.444428733271 3.339879264285
8811 1 2.400000000000 132.925516376654 18.088871606598 6.679758528570
8812 1 2.400000000000 134.603868856157 14.799985859944 5.566465440475
8813 2 -1.200000000000 132.589845880753 16.033318014939 5.566465440475
8814 2 -1.200000000000 132.254175384852 18.499982324930 4.453172352380
8815 2 -1.200000000000 133.932527864356 15.211096578276 3.339879264285
8816 2 -1.200000000000 133.596857368455 17.677760888267 2.226586176190
8817 2 -1.200000000000 134.939539352057 16.855539451603 6.679758528570
8818 2 -1.200000000000 134.603868856157 19.322203761594 5.566465440475
8819 2 -1.200000000000 136.282221335660 16.033318014939 4.453172352380
8820 2 -1.200000000000 135.946550839759 18.499982324930 3.339879264285
8821 1 2.400000000000 130.240152409448 19.733314479925 4.453172352380
8822 1 2.400000000000 131.247163897150 21.377757353253 1.113293088095
8823 1 2.400000000000 132.254175384852 23.022200226580 4.453172352380
8824 1 2.400000000000 133.932527864356 19.733314479925 3.339879264285
8825 2 -1.200000000000 131.918504888952 20.966646634921 3.339879264285
8826 2 -1.200000000000 131.582834393051 23.433310944912 2.226586176190
8827 2 -1.200000000000 133.261186872554 20.144425198257 1.113293088095
8828 2 -1.200000000000 132.925516376654 22.611089508248 0.000000000000
8829 2 -1.200000000000 134.268198360256 21.788868071584 4.453172352380
8830 2 -1.200000000000 133.932527864356 24.255532381575 3.339879264285
8831 2 -1.200000000000 135.610880343859 20.966646634921 2.226586176190
8832 2 -1.200000000000 135.275209847958 23.433310944912 1.113293088095
8833 1 2.400000000000 129.568811417647 24.666643099907 2.226586176190
8834 1 2.400000000000 130.575822905349 26.311085973234 25.605741026184
8835 1 2.400000000000 131.582834393051 27.955528846561 2.226586176190
8836 1 2.400000000000 133.261186872554 24.666643099907 1.113293088095
8837 2 -1.200000000000 131.247163897150 25.899975254902 1.113293088095
8838 2 -1.200000000000 130.911493401250 28.366639564893 0.000000000000
8839 2 -1.200000000000 132.589845880753 25.077753818239 25.605741026184
8840 2 -1.200000000000 132.254175384852 27.544418128229 24.492447938089
8841 2 -1.200000000000 133.596857368455 26.722196691566 2.226586176190
8842 2 -1.200000000000 133.261186872554 29.188861001556 1.113293088095
8843 2 -1.200000000000 134.939539352057 25.899975254902 0.000000000000
8844 2 -1.200000000000 134.603868856157 28.366639564893 25.605741026184
8845 1 2.400000000000 128.897470425846 29.599971719888 0.000000000000
8846 1 2.400000000000 129.904481913548 31.244414593215 23.379154849994
8847 1 2.400000000000 130.911493401250 32.888857466542 0.000000000000
8848 1 2.400000000000 132.589845880753 29.599971719888 25.605741026184
8849 2 -1.200000000000 130.575822905349 30.833303874884 25.605741026184
8850 2 -1.200000000000 130.240152409448 33.299968184874 24.492447938089
8851 2 -1.200000000000 131.918504888952 30.011082438220 23.379154849994
8852 2 -1.200000000000 131.582834393051 32.477746748211 22.265861761899
8853 2 -1.200000000000 132.925516376654 31.655525311547 0.000000000000
8854 2 -1.200000000000 132.589845880753 34.122189621538 25.605741026184
8855 2 -1.200000000000 134.268198360256 30.833303874884 24.492447938089
8856 2 -1.200000000000 133.932527864356 33.299968184874 23.379154849994
8857 1 2.400000000000 134.939539352057 3.288885746654 6.679758528570
8858 1 2.400000000000 135.946550839759 4.933328619981 3.339879264285
8859 1 2.400000000000 136.953562327461 6.577771493308 6.679758528570
8860 1 2.400000000000 138.631914806964 3.288885746654 5.566465440475
8861 2 -1.200000000000 136.617891831561 4.522217901650 5.566465440475
8862 2 -1.200000000000 136.282221335660 6.988882211640 4.453172352380
8863 2 -1.200000000000 137.960573815163 3.699996464986 3.339879264285
8864 2 -1.200000000000 137.624903319263 6.166660774977 2.226586176190
8865 2 -1.200000000000 138.967585302865 5.344439338313 6.679758528570
8866 2 -1.200000000000 138.631914806964 7.811103648304 5.566465440475
8867 2 -1.200000000000 140.310267286468 4.522217901650 4.453172352380
8868 2 -1.200000000000 139.974596790567 6.988882211640 3.339879264285
8869 1 2.400000000000 134.268198360256 8.222214366636 4.453172352380
8870 1 2.400000000000 135.275209847958 9.866657239963 1.113293088095
8871 1 2.400000000000 136.282221335660 11.511100113290 4.453172352380
8872 1 2.400000000000 137.960573815163 8.222214366636 3.339879264285
8873 2 -1.200000000000 135.946550839759 9.455546521631 3.339879264285
8874 2 -1.200000000000 135.610880343859 11.922210831622 2.226586176190
8875 2 -1.200000000000 137.289232823362 8.633325084967 1.113293088095
8876 2 -1.200000000000 136.953562327461 11.099989394958 0.000000000000
8877 2 -1.200000000000 138.296244311064 10.277767958295 4.453172352380
8878 2 -1.200000000000 137.960573815163 12.744432268285 3.339879264285
8879 2 -1.200000000000 139.638926294666 9.455546521631 2.226586176190
8880 2 -1.200000000000 139.303255798766 11.922210831622 1.113293088095
8881 1 2.400000000000 133.596857368455 13.155542986617 2.226586176190
8882 1 2.400000000000 134.603868856157 14.799985859944 25.605741026184
8883 1 2.400000000000 135.610880343859 16.444428733271 2.226586176190
8884 1 2.400000000000 137.289232823362 13.155542986617 1.113293088095
8885 2 -1.200000000000 135.275209847958 14.388875141612 1.113293088095
8886 2 -1.200000000000 134.939539352057 16.855539451603 0.000000000000
8887 2 -1.200000000000 136.617891831561 13.566653704949 25.605741026184
8888 2 -1.200000000000 136.282221335660 16.033318014939 24.492447938089
8889 2 -1.200000000000 137.624903319263 15.211096578276 2.226586176190
8890 2 -1.200000000000 137.289232823362 17.677760888267 1.113293088095
8891 2 -1.200000000000 138.967585302865 14.388875141612 0.000000000000
8892 2 -1.200000000000 138.631914806964 16.855539451603 25.605741026184
8893 1 2.400000000000 132.925516376654 18.088871606598 0.000000000000
8894 1 2.400000000000 133.932527864356 19.733314479925 23.379154849994
8895 1 2.400000000000 134.939539352057 21.377757353253 0.000000000000
8896 1 2.400000000000 136.617891831561 18.088871606598 25.605741026184
8897 2 -1.200000000000 134.603868856157 19.322203761594 25.605741026184
8898 2 -1.200000000000 134.268198360256 21.788868071584 24.492447938089
8899 2 -1.200000000000 135.946550839759 18.499982324930 23.379154849994
8900 2 -1.200000000000 135.610880343859 20.966646634921 22.265861761899
8901 2 -1.200000000000 136.953562327461 20.144425198257 0.000000000000
8902 2 -1.200000000000 136.617891831561 22.611089508248 25.605741026184
8903 2 -1.200000000000 138.296244311064 19.322203761594 24.492447938089
8904 2 -1.200000000000 137.960573815163 21.788868071584 23.379154849994
8905 1 2.400000000000 137.624903319263 1.644442873327 2.226586176190
8906 1 2.400000000000 138.631914806964 3.288885746654 25.605741026184
8907 1 2.400000000000 139.638926294666 4.933328619981 2.226586176190
8908 1 2.400000000000 141.317278774170 1.644442873327 1.113293088095
8909 2 -1.200000000000 139.303255798766 2.877775028322 1.113293088095
8910 2 -1.200000000000 138.967585302865 5.344439338313 0.000000000000
8911 2 -1.200000000000 140.645937782368 2.055553591659 25.605741026184
8912 2 -1.200000000000 140.310267286468 4.522217901650 24.492447938089
8913 2 -1.200000000000 141.652949270070 3.699996464986 2.226586176190
8914 2 -1.200000000000 141.317278774170 6.166660774977 1.113293088095
8915 2 -1.200000000000 142.995631253673 2.877775028322 0.000000000000
8916 2 -1.200000000000 142.659960757772 5.344439338313 25.605741026184
8917 1 2.400000000000 136.953562327461 6.577771493308 0.000000000000
8918 1 2.400000000000 137.960573815163 8.222214366636 23.379154849994
8919 1 2.400000000000 138.967585302865 9.866657239963 0.000000000000
8920 1 2.400000000000 140.645937782368 6.577771493308 25.605741026184
8921 2 -1.200000000000 138.631914806964 7.811103648304 25.605741026184
8922 2 -1.200000000000 138.296244311064 10.277767958295 24.492447938089
8923 2 -1.200000000000 139.974596790567 6.988882211640 23.379154849994
8924 2 -1.200000000000 139.638926294666 9.455546521631 22.265861761899
8925 2 -1.200000000000 140.981608278269 8.633325084967 0.000000000000
8926 2 -1.200000000000 140.645937782368 11.099989394958 25.605741026184
8927 2 -1.200000000000 142.324290261872 7.811103648304 24.492447938089
8928 2 -1.200000000000 141.988619765971 10.277767958295 23.379154849994
8929 1 2.400000000000 124.198083483237 27.955528846561 24.492447938089
8930 1 2.400000000000 125.205094970939 29.599971719888 21.152568673804
8931 1 2.400000000000 126.212106458641 31.244414593215 24.492447938089
8932 1 2.400000000000 127.890458938144 27.955528846561 23.379154849994
8933 2 -1.200000000000 125.876435962740 29.188861001556 23.379154849994
8934 2 -1.200000000000 125.540765466839 31.655525311547 22.265861761899
8935 2 -1.200000000000 127.219117946343 28.366639564893 21.152568673804
8936 2 -1.200000000000 126.883447450442 30.833303874884 20.039275585709
8937 2 -1.200000000000 128.226129434045 30.011082438220 24.492447938089
8938 2 -1.200000000000 127.890458938144 32.477746748211 23.379154849994
8939 2 -1.200000000000 129.568811417647 29.188861001556 22.265861761899
8940 2 -1.200000000000 129.233140921747 31.655525311547 21.152568673804
8941 1 2.400000000000 123.526742491436 32.888857466542 22.265861761899
8942 1 2.400000000000 124.533753979138 34.533300339870 18.925982497614
8943 1 2.400000000000 125.540765466839 0.000000000000 22.265861761899
8944 1 2.400000000000 127.219117946343 32.888857466542 21.152568673804
8945 2 -1.200000000000 125.205094970939 34.122189621538 21.152568673804
8946 2 -1.200000000000 124.869424475038 0.411110718332 20.039275585709
8947 2 -1.200000000000 126.547776954541 33.299968184874 18.925982497614
8948 2 -1.200000000000 126.212106458641 35.766632494865 17.812689409519
8949 2 -1.200000000000 127.554788442243 34.944411058201 22.265861761899
8950 2 -1.200000000000 127.219117946343 1.233332154995 21.152568673804
8951 2 -1.200000000000 128.897470425846 34.122189621538 20.039275585709
8952 2 -1.200000000000 128.561799929945 0.411110718332 18.925982497614
8953 1 2.400000000000 128.226129434045 16.444428733271 24.492447938089
8954 1 2.400000000000 129.233140921747 18.088871606598 21.152568673804
8955 1 2.400000000000 130.240152409448 19.733314479925 24.492447938089
8956 1 2.400000000000 131.918504888952 16.444428733271 23.379154849994
8957 2 -1.200000000000 129.904481913548 17.677760888267 23.379154849994
8958 2 -1.200000000000 129.568811417647 20.144425198257 22.265861761899
8959 2 -1.200000000000 131.247163897150 16.855539451603 21.152568673804
8960 2 -1.200000000000 130.911493401250 19.322203761594 20.039275585709
8961 2 -1.200000000000 132.254175384852 18.499982324930 24.492447938089
8962 2 -1.200000000000 131.918504888952 20.966646634921 23.379154849994
8963 2 -1.200000000000 133.596857368455 17.677760888267 22.265861761899
8964 2 -1.200000000000 133.261186872554 20.144425198257 21.152568673804
8965 1 2.400000000000 127.554788442243 21.377757353253 22.265861761899
8966 1 2.400000000000 128.561799929945 23.022200226580 18.925982497614
8967 1 2.400000000000 129.568811417647 24.666643099907 22.265861761899
8968 1 2.400000000000 131.247163897150 21.377757353253 21.152568673804
8969 2 -1.200000000000 129.233140921747 22.611089508248 21.152568673804
8970 2 -1.200000000000 128.897470425846 25.077753818239 20.039275585709
8971 2 -1.200000000000 130.575822905349 21.788868071584 18.925982497614
8972 2 -1.200000000000 130.240152409448 24.255532381575 17.812689409519
8973 2 -1.200000000000 131.582834393051 23.433310944911 22.265861761899
8974 2 -1.200000000000 131.247163897150 25.899975254902 21.152568673804
8975 2 -1.200000000000 132.925516376654 22.611089508248 20.039275585709
8976 2 -1.200000000000 132.589845880753 25.077753818239 18.925982497614
8977 1 2.400000000000 126.883447450442 26.311085973234 20.039275585709
8978 1 2.400000000000 127.890458938144 27.955528846561 16.699396321424
8979 1 2.400000000000 128.897470425846 29.599971719888 20.039275585709
8980 1 2.400000000000 130.575822905349 26.311085973234 18.925982497614
8981 2 -1.200000000000 128.561799929945 27.544418128229 18.925982497614
8982 2 -1.200000000000 128.226129434045 30.011082438220 17.812689409519
8983 2 -1.200000000000 129.904481913548 26.722196691566 16.699396321424
8984 2 -1.200000000000 129.568811417647 29.188861001556 15.586103233329
8985 2 -1.200000000000 130.911493401250 28.366639564893 20.039275585709
8986 2 -1.200000000000 130.575822905349 30.833303874884 18.925982497614
8987 2 -1.200000000000 132.254175384852 27.544418128229 17.812689409519
8988 2 -1.200000000000 131.918504888952 30.011082438220 16.699396321424
8989 1 2.400000000000 126.212106458641 31.244414593215 17.812689409519
8990 1 2.400000000000 127.219117946343 32.888857466542 14.472810145234
8991 1 2.400000000000 128.226129434045 34.533300339870 17.812689409519
8992 1 2.400000000000 129.904481913548 31.244414593215 16.699396321424
8993 2 -1.200000000000 127.890458938144 32.477746748211 16.699396321424
8994 2 -1.200000000000 127.554788442243 34.944411058201 15.586103233329
8995 2 -1.200000000000 129.233140921747 31.655525311547 14.472810145234
8996 2 -1.200000000000 128.897470425846 34.122189621538 13.359517057139
8997 2 -1.200000000000 130.240152409448 33.299968184874 17.812689409519
8998 2 -1.200000000000 129.904481913548 35.766632494865 16.699396321424
8999 2 -1.200000000000 131.582834393051 32.477746748211 15.586103233329
9000 2 -1.200000000000 131.247163897150 34.944411058201 14.472810145234
9001 1 2.400000000000 132.254175384852 4.933328619981 24.492447938089
9002 1 2.400000000000 133.261186872554 6.577771493308 21.152568673804
9003 1 2.400000000000 134.268198360256 8.222214366636 24.492447938089
9004 1 2.400000000000 135.946550839759 4.933328619981 23.379154849994
9005 2 -1.200000000000 133.932527864356 6.166660774977 23.379154849994
9006 2 -1.200000000000 133.596857368455 8.633325084967 22.265861761899
9007 2 -1.200000000000 135.275209847958 5.344439338313 21.152568673804
9008 2 -1.200000000000 134.939539352057 7.811103648304 20.039275585709
9009 2 -1.200000000000 136.282221335660 6.988882211640 24.492447938089
9010 2 -1.200000000000 135.946550839759 9.455546521631 23.379154849994
9011 2 -1.200000000000 137.624903319263 6.166660774977 22.265861761899
9012 2 -1.200000000000 137.289232823362 8.633325084967 21.152568673804
9013 1 2.400000000000 131.582834393051 9.866657239963 22.265861761899
9014 1 2.400000000000 132.589845880753 11.511100113290 18.925982497614
9015 1 2.400000000000 133.596857368455 13.155542986617 22.265861761899
9016 1 2.400000000000 135.275209847958 9.866657239963 21.152568673804
9017 2 -1.200000000000 133.261186872554 11.099989394958 21.152568673804
9018 2 -1.200000000000 132.925516376654 13.566653704949 20.039275585709
9019 2 -1.200000000000 134.603868856157 10.277767958295 18.925982497614
9020 2 -1.200000000000 134.268198360256 12.744432268285 17.812689409519
9021 2 -1.200000000000 135.610880343859 11.922210831622 22.265861761899
9022 2 -1.200000000000 135.275209847958 14.388875141612 21.152568673804
9023 2 -1.200000000000 136.953562327461 11.099989394958 20.039275585709
9024 2 -1.200000000000 136.617891831561 13.566653704949 18.925982497614
9025 1 2.400000000000 130.911493401250 14.799985859944 20.039275585709
9026 1 2.400000000000 131.918504888952 16.444428733271 16.699396321424
9027 1 2.400000000000 132.925516376654 18.088871606598 20.039275585709
9028 1 2.400000000000 134.603868856157 14.799985859944 18.925982497614
9029 2 -1.200000000000 132.589845880753 16.033318014939 18.925982497614
9030 2 -1.200000000000 132.254175384852 18.499982324930 17.812689409519
9031 2 -1.200000000000 133.932527864356 15.211096578276 16.699396321424
9032 2 -1.200000000000 133.596857368455 17.677760888267 15.586103233329
9033 2 -1.200000000000 134.939539352057 16.855539451603 20.039275585709
9034 2 -1.200000000000 134.603868856157 19.322203761594 18.925982497614
9035 2 -1.200000000000 136.282221335660 16.033318014939 17.812689409519
9036 2 -1.200000000000 135.946550839759 18.499982324930 16.699396321424
9037 1 2.400000000000 130.240152409448 19.733314479925 17.812689409519
9038 1 2.400000000000 131.247163897150 21.377757353253 14.472810145234
9039 1 2.400000000000 132.254175384852 23.022200226580 17.812689409519
9040 1 2.400000000000 133.932527864356 19.733314479925 16.699396321424
9041 2 -1.200000000000 131.918504888952 20.966646634921 16.699396321424
9042 2 -1.200000000000 131.582834393051 23.433310944912 15.586103233329
9043 2 -1.200000000000 133.261186872554 20.144425198257 14.472810145234
9044 2 -1.200000000000 132.925516376654 22.611089508248 13.359517057139
9045 2 -1.200000000000 134.268198360256 21.788868071584 17.812689409519
9046 2 -1.200000000000 133.932527864356 24.255532381575 16.699396321424
9047 2 -1.200000000000 135.610880343859 20.966646634921 15.586103233329
9048 2 -1.200000000000 135.275209847958 23.433310944912 14.472810145234
9049 1 2.400000000000 129.568811417647 24.666643099907 15.586103233329
9050 1 2.400000000000 130.575822905349 26.311085973234 12.246223969045
9051 1 2.400000000000 131.582834393051 27.955528846561 15.586103233329
9052 1 2.400000000000 133.261186872554 24.666643099907 14.472810145234
9053 2 -1.200000000000 131.247163897150 25.899975254902 14.472810145234
9054 2 -1.200000000000 130.911493401250 28.366639564893 13.359517057139
9055 2 -1.200000000000 132.589845880753 25.077753818239 12.246223969044
9056 2 -1.200000000000 132.254175384852 27.544418128229 11.132930880950
9057 2 -1.200000000000 133.596857368455 26.722196691566 15.586103233329
9058 2 -1.200000000000 133.261186872554 29.188861001556 14.472810145234
9059 2 -1.200000000000 134.939539352057 25.899975254902 13.359517057139
9060 2 -1.200000000000 134.603868856157 28.366639564893 12.246223969045
9061 1 2.400000000000 128.897470425846 29.599971719888 13.359517057139
9062 1 2.400000000000 129.904481913548 31.244414593215 10.019637792855
9063 1 2.400000000000 130.911493401250 32.888857466542 13.359517057139
9064 1 2.400000000000 132.589845880753 29.599971719888 12.246223969045
9065 2 -1.200000000000 130.575822905349 30.833303874884 12.246223969044
9066 2 -1.200000000000 130.240152409448 33.299968184874 11.132930880950
9067 2 -1.200000000000 131.918504888952 30.011082438220 10.019637792855
9068 2 -1.200000000000 131.582834393051 32.477746748211 8.906344704760
9069 2 -1.200000000000 132.925516376654 31.655525311547 13.359517057139
9070 2 -1.200000000000 132.589845880753 34.122189621538 12.246223969045
9071 2 -1.200000000000 134.268198360256 30.833303874884 11.132930880950
9072 2 -1.200000000000 133.932527864356 33.299968184874 10.019637792855
9073 1 2.400000000000 128.226129434045 34.533300339870 11.132930880950
9074 1 2.400000000000 129.233140921747 0.000000000000 7.793051616665
9075 1 2.400000000000 130.240152409448 1.644442873327 11.132930880950
9076 1 2.400000000000 131.918504888952 34.533300339870 10.019637792855
9077 2 -1.200000000000 129.904481913548 35.766632494865 10.019637792855
9078 2 -1.200000000000 129.568811417647 2.055553591659 8.906344704760
9079 2 -1.200000000000 131.247163897150 34.944411058201 7.793051616665
9080 2 -1.200000000000 130.911493401250 1.233332154995 6.679758528570
9081 2 -1.200000000000 132.254175384852 0.411110718332 11.132930880950
9082 2 -1.200000000000 131.918504888952 2.877775028322 10.019637792855
9083 2 -1.200000000000 133.596857368455 35.766632494865 8.906344704760
9084 2 -1.200000000000 133.261186872554 2.055553591659 7.793051616665
9085 1 2.400000000000 134.939539352057 3.288885746654 20.039275585709
9086 1 2.400000000000 135.946550839759 4.933328619981 16.699396321424
9087 1 2.400000000000 136.953562327461 6.577771493308 20.039275585709
9088 1 2.400000000000 138.631914806964 3.288885746654 18.925982497614
9089 2 -1.200000000000 136.617891831561 4.522217901650 18.925982497614
9090 2 -1.200000000000 136.282221335660 6.988882211640 17.812689409519
9091 2 -1.200000000000 137.960573815163 3.699996464986 16.699396321424
9092 2 -1.200000000000 137.624903319263 6.166660774977 15.586103233329
9093 2 -1.200000000000 138.967585302865 5.344439338313 20.039275585709
9094 2 -1.200000000000 138.631914806964 7.811103648304 18.925982497614
9095 2 -1.200000000000 140.310267286468 4.522217901650 17.812689409519
9096 2 -1.200000000000 139.974596790567 6.988882211640 16.699396321424
9097 1 2.400000000000 134.268198360256 8.222214366636 17.812689409519
9098 1 2.400000000000 135.275209847958 9.866657239963 14.472810145234
9099 1 2.400000000000 136.282221335660 11.511100113290 17.812689409519
9100 1 2.400000000000 137.960573815163 8.222214366636 16.699396321424
9101 2 -1.200000000000 135.946550839759 9.455546521631 16.699396321424
9102 2 -1.200000000000 135.610880343859 11.922210831622 15.586103233329
9103 2 -1.200000000000 137.289232823362 8.633325084967 14.472810145234
9104 2 -1.200000000000 136.953562327461 11.099989394958 13.359517057139
9105 2 -1.200000000000 138.296244311064 10.277767958295 17.812689409519
9106 2 -1.200000000000 137.960573815163 12.744432268285 16.699396321424
9107 2 -1.200000000000 139.638926294666 9.455546521631 15.586103233329
9108 2 -1.200000000000 139.303255798766 11.922210831622 14.472810145234
9109 1 2.400000000000 133.596857368455 13.155542986617 15.586103233329
9110 1 2.400000000000 134.603868856157 14.799985859944 12.246223969045
9111 1 2.400000000000 135.610880343859 16.444428733271 15.586103233329
9112 1 2.400000000000 137.289232823362 13.155542986617 14.472810145234
9113 2 -1.200000000000 135.275209847958 14.388875141612 14.472810145234
9114 2 -1.200000000000 134.939539352057 16.855539451603 13.359517057139
9115 2 -1.200000000000 136.617891831561 13.566653704949 12.246223969044
9116 2 -1.200000000000 136.282221335660 16.033318014939 11.132930880950
9117 2 -1.200000000000 137.624903319263 15.211096578276 15.586103233329
9118 2 -1.200000000000 137.289232823362 17.677760888267 14.472810145234
9119 2 -1.200000000000 138.967585302865 14.388875141612 13.359517057139
9120 2 -1.200000000000 138.631914806964 16.855539451603 12.246223969045
9121 1 2.400000000000 132.925516376654 18.088871606598 13.359517057139
9122 1 2.400000000000 133.932527864356 19.733314479925 10.019637792855
9123 1 2.400000000000 134.939539352057 21.377757353253 13.359517057139
9124 1 2.400000000000 136.617891831561 18.088871606598 12.246223969045
9125 2 -1.200000000000 134.603868856157 19.322203761594 12.246223969045
9126 2 -1.200000000000 134.268198360256 21.788868071584 11.132930880950
9127 2 -1.200000000000 135.946550839759 18.499982324930 10.019637792855
9128 2 -1.200000000000 135.610880343859 20.966646634921 8.906344704760
9129 2 -1.200000000000 136.953562327461 20.144425198257 13.359517057139
9130 2 -1.200000000000 136.617891831561 22.611089508248 12.246223969045
9131 2 -1.200000000000 138.296244311064 19.322203761594 11.132930880950
9132 2 -1.200000000000 137.960573815163 21.788868071584 10.019637792855
9133 1 2.400000000000 132.254175384852 23.022200226580 11.132930880950
9134 1 2.400000000000 133.261186872554 24.666643099907 7.793051616665
9135 1 2.400000000000 134.268198360256 26.311085973234 11.132930880950
9136 1 2.400000000000 135.946550839759 23.022200226580 10.019637792855
9137 2 -1.200000000000 133.932527864356 24.255532381575 10.019637792855
9138 2 -1.200000000000 133.596857368455 26.722196691566 8.906344704760
9139 2 -1.200000000000 135.275209847958 23.433310944912 7.793051616665
9140 2 -1.200000000000 134.939539352057 25.899975254902 6.679758528570
9141 2 -1.200000000000 136.282221335660 25.077753818239 11.132930880950
9142 2 -1.200000000000 135.946550839759 27.544418128229 10.019637792855
9143 2 -1.200000000000 137.624903319263 24.255532381575 8.906344704760
9144 2 -1.200000000000 137.289232823362 26.722196691566 7.793051616665
9145 1 2.400000000000 131.582834393051 27.955528846561 8.906344704760
9146 1 2.400000000000 132.589845880753 29.599971719888 5.566465440475
9147 1 2.400000000000 133.596857368455 31.244414593215 8.906344704760
9148 1 2.400000000000 135.275209847958 27.955528846561 7.793051616665
9149 2 -1.200000000000 133.261186872554 29.188861001556 7.793051616665
9150 2 -1.200000000000 132.925516376654 31.655525311547 6.679758528570
9151 2 -1.200000000000 134.603868856157 28.366639564893 5.566465440475
9152 2 -1.200000000000 134.268198360256 30.833303874884 4.453172352380
9153 2 -1.200000000000 135.610880343859 30.011082438220 8.906344704760
9154 2 -1.200000000000 135.275209847958 32.477746748211 7.793051616665
9155 2 -1.200000000000 136.953562327461 29.188861001556 6.679758528570
9156 2 -1.200000000000 136.617891831561 31.655525311547 5.566465440475
9157 1 2.400000000000 130.911493401250 32.888857466542 6.679758528570
9158 1 2.400000000000 131.918504888952 34.533300339870 3.339879264285
9159 1 2.400000000000 132.925516376654 0.000000000000 6.679758528570
9160 1 2.400000000000 134.603868856157 32.888857466542 5.566465440475
9161 2 -1.200000000000 132.589845880753 34.122189621538 5.566465440475
9162 2 -1.200000000000 132.254175384852 0.411110718332 4.453172352380
9163 2 -1.200000000000 133.932527864356 33.299968184874 3.339879264285
9164 2 -1.200000000000 133.596857368455 35.766632494865 2.226586176190
9165 2 -1.200000000000 134.939539352057 34.944411058201 6.679758528570
9166 2 -1.200000000000 134.603868856157 1.233332154995 5.566465440475
9167 2 -1.200000000000 136.282221335660 34.122189621538 4.453172352380
9168 2 -1.200000000000 135.946550839759 0.411110718332 3.339879264285
9169 1 2.400000000000 137.624903319263 1.644442873327 15.586103233329
9170 1 2.400000000000 138.631914806964 3.288885746654 12.246223969044
9171 1 2.400000000000 139.638926294666 4.933328619981 15.586103233329
9172 1 2.400000000000 141.317278774170 1.644442873327 14.472810145234
9173 2 -1.200000000000 139.303255798766 2.877775028322 14.472810145234
9174 2 -1.200000000000 138.967585302865 5.344439338313 13.359517057139
9175 2 -1.200000000000 140.645937782368 2.055553591659 12.246223969044
9176 2 -1.200000000000 140.310267286468 4.522217901650 11.132930880950
9177 2 -1.200000000000 141.652949270070 3.699996464986 15.586103233329
9178 2 -1.200000000000 141.317278774170 6.166660774977 14.472810145234
9179 2 -1.200000000000 142.995631253673 2.877775028322 13.359517057139
9180 2 -1.200000000000 142.659960757772 5.344439338313 12.246223969045
9181 1 2.400000000000 136.953562327461 6.577771493308 13.359517057139
9182 1 2.400000000000 137.960573815163 8.222214366636 10.019637792855
9183 1 2.400000000000 138.967585302865 9.866657239963 13.359517057139
9184 1 2.400000000000 140.645937782368 6.577771493308 12.246223969045
9185 2 -1.200000000000 138.631914806964 7.811103648304 12.246223969045
9186 2 -1.200000000000 138.296244311064 10.277767958295 11.132930880950
9187 2 -1.200000000000 139.974596790567 6.988882211640 10.019637792855
9188 2 -1.200000000000 139.638926294666 9.455546521631 8.906344704760
9189 2 -1.200000000000 140.981608278269 8.633325084967 13.359517057139
9190 2 -1.200000000000 140.645937782368 11.099989394958 12.246223969045
9191 2 -1.200000000000 142.324290261872 7.811103648304 11.132930880950
9192 2 -1.200000000000 141.988619765971 10.277767958295 10.019637792855
9193 1 2.400000000000 136.282221335660 11.511100113290 11.132930880950
9194 1 2.400000000000 137.289232823362 13.155542986617 7.793051616665
9195 1 2.400000000000 138.296244311064 14.799985859944 11.132930880950
9196 1 2.400000000000 139.974596790567 11.511100113290 10.019637792855
9197 2 -1.200000000000 137.960573815163 12.744432268285 10.019637792855
9198 2 -1.200000000000 137.624903319263 15.211096578276 8.906344704760
9199 2 -1.200000000000 139.303255798766 11.922210831622 7.793051616665
9200 2 -1.200000000000 138.967585302865 14.388875141612 6.679758528570
9201 2 -1.200000000000 140.310267286468 13.566653704949 11.132930880950
9202 2 -1.200000000000 139.974596790567 16.033318014939 10.019637792855
9203 2 -1.200000000000 141.652949270070 12.744432268285 8.906344704760
9204 2 -1.200000000000 141.317278774170 15.211096578276 7.793051616665
9205 1 2.400000000000 135.610880343859 16.444428733271 8.906344704760
9206 1 2.400000000000 136.617891831561 18.088871606598 5.566465440475
9207 1 2.400000000000 137.624903319263 19.733314479925 8.906344704760
9208 1 2.400000000000 139.303255798766 16.444428733271 7.793051616665
9209 2 -1.200000000000 137.289232823362 17.677760888267 7.793051616665
9210 2 -1.200000000000 136.953562327461 20.144425198257 6.679758528570
9211 2 -1.200000000000 138.631914806964 16.855539451603 5.566465440475
9212 2 -1.200000000000 138.296244311064 19.322203761594 4.453172352380
9213 2 -1.200000000000 139.638926294666 18.499982324930 8.906344704760
9214 2 -1.200000000000 139.303255798766 20.966646634921 7.793051616665
9215 2 -1.200000000000 140.981608278269 17.677760888267 6.679758528570
9216 2 -1.200000000000 140.645937782368 20.144425198257 5.566465440475
9217 1 2.400000000000 134.939539352057 21.377757353253 6.679758528570
9218 1 2.400000000000 135.946550839759 23.022200226580 3.339879264285
9219 1 2.400000000000 136.953562327461 24.666643099907 6.679758528570
9220 1 2.400000000000 138.631914806964 21.377757353253 5.566465440475
9221 2 -1.200000000000 136.617891831561 22.611089508248 5.566465440475
9222 2 -1.200000000000 136.282221335660 25.077753818239 4.453172352380
9223 2 -1.200000000000 137.960573815163 21.788868071584 3.339879264285
9224 2 -1.200000000000 137.624903319263 24.255532381575 2.226586176190
9225 2 -1.200000000000 138.967585302865 23.433310944911 6.679758528570
9226 2 -1.200000000000 138.631914806964 25.899975254902 5.566465440475
9227 2 -1.200000000000 140.310267286468 22.611089508248 4.453172352380
9228 2 -1.200000000000 139.974596790567 25.077753818239 3.339879264285
9229 1 2.400000000000 134.268198360256 26.311085973234 4.453172352380
9230 1 2.400000000000 135.275209847958 27.955528846561 1.113293088095
9231 1 2.400000000000 136.282221335660 29.599971719888 4.453172352380
9232 1 2.400000000000 137.960573815163 26.311085973234 3.339879264285
9233 2 -1.200000000000 135.946550839759 27.544418128229 3.339879264285
9234 2 -1.200000000000 135.610880343859 30.011082438220 2.226586176190
9235 2 -1.200000000000 137.289232823362 26.722196691566 1.113293088095
9236 2 -1.200000000000 136.953562327461 29.188861001556 0.000000000000
9237 2 -1.200000000000 138.296244311064 28.366639564893 4.453172352380
9238 2 -1.200000000000 137.960573815163 30.833303874884 3.339879264285
9239 2 -1.200000000000 139.638926294666 27.544418128229 2.226586176190
9240 2 -1.200000000000 139.303255798766 30.011082438220 1.113293088095
9241 1 2.400000000000 133.596857368455 31.244414593215 2.226586176190
9242 1 2.400000000000 134.603868856157 32.888857466542 25.605741026184
9243 1 2.400000000000 135.610880343859 34.533300339870 2.226586176190
9244 1 2.400000000000 137.289232823362 31.244414593215 1.113293088095
9245 2 -1.200000000000 135.275209847958 32.477746748211 1.113293088095
9246 2 -1.200000000000 134.939539352057 34.944411058201 0.000000000000
9247 2 -1.200000000000 136.617891831561 31.655525311547 25.605741026184
9248 2 -1.200000000000 136.282221335660 34.122189621538 24.492447938089
9249 2 -1.200000000000 137.624903319263 33.299968184874 2.226586176190
9250 2 -1.200000000000 137.289232823362 35.766632494865 1.113293088095
9251 2 -1.200000000000 138.967585302865 32.477746748211 0.000000000000
9252 2 -1.200000000000 138.631914806964 34.944411058201 25.605741026184
9253 1 2.400000000000 140.310267286468 0.000000000000 11.132930880950
9254 1 2.400000000000 141.317278774170 1.644442873327 7.793051616665
9255 1 2.400000000000 142.324290261872 3.288885746654 11.132930880950
9256 1 2.400000000000 144.002642741375 0.000000000000 10.019637792855
9257 2 -1.200000000000 141.988619765971 1.233332154995 10.019637792855
9258 2 -1.200000000000 141.652949270070 3.699996464986 8.906344704760
9259 2 -1.200000000000 143.331301749573 0.411110718332 7.793051616665
9260 2 -1.200000000000 142.995631253673 2.877775028322 6.679758528570
9261 2 -1.200000000000 144.338313237275 2.055553591659 11.132930880950
9262 2 -1.200000000000 144.002642741375 4.522217901650 10.019637792855
9263 2 -1.200000000000 145.680995220878 1.233332154995 8.906344704760
9264 2 -1.200000000000 145.345324724977 3.699996464986 7.793051616665
9265 1 2.400000000000 139.638926294666 4.933328619981 8.906344704760
9266 1 2.400000000000 140.645937782368 6.577771493308 5.566465440475
9267 1 2.400000000000 141.652949270070 8.222214366636 8.906344704760
9268 1 2.400000000000 143.331301749573 4.933328619981 7.793051616665
9269 2 -1.200000000000 141.317278774170 6.166660774977 7.793051616665
9270 2 -1.200000000000 140.981608278269 8.633325084967 6.679758528570
9271 2 -1.200000000000 142.659960757772 5.344439338313 5.566465440475
9272 2 -1.200000000000 142.324290261872 7.811103648304 4.453172352380
9273 2 -1.200000000000 143.666972245474 6.988882211640 8.906344704760
9274 2 -1.200000000000 143.331301749573 9.455546521631 7.793051616665
9275 2 -1.200000000000 145.009654229077 6.166660774977 6.679758528570
9276 2 -1.200000000000 144.673983733176 8.633325084967 5.566465440475
9277 1 2.400000000000 138.967585302865 9.866657239963 6.679758528570
9278 1 2.400000000000 139.974596790567 11.511100113290 3.339879264285
9279 1 2.400000000000 140.981608278269 13.155542986617 6.679758528570
9280 1 2.400000000000 142.659960757772 9.866657239963 5.566465440475
9281 2 -1.200000000000 140.645937782368 11.099989394958 5.566465440475
9282 2 -1.200000000000 140.310267286468 13.566653704949 4.453172352380
9283 2 -1.200000000000 141.988619765971 10.277767958295 3.339879264285
9284 2 -1.200000000000 141.652949270070 12.744432268285 2.226586176190
9285 2 -1.200000000000 142.995631253673 11.922210831622 6.679758528570
9286 2 -1.200000000000 142.659960757772 14.388875141612 5.566465440475
9287 2 -1.200000000000 144.338313237275 11.099989394958 4.453172352380
9288 2 -1.200000000000 144.002642741375 13.566653704949 3.339879264285
9289 1 2.400000000000 138.296244311064 14.799985859944 4.453172352380
9290 1 2.400000000000 139.303255798766 16.444428733271 1.113293088095
9291 1 2.400000000000 140.310267286468 18.088871606598 4.453172352380
9292 1 2.400000000000 141.988619765971 14.799985859944 3.339879264285
9293 2 -1.200000000000 139.974596790567 16.033318014939 3.339879264285
9294 2 -1.200000000000 139.638926294666 18.499982324930 2.226586176190
9295 2 -1.200000000000 141.317278774170 15.211096578276 1.113293088095
9296 2 -1.200000000000 140.981608278269 17.677760888267 0.000000000000
9297 2 -1.200000000000 142.324290261872 16.855539451603 4.453172352380
9298 2 -1.200000000000 141.988619765971 19.322203761594 3.339879264285
9299 2 -1.200000000000 143.666972245474 16.033318014939 2.226586176190
9300 2 -1.200000000000 143.331301749573 18.499982324930 1.113293088095
9301 1 2.400000000000 137.624903319263 19.733314479925 2.226586176190
9302 1 2.400000000000 138.631914806964 21.377757353253 25.605741026184
9303 1 2.400000000000 139.638926294666 23.022200226580 2.226586176190
9304 1 2.400000000000 141.317278774170 19.733314479925 1.113293088095
9305 2 -1.200000000000 139.303255798766 20.966646634921 1.113293088095
9306 2 -1.200000000000 138.967585302865 23.433310944912 0.000000000000
9307 2 -1.200000000000 140.645937782368 20.144425198257 25.605741026184
9308 2 -1.200000000000 140.310267286468 22.611089508248 24.492447938089
9309 2 -1.200000000000 141.652949270070 21.788868071584 2.226586176190
9310 2 -1.200000000000 141.317278774170 24.255532381575 1.113293088095
9311 2 -1.200000000000 142.995631253673 20.966646634921 0.000000000000
9312 2 -1.200000000000 142.659960757772 23.433310944912 25.605741026184
9313 1 2.400000000000 136.953562327461 24.666643099907 0.000000000000
9314 1 2.400000000000 137.960573815163 26.311085973234 23.379154849994
9315 1 2.400000000000 138.967585302865 27.955528846561 0.000000000000
9316 1 2.400000000000 140.645937782368 24.666643099907 25.605741026184
9317 2 -1.200000000000 138.631914806964 25.899975254902 25.605741026184
9318 2 -1.200000000000 138.296244311064 28.366639564893 24.492447938089
9319 2 -1.200000000000 139.974596790567 25.077753818239 23.379154849994
9320 2 -1.200000000000 139.638926294666 27.544418128229 22.265861761899
9321 2 -1.200000000000 140.981608278269 26.722196691566 0.000000000000
9322 2 -1.200000000000 140.645937782368 29.188861001556 25.605741026184
9323 2 -1.200000000000 142.324290261872 25.899975254902 24.492447938089
9324 2 -1.200000000000 141.988619765971 28.366639564893 23.379154849994
9325 1 2.400000000000 142.324290261872 3.288885746654 4.453172352380
9326 1 2.400000000000 143.331301749573 4.933328619981 1.113293088095
9327 1 2.400000000000 144.338313237275 6.577771493308 4.453172352380
9328 1 2.400000000000 146.016665716779 3.288885746654 3.339879264285
9329 2 -1.200000000000 144.002642741375 4.522217901650 3.339879264285
9330 2 -1.200000000000 143.666972245474 6.988882211640 2.226586176190
9331 2 -1.200000000000 145.345324724977 3.699996464986 1.113293088095
9332 2 -1.200000000000 145.009654229077 6.166660774977 0.000000000000
9333 2 -1.200000000000 146.352336212679 5.344439338313 4.453172352380
9334 2 -1.200000000000 146.016665716779 7.811103648304 3.339879264285
9335 2 -1.200000000000 147.695018196282 4.522217901650 2.226586176190
9336 2 -1.200000000000 147.359347700381 6.988882211640 1.113293088095
9337 1 2.400000000000 141.652949270070 8.222214366636 2.226586176190
9338 1 2.400000000000 142.659960757772 9.866657239963 25.605741026184
9339 1 2.400000000000 143.666972245474 11.511100113290 2.226586176190
9340 1 2.400000000000 145.345324724977 8.222214366636 1.113293088095
9341 2 -1.200000000000 143.331301749573 9.455546521631 1.113293088095
9342 2 -1.200000000000 142.995631253673 11.922210831622 0.000000000000
9343 2 -1.200000000000 144.673983733176 8.633325084967 25.605741026184
9344 2 -1.200000000000 144.338313237275 11.099989394958 24.492447938089
9345 2 -1.200000000000 145.680995220878 10.277767958295 2.226586176190
9346 2 -1.200000000000 145.345324724977 12.744432268285 1.113293088095
9347 2 -1.200000000000 147.023677204480 9.455546521631 0.000000000000
9348 2 -1.200000000000 146.688006708580 11.922210831622 25.605741026184
9349 1 2.400000000000 140.981608278269 13.155542986617 0.000000000000
9350 1 2.400000000000 141.988619765971 14.799985859944 23.379154849994
9351 1 2.400000000000 142.995631253673 16.444428733271 0.000000000000
9352 1 2.400000000000 144.673983733176 13.155542986617 25.605741026184
9353 2 -1.200000000000 142.659960757772 14.388875141612 25.605741026184
9354 2 -1.200000000000 142.324290261872 16.855539451603 24.492447938089
9355 2 -1.200000000000 144.002642741375 13.566653704949 23.379154849994
9356 2 -1.200000000000 143.666972245474 16.033318014939 22.265861761899
9357 2 -1.200000000000 145.009654229077 15.211096578276 0.000000000000
9358 2 -1.200000000000 144.673983733176 17.677760888267 25.605741026184
9359 2 -1.200000000000 146.352336212679 14.388875141612 24.492447938089
9360 2 -1.200000000000 146.016665716779 16.855539451603 23.379154849994
9361 1 2.400000000000 145.009654229077 1.644442873327 0.000000000000
9362 1 2.400000000000 146.016665716779 3.288885746654 23.379154849994
9363 1 2.400000000000 147.023677204480 4.933328619981 0.000000000000
9364 1 2.400000000000 148.702029683984 1.644442873327 25.605741026184
9365 2 -1.200000000000 146.688006708580 2.877775028322 25.605741026184
9366 2 -1.200000000000 146.352336212679 5.344439338313 24.492447938089
9367 2 -1.200000000000 148.030688692182 2.055553591659 23.379154849994
9368 2 -1.200000000000 147.695018196282 4.522217901650 22.265861761899
9369 2 -1.200000000000 149.037700179884 3.699996464986 0.000000000000
9370 2 -1.200000000000 148.702029683984 6.166660774977 25.605741026184
9371 2 -1.200000000000 150.380382163487 2.877775028322 24.492447938089
9372 2 -1.200000000000 150.044711667586 5.344439338313 23.379154849994
9373 1 2.400000000000 128.226129434045 34.533300339870 24.492447938089
9374 1 2.400000000000 129.233140921747 0.000000000000 21.152568673804
9375 1 2.400000000000 130.240152409448 1.644442873327 24.492447938089
9376 1 2.400000000000 131.918504888952 34.533300339870 23.379154849994
9377 2 -1.200000000000 129.904481913548 35.766632494865 23.379154849994
9378 2 -1.200000000000 129.568811417647 2.055553591659 22.265861761899
9379 2 -1.200000000000 131.247163897150 34.944411058201 21.152568673804
9380 2 -1.200000000000 130.911493401250 1.233332154995 20.039275585709
9381 2 -1.200000000000 132.254175384852 0.411110718332 24.492447938089
9382 2 -1.200000000000 131.918504888952 2.877775028322 23.379154849994
9383 2 -1.200000000000 133.596857368455 35.766632494865 22.265861761899
9384 2 -1.200000000000 133.261186872554 2.055553591659 21.152568673804
9385 1 2.400000000000 132.254175384852 23.022200226580 24.492447938089
9386 1 2.400000000000 133.261186872554 24.666643099907 21.152568673804
9387 1 2.400000000000 134.268198360256 26.311085973234 24.492447938089
9388 1 2.400000000000 135.946550839759 23.022200226580 23.379154849994
9389 2 -1.200000000000 133.932527864356 24.255532381575 23.379154849994
9390 2 -1.200000000000 133.596857368455 26.722196691566 22.265861761899
9391 2 -1.200000000000 135.275209847958 23.433310944911 21.152568673804
9392 2 -1.200000000000 134.939539352057 25.899975254902 20.039275585709
9393 2 -1.200000000000 136.282221335660 25.077753818239 24.492447938089
9394 2 -1.200000000000 135.946550839759 27.544418128229 23.379154849994
9395 2 -1.200000000000 137.624903319263 24.255532381575 22.265861761899
9396 2 -1.200000000000 137.289232823362 26.722196691566 21.152568673804
9397 1 2.400000000000 131.582834393051 27.955528846561 22.265861761899
9398 1 2.400000000000 132.589845880753 29.599971719888 18.925982497614
9399 1 2.400000000000 133.596857368455 31.244414593215 22.265861761899
9400 1 2.400000000000 135.275209847958 27.955528846561 21.152568673804
9401 2 -1.200000000000 133.261186872554 29.188861001556 21.152568673804
9402 2 -1.200000000000 132.925516376654 31.655525311547 20.039275585709
9403 2 -1.200000000000 134.603868856157 28.366639564893 18.925982497614
9404 2 -1.200000000000 134.268198360256 30.833303874884 17.812689409519
9405 2 -1.200000000000 135.610880343859 30.011082438220 22.265861761899
9406 2 -1.200000000000 135.275209847958 32.477746748211 21.152568673804
9407 2 -1.200000000000 136.953562327461 29.188861001556 20.039275585709
9408 2 -1.200000000000 136.617891831561 31.655525311547 18.925982497614
9409 1 2.400000000000 130.911493401250 32.888857466542 20.039275585709
9410 1 2.400000000000 131.918504888952 34.533300339870 16.699396321424
9411 1 2.400000000000 132.925516376654 0.000000000000 20.039275585709
9412 1 2.400000000000 134.603868856157 32.888857466542 18.925982497614
9413 2 -1.200000000000 132.589845880753 34.122189621538 18.925982497614
9414 2 -1.200000000000 132.254175384852 0.411110718332 17.812689409519
9415 2 -1.200000000000 133.932527864356 33.299968184874 16.699396321424
9416 2 -1.200000000000 133.596857368455 35.766632494865 15.586103233329
9417 2 -1.200000000000 134.939539352057 34.944411058201 20.039275585709
9418 2 -1.200000000000 134.603868856157 1.233332154995 18.925982497614
9419 2 -1.200000000000 136.282221335660 34.122189621538 17.812689409519
9420 2 -1.200000000000 135.946550839759 0.411110718332 16.699396321424
9421 1 2.400000000000 136.282221335660 11.511100113290 24.492447938089
9422 1 2.400000000000 137.289232823362 13.155542986617 21.152568673804
9423 1 2.400000000000 138.296244311064 14.799985859944 24.492447938089
9424 1 2.400000000000 139.974596790567 11.511100113290 23.379154849994
9425 2 -1.200000000000 137.960573815163 12.744432268285 23.379154849994
9426 2 -1.200000000000 137.624903319263 15.211096578276 22.265861761899
9427 2 -1.200000000000 139.303255798766 11.922210831622 21.152568673804
9428 2 -1.200000000000 138.967585302865 14.388875141612 20.039275585709
9429 2 -1.200000000000 140.310267286468 13.566653704949 24.492447938089
9430 2 -1.200000000000 139.974596790567 16.033318014939 23.379154849994
9431 2 -1.200000000000 141.652949270070 12.744432268285 22.265861761899
9432 2 -1.200000000000 141.317278774170 15.211096578276 21.152568673804
9433 1 2.400000000000 135.610880343859 16.444428733271 22.265861761899
9434 1 2.400000000000 136.617891831561 18.088871606598 18.925982497614
9435 1 2.400000000000 137.624903319263 19.733314479925 22.265861761899
9436 1 2.400000000000 139.303255798766 16.444428733271 21.152568673804
9437 2 -1.200000000000 137.289232823362 17.677760888267 21.152568673804
9438 2 -1.200000000000 136.953562327461 20.144425198257 20.039275585709
9439 2 -1.200000000000 138.631914806964 16.855539451603 18.925982497614
9440 2 -1.200000000000 138.296244311064 19.322203761594 17.812689409519
9441 2 -1.200000000000 139.638926294666 18.499982324930 22.265861761899
9442 2 -1.200000000000 139.303255798766 20.966646634921 21.152568673804
9443 2 -1.200000000000 140.981608278269 17.677760888267 20.039275585709
9444 2 -1.200000000000 140.645937782368 20.144425198257 18.925982497614
9445 1 2.400000000000 134.939539352057 21.377757353253 20.039275585709
9446 1 2.400000000000 135.946550839759 23.022200226580 16.699396321424
9447 1 2.400000000000 136.953562327461 24.666643099907 20.039275585709
9448 1 2.400000000000 138.631914806964 21.377757353253 18.925982497614
9449 2 -1.200000000000 136.617891831561 22.611089508248 18.925982497614
9450 2 -1.200000000000 136.282221335660 25.077753818239 17.812689409519
9451 2 -1.200000000000 137.960573815163 21.788868071584 16.699396321424
9452 2 -1.200000000000 137.624903319263 24.255532381575 15.586103233329
9453 2 -1.200000000000 138.967585302865 23.433310944911 20.039275585709
9454 2 -1.200000000000 138.631914806964 25.899975254902 18.925982497614
9455 2 -1.200000000000 140.310267286468 22.611089508248 17.812689409519
9456 2 -1.200000000000 139.974596790567 25.077753818239 16.699396321424
9457 1 2.400000000000 134.268198360256 26.311085973234 17.812689409519
9458 1 2.400000000000 135.275209847958 27.955528846561 14.472810145234
9459 1 2.400000000000 136.282221335660 29.599971719888 17.812689409519
9460 1 2.400000000000 137.960573815163 26.311085973234 16.699396321424
9461 2 -1.200000000000 135.946550839759 27.544418128229 16.699396321424
9462 2 -1.200000000000 135.610880343859 30.011082438220 15.586103233329
9463 2 -1.200000000000 137.289232823362 26.722196691566 14.472810145234
9464 2 -1.200000000000 136.953562327461 29.188861001556 13.359517057139
9465 2 -1.200000000000 138.296244311064 28.366639564893 17.812689409519
9466 2 -1.200000000000 137.960573815163 30.833303874884 16.699396321424
9467 2 -1.200000000000 139.638926294666 27.544418128229 15.586103233329
9468 2 -1.200000000000 139.303255798766 30.011082438220 14.472810145234
9469 1 2.400000000000 133.596857368455 31.244414593215 15.586103233329
9470 1 2.400000000000 134.603868856157 32.888857466542 12.246223969045
9471 1 2.400000000000 135.610880343859 34.533300339870 15.586103233329
9472 1 2.400000000000 137.289232823362 31.244414593215 14.472810145234
9473 2 -1.200000000000 135.275209847958 32.477746748211 14.472810145234
9474 2 -1.200000000000 134.939539352057 34.944411058201 13.359517057139
9475 2 -1.200000000000 136.617891831561 31.655525311547 12.246223969045
9476 2 -1.200000000000 136.282221335660 34.122189621538 11.132930880950
9477 2 -1.200000000000 137.624903319263 33.299968184874 15.586103233329
9478 2 -1.200000000000 137.289232823362 35.766632494865 14.472810145234
9479 2 -1.200000000000 138.967585302865 32.477746748211 13.359517057139
9480 2 -1.200000000000 138.631914806964 34.944411058201 12.246223969045
9481 1 2.400000000000 140.310267286468 0.000000000000 24.492447938089
9482 1 2.400000000000 141.317278774170 1.644442873327 21.152568673804
9483 1 2.400000000000 142.324290261872 3.288885746654 24.492447938089
9484 1 2.400000000000 144.002642741375 0.000000000000 23.379154849994
9485 2 -1.200000000000 141.988619765971 1.233332154995 23.379154849994
9486 2 -1.200000000000 141.652949270070 3.699996464986 22.265861761899
9487 2 -1.200000000000 143.331301749573 0.411110718332 21.152568673804
9488 2 -1.200000000000 142.995631253673 2.877775028322 20.039275585709
9489 2 -1.200000000000 144.338313237275 2.055553591659 24.492447938089
9490 2 -1.200000000000 144.002642741375 4.522217901650 23.379154849994
9491 2 -1.200000000000 145.680995220878 1.233332154995 22.265861761899
9492 2 -1.200000000000 145.345324724977 3.699996464986 21.152568673804
9493 1 2.400000000000 139.638926294666 4.933328619981 22.265861761899
9494 1 2.400000000000 140.645937782368 6.577771493308 18.925982497614
9495 1 2.400000000000 141.652949270070 8.222214366636 22.265861761899
9496 1 2.400000000000 143.331301749573 4.933328619981 21.152568673804
9497 2 -1.200000000000 141.317278774170 6.166660774977 21.152568673804
9498 2 -1.200000000000 140.981608278269 8.633325084967 20.039275585709
9499 2 -1.200000000000 142.659960757772 5.344439338313 18.925982497614
9500 2 -1.200000000000 142.324290261872 7.811103648304 17.812689409519
9501 2 -1.200000000000 143.666972245474 6.988882211640 22.265861761899
9502 2 -1.200000000000 143.331301749573 9.455546521631 21.152568673804
9503 2 -1.200000000000 145.009654229077 6.166660774977 20.039275585709
9504 2 -1.200000000000 144.673983733176 8.633325084967 18.925982497614
9505 1 2.400000000000 138.967585302865 9.866657239963 20.039275585709
9506 1 2.400000000000 139.974596790567 11.511100113290 16.699396321424
9507 1 2.400000000000 140.981608278269 13.155542986617 20.039275585709
9508 1 2.400000000000 142.659960757772 9.866657239963 18.925982497614
9509 2 -1.200000000000 140.645937782368 11.099989394958 18.925982497614
9510 2 -1.200000000000 140.310267286468 13.566653704949 17.812689409519
9511 2 -1.200000000000 141.988619765971 10.277767958295 16.699396321424
9512 2 -1.200000000000 141.652949270070 12.744432268285 15.586103233329
9513 2 -1.200000000000 142.995631253673 11.922210831622 20.039275585709
9514 2 -1.200000000000 142.659960757772 14.388875141612 18.925982497614
9515 2 -1.200000000000 144.338313237275 11.099989394958 17.812689409519
9516 2 -1.200000000000 144.002642741375 13.566653704949 16.699396321424
9517 1 2.400000000000 138.296244311064 14.799985859944 17.812689409519
9518 1 2.400000000000 139.303255798766 16.444428733271 14.472810145234
9519 1 2.400000000000 140.310267286468 18.088871606598 17.812689409519
9520 1 2.400000000000 141.988619765971 14.799985859944 16.699396321424
9521 2 -1.200000000000 139.974596790567 16.033318014939 16.699396321424
9522 2 -1.200000000000 139.638926294666 18.499982324930 15.586103233329
9523 2 -1.200000000000 141.317278774170 15.211096578276 14.472810145234
9524 2 -1.200000000000 140.981608278269 17.677760888267 13.359517057139
9525 2 -1.200000000000 142.324290261872 16.855539451603 17.812689409519
9526 2 -1.200000000000 141.988619765971 19.322203761594 16.699396321424
9527 2 -1.200000000000 143.666972245474 16.033318014939 15.586103233329
9528 2 -1.200000000000 143.331301749573 18.499982324930 14.472810145234
9529 1 2.400000000000 137.624903319263 19.733314479925 15.586103233329
9530 1 2.400000000000 138.631914806964 21.377757353253 12.246223969045
9531 1 2.400000000000 139.638926294666 23.022200226580 15.586103233329
9532 1 2.400000000000 141.317278774170 19.733314479925 14.472810145234
9533 2 -1.200000000000 139.303255798766 20.966646634921 14.472810145234
9534 2 -1.200000000000 138.967585302865 23.433310944912 13.359517057139
9535 2 -1.200000000000 140.645937782368 20.144425198257 12.246223969045
9536 2 -1.200000000000 140.310267286468 22.611089508248 11.132930880950
9537 2 -1.200000000000 141.652949270070 21.788868071584 15.586103233329
9538 2 -1.200000000000 141.317278774170 24.255532381575 14.472810145234
9539 2 -1.200000000000 142.995631253673 20.966646634921 13.359517057139
9540 2 -1.200000000000 142.659960757772 23.433310944912 12.246223969045
9541 1 2.400000000000 136.953562327461 24.666643099907 13.359517057139
9542 1 2.400000000000 137.960573815163 26.311085973234 10.019637792855
9543 1 2.400000000000 138.967585302865 27.955528846561 13.359517057139
9544 1 2.400000000000 140.645937782368 24.666643099907 12.246223969044
9545 2 -1.200000000000 138.631914806964 25.899975254902 12.246223969045
9546 2 -1.200000000000 138.296244311064 28.366639564893 11.132930880950
9547 2 -1.200000000000 139.974596790567 25.077753818239 10.019637792855
9548 2 -1.200000000000 139.638926294666 27.544418128229 8.906344704760
9549 2 -1.200000000000 140.981608278269 26.722196691566 13.359517057139
9550 2 -1.200000000000 140.645937782368 29.188861001556 12.246223969045
9551 2 -1.200000000000 142.324290261872 25.899975254902 11.132930880950
9552 2 -1.200000000000 141.988619765971 28.366639564893 10.019637792855
9553 1 2.400000000000 136.282221335660 29.599971719888 11.132930880950
9554 1 2.400000000000 137.289232823362 31.244414593215 7.793051616665
9555 1 2.400000000000 138.296244311064 32.888857466542 11.132930880950
9556 1 2.400000000000 139.974596790567 29.599971719888 10.019637792855
9557 2 -1.200000000000 137.960573815163 30.833303874884 10.019637792855
9558 2 -1.200000000000 137.624903319263 33.299968184874 8.906344704760
9559 2 -1.200000000000 139.303255798766 30.011082438220 7.793051616665
9560 2 -1.200000000000 138.967585302865 32.477746748211 6.679758528570
9561 2 -1.200000000000 140.310267286468 31.655525311547 11.132930880950
9562 2 -1.200000000000 139.974596790567 34.122189621538 10.019637792855
9563 2 -1.200000000000 141.652949270070 30.833303874884 8.906344704760
9564 2 -1.200000000000 141.317278774170 33.299968184874 7.793051616665
9565 1 2.400000000000 135.610880343859 34.533300339870 8.906344704760
9566 1 2.400000000000 136.617891831561 0.000000000000 5.566465440475
9567 1 2.400000000000 137.624903319263 1.644442873327 8.906344704760
9568 1 2.400000000000 139.303255798766 34.533300339870 7.793051616665
9569 2 -1.200000000000 137.289232823362 35.766632494865 7.793051616665
9570 2 -1.200000000000 136.953562327461 2.055553591659 6.679758528570
9571 2 -1.200000000000 138.631914806964 34.944411058201 5.566465440475
9572 2 -1.200000000000 138.296244311064 1.233332154995 4.453172352380
9573 2 -1.200000000000 139.638926294666 0.411110718332 8.906344704760
9574 2 -1.200000000000 139.303255798766 2.877775028322 7.793051616665
9575 2 -1.200000000000 140.981608278269 35.766632494865 6.679758528570
9576 2 -1.200000000000 140.645937782368 2.055553591659 5.566465440475
9577 1 2.400000000000 142.324290261872 3.288885746654 17.812689409519
9578 1 2.400000000000 143.331301749573 4.933328619981 14.472810145234
9579 1 2.400000000000 144.338313237275 6.577771493308 17.812689409519
9580 1 2.400000000000 146.016665716779 3.288885746654 16.699396321424
9581 2 -1.200000000000 144.002642741375 4.522217901650 16.699396321424
9582 2 -1.200000000000 143.666972245474 6.988882211640 15.586103233329
9583 2 -1.200000000000 145.345324724977 3.699996464986 14.472810145234
9584 2 -1.200000000000 145.009654229077 6.166660774977 13.359517057139
9585 2 -1.200000000000 146.352336212679 5.344439338313 17.812689409519
9586 2 -1.200000000000 146.016665716779 7.811103648304 16.699396321424
9587 2 -1.200000000000 147.695018196282 4.522217901650 15.586103233329
9588 2 -1.200000000000 147.359347700381 6.988882211640 14.472810145234
9589 1 2.400000000000 141.652949270070 8.222214366636 15.586103233329
9590 1 2.400000000000 142.659960757772 9.866657239963 12.246223969045
9591 1 2.400000000000 143.666972245474 11.511100113290 15.586103233329
9592 1 2.400000000000 145.345324724977 8.222214366636 14.472810145234
9593 2 -1.200000000000 143.331301749573 9.455546521631 14.472810145234
9594 2 -1.200000000000 142.995631253673 11.922210831622 13.359517057139
9595 2 -1.200000000000 144.673983733176 8.633325084967 12.246223969045
9596 2 -1.200000000000 144.338313237275 11.099989394958 11.132930880950
9597 2 -1.200000000000 145.680995220878 10.277767958295 15.586103233329
9598 2 -1.200000000000 145.345324724977 12.744432268285 14.472810145234
9599 2 -1.200000000000 147.023677204480 9.455546521631 13.359517057139
9600 2 -1.200000000000 146.688006708580 11.922210831622 12.246223969045
9601 1 2.400000000000 140.981608278269 13.155542986617 13.359517057139
9602 1 2.400000000000 141.988619765971 14.799985859944 10.019637792855
9603 1 2.400000000000 142.995631253673 16.444428733271 13.359517057139
9604 1 2.400000000000 144.673983733176 13.155542986617 12.246223969044
9605 2 -1.200000000000 142.659960757772 14.388875141612 12.246223969045
9606 2 -1.200000000000 142.324290261872 16.855539451603 11.132930880950
9607 2 -1.200000000000 144.002642741375 13.566653704949 10.019637792855
9608 2 -1.200000000000 143.666972245474 16.033318014939 8.906344704760
9609 2 -1.200000000000 145.009654229077 15.211096578276 13.359517057139
9610 2 -1.200000000000 144.673983733176 17.677760888267 12.246223969045
9611 2 -1.200000000000 146.352336212679 14.388875141612 11.132930880950
9612 2 -1.200000000000 146.016665716779 16.855539451603 10.019637792855
9613 1 2.400000000000 140.310267286468 18.088871606598 11.132930880950
9614 1 2.400000000000 141.317278774170 19.733314479925 7.793051616665
9615 1 2.400000000000 142.324290261872 21.377757353253 11.132930880950
9616 1 2.400000000000 144.002642741375 18.088871606598 10.019637792855
9617 2 -1.200000000000 141.988619765971 19.322203761594 10.019637792855
9618 2 -1.200000000000 141.652949270070 21.788868071584 8.906344704760
9619 2 -1.200000000000 143.331301749573 18.499982324930 7.793051616665
9620 2 -1.200000000000 142.995631253673 20.966646634921 6.679758528570
9621 2 -1.200000000000 144.338313237275 20.144425198257 11.132930880950
9622 2 -1.200000000000 144.002642741375 22.611089508248 10.019637792855
9623 2 -1.200000000000 145.680995220878 19.322203761594 8.906344704760
9624 2 -1.200000000000 145.345324724977 21.788868071584 7.793051616665
9625 1 2.400000000000 139.638926294666 23.022200226580 8.906344704760
9626 1 2.400000000000 140.645937782368 24.666643099907 5.566465440475
9627 1 2.400000000000 141.652949270070 26.311085973234 8.906344704760
9628 1 2.400000000000 143.331301749573 23.022200226580 7.793051616665
9629 2 -1.200000000000 141.317278774170 24.255532381575 7.793051616665
9630 2 -1.200000000000 140.981608278269 26.722196691566 6.679758528570
9631 2 -1.200000000000 142.659960757772 23.433310944911 5.566465440475
9632 2 -1.200000000000 142.324290261872 25.899975254902 4.453172352380
9633 2 -1.200000000000 143.666972245474 25.077753818239 8.906344704760
9634 2 -1.200000000000 143.331301749573 27.544418128229 7.793051616665
9635 2 -1.200000000000 145.009654229077 24.255532381575 6.679758528570
9636 2 -1.200000000000 144.673983733176 26.722196691566 5.566465440475
9637 1 2.400000000000 138.967585302865 27.955528846561 6.679758528570
9638 1 2.400000000000 139.974596790567 29.599971719888 3.339879264285
9639 1 2.400000000000 140.981608278269 31.244414593215 6.679758528570
9640 1 2.400000000000 142.659960757772 27.955528846561 5.566465440475
9641 2 -1.200000000000 140.645937782368 29.188861001556 5.566465440475
9642 2 -1.200000000000 140.310267286468 31.655525311547 4.453172352380
9643 2 -1.200000000000 141.988619765971 28.366639564893 3.339879264285
9644 2 -1.200000000000 141.652949270070 30.833303874884 2.226586176190
9645 2 -1.200000000000 142.995631253673 30.011082438220 6.679758528570
9646 2 -1.200000000000 142.659960757772 32.477746748211 5.566465440475
9647 2 -1.200000000000 144.338313237275 29.188861001556 4.453172352380
9648 2 -1.200000000000 144.002642741375 31.655525311547 3.339879264285
9649 1 2.400000000000 138.296244311064 32.888857466542 4.453172352380
9650 1 2.400000000000 139.303255798766 34.533300339870 1.113293088095
9651 1 2.400000000000 140.310267286468 0.000000000000 4.453172352380
9652 1 2.400000000000 141.988619765971 32.888857466542 3.339879264285
9653 2 -1.200000000000 139.974596790567 34.122189621538 3.339879264285
9654 2 -1.200000000000 139.638926294666 0.411110718332 2.226586176190
9655 2 -1.200000000000 141.317278774170 33.299968184874 1.113293088095
9656 2 -1.200000000000 140.981608278269 35.766632494865 0.000000000000
9657 2 -1.200000000000 142.324290261872 34.944411058201 4.453172352380
9658 2 -1.200000000000 141.988619765971 1.233332154995 3.339879264285
9659 2 -1.200000000000 143.666972245474 34.122189621538 2.226586176190
9660 2 -1.200000000000 143.331301749573 0.411110718332 1.113293088095
9661 1 2.400000000000 145.009654229077 1.644442873327 13.359517057139
9662 1 2.400000000000 146.016665716779 3.288885746654 10.019637792855
9663 1 2.400000000000 147.023677204480 4.933328619981 13.359517057139
9664 1 2.400000000000 148.702029683984 1.644442873327 12.246223969045
9665 2 -1.200000000000 146.688006708580 2.877775028322 12.246223969045
9666 2 -1.200000000000 146.352336212679 5.344439338313 11.132930880950
9667 2 -1.200000000000 148.030688692182 2.055553591659 10.019637792855
9668 2 -1.200000000000 147.695018196282 4.522217901650 8.906344704760
9669 2 -1.200000000000 149.037700179884 3.699996464986 13.359517057139
9670 2 -1.200000000000 148.702029683984 6.166660774977 12.246223969045
9671 2 -1.200000000000 150.380382163487 2.877775028322 11.132930880950
9672 2 -1.200000000000 150.044711667586 5.344439338313 10.019637792855
9673 1 2.400000000000 144.338313237275 6.577771493308 11.132930880950
9674 1 2.400000000000 145.345324724977 8.222214366636 7.793051616665
9675 1 2.400000000000 146.352336212679 9.866657239963 11.132930880950
9676 1 2.400000000000 148.030688692182 6.577771493308 10.019637792855
9677 2 -1.200000000000 146.016665716779 7.811103648304 10.019637792855
9678 2 -1.200000000000 145.680995220878 10.277767958295 8.906344704760
9679 2 -1.200000000000 147.359347700381 6.988882211640 7.793051616665
9680 2 -1.200000000000 147.023677204480 9.455546521631 6.679758528570
9681 2 -1.200000000000 148.366359188083 8.633325084967 11.132930880950
9682 2 -1.200000000000 148.030688692182 11.099989394958 10.019637792855
9683 2 -1.200000000000 149.709041171686 7.811103648304 8.906344704760
9684 2 -1.200000000000 149.373370675785 10.277767958295 7.793051616665
9685 1 2.400000000000 143.666972245474 11.511100113290 8.906344704760
9686 1 2.400000000000 144.673983733176 13.155542986617 5.566465440475
9687 1 2.400000000000 145.680995220878 14.799985859944 8.906344704760
9688 1 2.400000000000 147.359347700381 11.511100113290 7.793051616665
9689 2 -1.200000000000 145.345324724977 12.744432268285 7.793051616665
9690 2 -1.200000000000 145.009654229077 15.211096578276 6.679758528570
9691 2 -1.200000000000 146.688006708580 11.922210831622 5.566465440475
9692 2 -1.200000000000 146.352336212679 14.388875141612 4.453172352380
9693 2 -1.200000000000 147.695018196282 13.566653704949 8.906344704760
9694 2 -1.200000000000 147.359347700381 16.033318014939 7.793051616665
9695 2 -1.200000000000 149.037700179884 12.744432268285 6.679758528570
9696 2 -1.200000000000 148.702029683984 15.211096578276 5.566465440475
9697 1 2.400000000000 142.995631253673 16.444428733271 6.679758528570
9698 1 2.400000000000 144.002642741375 18.088871606598 3.339879264285
9699 1 2.400000000000 145.009654229077 19.733314479925 6.679758528570
9700 1 2.400000000000 146.688006708580 16.444428733271 5.566465440475
9701 2 -1.200000000000 144.673983733176 17.677760888267 5.566465440475
9702 2 -1.200000000000 144.338313237275 20.144425198257 4.453172352380
9703 2 -1.200000000000 146.016665716779 16.855539451603 3.339879264285
9704 2 -1.200000000000 145.680995220878 19.322203761594 2.226586176190
9705 2 -1.200000000000 147.023677204480 18.499982324930 6.679758528570
9706 2 -1.200000000000 146.688006708580 20.966646634921 5.566465440475
9707 2 -1.200000000000 148.366359188083 17.677760888267 4.453172352380
9708 2 -1.200000000000 148.030688692182 20.144425198257 3.339879264285
9709 1 2.400000000000 142.324290261872 21.377757353253 4.453172352380
9710 1 2.400000000000 143.331301749573 23.022200226580 1.113293088095
9711 1 2.400000000000 144.338313237275 24.666643099907 4.453172352380
9712 1 2.400000000000 146.016665716779 21.377757353253 3.339879264285
9713 2 -1.200000000000 144.002642741375 22.611089508248 3.339879264285
9714 2 -1.200000000000 143.666972245474 25.077753818239 2.226586176190
9715 2 -1.200000000000 145.345324724977 21.788868071584 1.113293088095
9716 2 -1.200000000000 145.009654229077 24.255532381575 0.000000000000
9717 2 -1.200000000000 146.352336212679 23.433310944912 4.453172352380
9718 2 -1.200000000000 146.016665716779 25.899975254902 3.339879264285
9719 2 -1.200000000000 147.695018196282 22.611089508248 2.226586176190
9720 2 -1.200000000000 147.359347700381 25.077753818239 1.113293088095
9721 1 2.400000000000 141.652949270070 26.311085973234 2.226586176190
9722 1 2.400000000000 142.659960757772 27.955528846561 25.605741026184
9723 1 2.400000000000 143.666972245474 29.599971719888 2.226586176190
9724 1 2.400000000000 145.345324724977 26.311085973234 1.113293088095
9725 2 -1.200000000000 143.331301749573 27.544418128229 1.113293088095
9726 2 -1.200000000000 142.995631253673 30.011082438220 0.000000000000
9727 2 -1.200000000000 144.673983733176 26.722196691566 25.605741026184
9728 2 -1.200000000000 144.338313237275 29.188861001556 24.492447938089
9729 2 -1.200000000000 145.680995220878 28.366639564893 2.226586176190
9730 2 -1.200000000000 145.345324724977 30.833303874884 1.113293088095
9731 2 -1.200000000000 147.023677204480 27.544418128229 0.000000000000
9732 2 -1.200000000000 146.688006708580 30.011082438220 25.605741026184
9733 1 2.400000000000 140.981608278269 31.244414593215 0.000000000000
9734 1 2.400000000000 141.988619765971 32.888857466542 23.379154849994
9735 1 2.400000000000 142.995631253673 34.533300339870 0.000000000000
9736 1 2.400000000000 144.673983733176 31.244414593215 25.605741026184
9737 2 -1.200000000000 142.659960757772 32.477746748211 25.605741026184
9738 2 -1.200000000000 142.324290261872 34.944411058201 24.492447938089
9739 2 -1.200000000000 144.002642741375 31.655525311547 23.379154849994
9740 2 -1.200000000000 143.666972245474 34.122189621538 22.265861761899
9741 2 -1.200000000000 145.009654229077 33.299968184874 0.000000000000
9742 2 -1.200000000000 144.673983733176 35.766632494865 25.605741026184
9743 2 -1.200000000000 146.352336212679 32.477746748211 24.492447938089
9744 2 -1.200000000000 146.016665716779 34.944411058201 23.379154849994
9745 1 2.400000000000 147.695018196282 0.000000000000 8.906344704760
9746 1 2.400000000000 148.702029683984 1.644442873327 5.566465440475
9747 1 2.400000000000 149.709041171686 3.288885746654 8.906344704760
9748 1 2.400000000000 151.387393651189 0.000000000000 7.793051616665
9749 2 -1.200000000000 149.373370675785 1.233332154995 7.793051616665
9750 2 -1.200000000000 149.037700179884 3.699996464986 6.679758528570
9751 2 -1.200000000000 150.716052659388 0.411110718332 5.566465440475
9752 2 -1.200000000000 150.380382163487 2.877775028322 4.453172352380
9753 2 -1.200000000000 151.723064147089 2.055553591659 8.906344704760
9754 2 -1.200000000000 151.387393651189 4.522217901650 7.793051616665
9755 2 -1.200000000000 153.065746130692 1.233332154995 6.679758528570
9756 2 -1.200000000000 152.730075634791 3.699996464986 5.566465440475
9757 1 2.400000000000 147.023677204480 4.933328619981 6.679758528570
9758 1 2.400000000000 148.030688692182 6.577771493308 3.339879264285
9759 1 2.400000000000 149.037700179884 8.222214366636 6.679758528570
9760 1 2.400000000000 150.716052659388 4.933328619981 5.566465440475
9761 2 -1.200000000000 148.702029683984 6.166660774977 5.566465440475
9762 2 -1.200000000000 148.366359188083 8.633325084967 4.453172352380
9763 2 -1.200000000000 150.044711667586 5.344439338313 3.339879264285
9764 2 -1.200000000000 149.709041171686 7.811103648304 2.226586176190
9765 2 -1.200000000000 151.051723155288 6.988882211640 6.679758528570
9766 2 -1.200000000000 150.716052659388 9.455546521631 5.566465440475
9767 2 -1.200000000000 152.394405138891 6.166660774977 4.453172352380
9768 2 -1.200000000000 152.058734642990 8.633325084967 3.339879264285
9769 1 2.400000000000 146.352336212679 9.866657239963 4.453172352380
9770 1 2.400000000000 147.359347700381 11.511100113290 1.113293088095
9771 1 2.400000000000 148.366359188083 13.155542986617 4.453172352380
9772 1 2.400000000000 150.044711667586 9.866657239963 3.339879264285
9773 2 -1.200000000000 148.030688692182 11.099989394958 3.339879264285
9774 2 -1.200000000000 147.695018196282 13.566653704949 2.226586176190
9775 2 -1.200000000000 149.373370675785 10.277767958295 1.113293088095
9776 2 -1.200000000000 149.037700179884 12.744432268285 0.000000000000
9777 2 -1.200000000000 150.380382163487 11.922210831622 4.453172352380
9778 2 -1.200000000000 150.044711667586 14.388875141612 3.339879264285
9779 2 -1.200000000000 151.723064147089 11.099989394958 2.226586176190
9780 2 -1.200000000000 151.387393651189 13.566653704949 1.113293088095
9781 1 2.400000000000 145.680995220878 14.799985859944 2.226586176190
9782 1 2.400000000000 146.688006708580 16.444428733271 25.605741026184
9783 1 2.400000000000 147.695018196282 18.088871606598 2.226586176190
9784 1 2.400000000000 149.373370675785 14.799985859944 1.113293088095
9785 2 -1.200000000000 147.359347700381 16.033318014939 1.113293088095
9786 2 -1.200000000000 147.023677204480 18.499982324930 0.000000000000
9787 2 -1.200000000000 148.702029683984 15.211096578276 25.605741026184
9788 2 -1.200000000000 148.366359188083 17.677760888267 24.492447938089
9789 2 -1.200000000000 149.709041171686 16.855539451603 2.226586176190
9790 2 -1.200000000000 149.373370675785 19.322203761594 1.113293088095
9791 2 -1.200000000000 151.051723155288 16.033318014939 0.000000000000
9792 2 -1.200000000000 150.716052659388 18.499982324930 25.605741026184
9793 1 2.400000000000 145.009654229077 19.733314479925 0.000000000000
9794 1 2.400000000000 146.016665716779 21.377757353253 23.379154849994
9795 1 2.400000000000 147.023677204480 23.022200226580 0.000000000000
9796 1 2.400000000000 148.702029683984 19.733314479925 25.605741026184
9797 2 -1.200000000000 146.688006708580 20.966646634921 25.605741026184
9798 2 -1.200000000000 146.352336212679 23.433310944912 24.492447938089
9799 2 -1.200000000000 148.030688692182 20.144425198257 23.379154849994
9800 2 -1.200000000000 147.695018196282 22.611089508248 22.265861761899
9801 2 -1.200000000000 149.037700179884 21.788868071584 0.000000000000
9802 2 -1.200000000000 148.702029683984 24.255532381575 25.605741026184
9803 2 -1.200000000000 150.380382163487 20.966646634921 24.492447938089
9804 2 -1.200000000000 150.044711667586 23.433310944912 23.379154849994
9805 1 2.400000000000 149.709041171686 3.288885746654 2.226586176190
9806 1 2.400000000000 150.716052659388 4.933328619981 25.605741026184
9807 1 2.400000000000 151.723064147089 6.577771493308 2.226586176190
9808 1 2.400000000000 153.401416626593 3.288885746654 1.113293088095
9809 2 -1.200000000000 151.387393651189 4.522217901650 1.113293088095
9810 2 -1.200000000000 151.051723155288 6.988882211640 0.000000000000
9811 2 -1.200000000000 152.730075634791 3.699996464986 25.605741026184
9812 2 -1.200000000000 152.394405138891 6.166660774977 24.492447938089
9813 2 -1.200000000000 153.737087122493 5.344439338313 2.226586176190
9814 2 -1.200000000000 153.401416626593 7.811103648304 1.113293088095
9815 2 -1.200000000000 155.079769106096 4.522217901650 0.000000000000
9816 2 -1.200000000000 154.744098610195 6.988882211640 25.605741026184
9817 1 2.400000000000 149.037700179884 8.222214366636 0.000000000000
9818 1 2.400000000000 150.044711667586 9.866657239963 23.379154849994
9819 1 2.400000000000 151.051723155288 11.511100113290 0.000000000000
9820 1 2.400000000000 152.730075634791 8.222214366636 25.605741026184
9821 2 -1.200000000000 150.716052659388 9.455546521631 25.605741026184
9822 2 -1.200000000000 150.380382163487 11.922210831622 24.492447938089
9823 2 -1.200000000000 152.058734642990 8.633325084967 23.379154849994
9824 2 -1.200000000000 151.723064147089 11.099989394958 22.265861761899
9825 2 -1.200000000000 153.065746130692 10.277767958295 0.000000000000
9826 2 -1.200000000000 152.730075634791 12.744432268285 25.605741026184
9827 2 -1.200000000000 154.408428114295 9.455546521631 24.492447938089
9828 2 -1.200000000000 154.072757618394 11.922210831622 23.379154849994
9829 1 2.400000000000 136.282221335660 29.599971719888 24.492447938089
9830 1 2.400000000000 137.289232823362 31.244414593215 21.152568673804
9831 1 2.400000000000 138.296244311064 32.888857466542 24.492447938089
9832 1 2.400000000000 139.974596790567 29.599971719888 23.379154849994
9833 2 -1.200000000000 137.960573815163 30.833303874884 23.379154849994
9834 2 -1.200000000000 137.624903319263 33.299968184874 22.265861761899
9835 2 -1.200000000000 139.303255798766 30.011082438220 21.152568673804
9836 2 -1.200000000000 138.967585302865 32.477746748211 20.039275585709
9837 2 -1.200000000000 140.310267286468 31.655525311547 24.492447938089
9838 2 -1.200000000000 139.974596790567 34.122189621538 23.379154849994
9839 2 -1.200000000000 141.652949270070 30.833303874884 22.265861761899
9840 2 -1.200000000000 141.317278774170 33.299968184874 21.152568673804
9841 1 2.400000000000 135.610880343859 34.533300339870 22.265861761899
9842 1 2.400000000000 136.617891831561 0.000000000000 18.925982497614
9843 1 2.400000000000 137.624903319263 1.644442873327 22.265861761899
9844 1 2.400000000000 139.303255798766 34.533300339870 21.152568673804
9845 2 -1.200000000000 137.289232823362 35.766632494865 21.152568673804
9846 2 -1.200000000000 136.953562327461 2.055553591659 20.039275585709
9847 2 -1.200000000000 138.631914806964 34.944411058201 18.925982497614
9848 2 -1.200000000000 138.296244311064 1.233332154995 17.812689409519
9849 2 -1.200000000000 139.638926294666 0.411110718332 22.265861761899
9850 2 -1.200000000000 139.303255798766 2.877775028322 21.152568673804
9851 2 -1.200000000000 140.981608278269 35.766632494865 20.039275585709
9852 2 -1.200000000000 140.645937782368 2.055553591659 18.925982497614
9853 1 2.400000000000 140.310267286468 18.088871606598 24.492447938089
9854 1 2.400000000000 141.317278774170 19.733314479925 21.152568673804
9855 1 2.400000000000 142.324290261872 21.377757353253 24.492447938089
9856 1 2.400000000000 144.002642741375 18.088871606598 23.379154849994
9857 2 -1.200000000000 141.988619765971 19.322203761594 23.379154849994
9858 2 -1.200000000000 141.652949270070 21.788868071584 22.265861761899
9859 2 -1.200000000000 143.331301749573 18.499982324930 21.152568673804
9860 2 -1.200000000000 142.995631253673 20.966646634921 20.039275585709
9861 2 -1.200000000000 144.338313237275 20.144425198257 24.492447938089
9862 2 -1.200000000000 144.002642741375 22.611089508248 23.379154849994
9863 2 -1.200000000000 145.680995220878 19.322203761594 22.265861761899
9864 2 -1.200000000000 145.345324724977 21.788868071584 21.152568673804
9865 1 2.400000000000 139.638926294666 23.022200226580 22.265861761899
9866 1 2.400000000000 140.645937782368 24.666643099907 18.925982497614
9867 1 2.400000000000 141.652949270070 26.311085973234 22.265861761899
9868 1 2.400000000000 143.331301749573 23.022200226580 21.152568673804
9869 2 -1.200000000000 141.317278774170 24.255532381575 21.152568673804
9870 2 -1.200000000000 140.981608278269 26.722196691566 20.039275585709
9871 2 -1.200000000000 142.659960757772 23.433310944912 18.925982497614
9872 2 -1.200000000000 142.324290261872 25.899975254902 17.812689409519
9873 2 -1.200000000000 143.666972245474 25.077753818239 22.265861761899
9874 2 -1.200000000000 143.331301749573 27.544418128229 21.152568673804
9875 2 -1.200000000000 145.009654229077 24.255532381575 20.039275585709
9876 2 -1.200000000000 144.673983733176 26.722196691566 18.925982497614
9877 1 2.400000000000 138.967585302865 27.955528846561 20.039275585709
9878 1 2.400000000000 139.974596790567 29.599971719888 16.699396321424
9879 1 2.400000000000 140.981608278269 31.244414593215 20.039275585709
9880 1 2.400000000000 142.659960757772 27.955528846561 18.925982497614
9881 2 -1.200000000000 140.645937782368 29.188861001556 18.925982497614
9882 2 -1.200000000000 140.310267286468 31.655525311547 17.812689409519
9883 2 -1.200000000000 141.988619765971 28.366639564893 16.699396321424
9884 2 -1.200000000000 141.652949270070 30.833303874884 15.586103233329
9885 2 -1.200000000000 142.995631253673 30.011082438220 20.039275585709
9886 2 -1.200000000000 142.659960757772 32.477746748211 18.925982497614
9887 2 -1.200000000000 144.338313237275 29.188861001556 17.812689409519
9888 2 -1.200000000000 144.002642741375 31.655525311547 16.699396321424
9889 1 2.400000000000 138.296244311064 32.888857466542 17.812689409519
9890 1 2.400000000000 139.303255798766 34.533300339870 14.472810145234
9891 1 2.400000000000 140.310267286468 0.000000000000 17.812689409519
9892 1 2.400000000000 141.988619765971 32.888857466542 16.699396321424
9893 2 -1.200000000000 139.974596790567 34.122189621538 16.699396321424
9894 2 -1.200000000000 139.638926294666 0.411110718332 15.586103233329
9895 2 -1.200000000000 141.317278774170 33.299968184874 14.472810145234
9896 2 -1.200000000000 140.981608278269 35.766632494865 13.359517057139
9897 2 -1.200000000000 142.324290261872 34.944411058201 17.812689409519
9898 2 -1.200000000000 141.988619765971 1.233332154995 16.699396321424
9899 2 -1.200000000000 143.666972245474 34.122189621538 15.586103233329
9900 2 -1.200000000000 143.331301749573 0.411110718332 14.472810145234
9901 1 2.400000000000 144.338313237275 6.577771493308 24.492447938089
9902 1 2.400000000000 145.345324724977 8.222214366636 21.152568673804
9903 1 2.400000000000 146.352336212679 9.866657239963 24.492447938089
9904 1 2.400000000000 148.030688692182 6.577771493308 23.379154849994
9905 2 -1.200000000000 146.016665716779 7.811103648304 23.379154849994
9906 2 -1.200000000000 145.680995220878 10.277767958295 22.265861761899
9907 2 -1.200000000000 147.359347700381 6.988882211640 21.152568673804
9908 2 -1.200000000000 147.023677204480 9.455546521631 20.039275585709
9909 2 -1.200000000000 148.366359188083 8.633325084967 24.492447938089
9910 2 -1.200000000000 148.030688692182 11.099989394958 23.379154849994
9911 2 -1.200000000000 149.709041171686 7.811103648304 22.265861761899
9912 2 -1.200000000000 149.373370675785 10.277767958295 21.152568673804
9913 1 2.400000000000 143.666972245474 11.511100113290 22.265861761899
9914 1 2.400000000000 144.673983733176 13.155542986617 18.925982497614
9915 1 2.400000000000 145.680995220878 14.799985859944 22.265861761899
9916 1 2.400000000000 147.359347700381 11.511100113290 21.152568673804
9917 2 -1.200000000000 145.345324724977 12.744432268285 21.152568673804
9918 2 -1.200000000000 145.009654229077 15.211096578276 20.039275585709
9919 2 -1.200000000000 146.688006708580 11.922210831622 18.925982497614
9920 2 -1.200000000000 146.352336212679 14.388875141612 17.812689409519
9921 2 -1.200000000000 147.695018196282 13.566653704949 22.265861761899
9922 2 -1.200000000000 147.359347700381 16.033318014939 21.152568673804
9923 2 -1.200000000000 149.037700179884 12.744432268285 20.039275585709
9924 2 -1.200000000000 148.702029683984 15.211096578276 18.925982497614
9925 1 2.400000000000 142.995631253673 16.444428733271 20.039275585709
9926 1 2.400000000000 144.002642741375 18.088871606598 16.699396321424
9927 1 2.400000000000 145.009654229077 19.733314479925 20.039275585709
9928 1 2.400000000000 146.688006708580 16.444428733271 18.925982497614
9929 2 -1.200000000000 144.673983733176 17.677760888267 18.925982497614
9930 2 -1.200000000000 144.338313237275 20.144425198257 17.812689409519
9931 2 -1.200000000000 146.016665716779 16.855539451603 16.699396321424
9932 2 -1.200000000000 145.680995220878 19.322203761594 15.586103233329
9933 2 -1.200000000000 147.023677204480 18.499982324930 20.039275585709
9934 2 -1.200000000000 146.688006708580 20.966646634921 18.925982497614
9935 2 -1.200000000000 148.366359188083 17.677760888267 17.812689409519
9936 2 -1.200000000000 148.030688692182 20.144425198257 16.699396321424
9937 1 2.400000000000 142.324290261872 21.377757353253 17.812689409519
9938 1 2.400000000000 143.331301749573 23.022200226580 14.472810145234
9939 1 2.400000000000 144.338313237275 24.666643099907 17.812689409519
9940 1 2.400000000000 146.016665716779 21.377757353253 16.699396321424
9941 2 -1.200000000000 144.002642741375 22.611089508248 16.699396321424
9942 2 -1.200000000000 143.666972245474 25.077753818239 15.586103233329
9943 2 -1.200000000000 145.345324724977 21.788868071584 14.472810145234
9944 2 -1.200000000000 145.009654229077 24.255532381575 13.359517057139
9945 2 -1.200000000000 146.352336212679 23.433310944912 17.812689409519
9946 2 -1.200000000000 146.016665716779 25.899975254902 16.699396321424
9947 2 -1.200000000000 147.695018196282 22.611089508248 15.586103233329
9948 2 -1.200000000000 147.359347700381 25.077753818239 14.472810145234
9949 1 2.400000000000 141.652949270070 26.311085973234 15.586103233329
9950 1 2.400000000000 142.659960757772 27.955528846561 12.246223969045
9951 1 2.400000000000 143.666972245474 29.599971719888 15.586103233329
9952 1 2.400000000000 145.345324724977 26.311085973234 14.472810145234
9953 2 -1.200000000000 143.331301749573 27.544418128229 14.472810145234
9954 2 -1.200000000000 142.995631253673 30.011082438220 13.359517057139
9955 2 -1.200000000000 144.673983733176 26.722196691566 12.246223969045
9956 2 -1.200000000000 144.338313237275 29.188861001556 11.132930880950
9957 2 -1.200000000000 145.680995220878 28.366639564893 15.586103233329
9958 2 -1.200000000000 145.345324724977 30.833303874884 14.472810145234
9959 2 -1.200000000000 147.023677204480 27.544418128229 13.359517057139
9960 2 -1.200000000000 146.688006708580 30.011082438220 12.246223969045
9961 1 2.400000000000 140.981608278269 31.244414593215 13.359517057139
9962 1 2.400000000000 141.988619765971 32.888857466542 10.019637792855
9963 1 2.400000000000 142.995631253673 34.533300339870 13.359517057139
9964 1 2.400000000000 144.673983733176 31.244414593215 12.246223969044
9965 2 -1.200000000000 142.659960757772 32.477746748211 12.246223969045
9966 2 -1.200000000000 142.324290261872 34.944411058201 11.132930880950
9967 2 -1.200000000000 144.002642741375 31.655525311547 10.019637792855
9968 2 -1.200000000000 143.666972245474 34.122189621538 8.906344704760
9969 2 -1.200000000000 145.009654229077 33.299968184874 13.359517057139
9970 2 -1.200000000000 144.673983733176 35.766632494865 12.246223969045
9971 2 -1.200000000000 146.352336212679 32.477746748211 11.132930880950
9972 2 -1.200000000000 146.016665716779 34.944411058201 10.019637792855
9973 1 2.400000000000 147.695018196282 0.000000000000 22.265861761899
9974 1 2.400000000000 148.702029683984 1.644442873327 18.925982497614
9975 1 2.400000000000 149.709041171686 3.288885746654 22.265861761899
9976 1 2.400000000000 151.387393651189 0.000000000000 21.152568673804
9977 2 -1.200000000000 149.373370675785 1.233332154995 21.152568673804
9978 2 -1.200000000000 149.037700179884 3.699996464986 20.039275585709
9979 2 -1.200000000000 150.716052659388 0.411110718332 18.925982497614
9980 2 -1.200000000000 150.380382163487 2.877775028322 17.812689409519
9981 2 -1.200000000000 151.723064147089 2.055553591659 22.265861761899
9982 2 -1.200000000000 151.387393651189 4.522217901650 21.152568673804
9983 2 -1.200000000000 153.065746130692 1.233332154995 20.039275585709
9984 2 -1.200000000000 152.730075634791 3.699996464986 18.925982497614
9985 1 2.400000000000 147.023677204480 4.933328619981 20.039275585709
9986 1 2.400000000000 148.030688692182 6.577771493308 16.699396321424
9987 1 2.400000000000 149.037700179884 8.222214366636 20.039275585709
9988 1 2.400000000000 150.716052659388 4.933328619981 18.925982497614
9989 2 -1.200000000000 148.702029683984 6.166660774977 18.925982497614
9990 2 -1.200000000000 148.366359188083 8.633325084967 17.812689409519
9991 2 -1.200000000000 150.044711667586 5.344439338313 16.699396321424
9992 2 -1.200000000000 149.709041171686 7.811103648304 15.586103233329
9993 2 -1.200000000000 151.051723155288 6.988882211640 20.039275585709
9994 2 -1.200000000000 150.716052659388 9.455546521631 18.925982497614
9995 2 -1.200000000000 152.394405138891 6.166660774977 17.812689409519
9996 2 -1.200000000000 152.058734642990 8.633325084967 16.699396321424
9997 1 2.400000000000 146.352336212679 9.866657239963 17.812689409519
9998 1 2.400000000000 147.359347700381 11.511100113290 14.472810145234
9999 1 2.400000000000 148.366359188083 13.155542986617 17.812689409519
10000 1 2.400000000000 150.044711667586 9.866657239963 16.699396321424
10001 2 -1.200000000000 148.030688692182 11.099989394958 16.699396321424
10002 2 -1.200000000000 147.695018196282 13.566653704949 15.586103233329
10003 2 -1.200000000000 149.373370675785 10.277767958295 14.472810145234
10004 2 -1.200000000000 149.037700179884 12.744432268285 13.359517057139
10005 2 -1.200000000000 150.380382163487 11.922210831622 17.812689409519
10006 2 -1.200000000000 150.044711667586 14.388875141612 16.699396321424
10007 2 -1.200000000000 151.723064147089 11.099989394958 15.586103233329
10008 2 -1.200000000000 151.387393651189 13.566653704949 14.472810145234
10009 1 2.400000000000 145.680995220878 14.799985859944 15.586103233329
10010 1 2.400000000000 146.688006708580 16.444428733271 12.246223969045
10011 1 2.400000000000 147.695018196282 18.088871606598 15.586103233329
10012 1 2.400000000000 149.373370675785 14.799985859944 14.472810145234
10013 2 -1.200000000000 147.359347700381 16.033318014939 14.472810145234
10014 2 -1.200000000000 147.023677204480 18.499982324930 13.359517057139
10015 2 -1.200000000000 148.702029683984 15.211096578276 12.246223969045
10016 2 -1.200000000000 148.366359188083 17.677760888267 11.132930880950
10017 2 -1.200000000000 149.709041171686 16.855539451603 15.586103233329
10018 2 -1.200000000000 149.373370675785 19.322203761594 14.472810145234
10019 2 -1.200000000000 151.051723155288 16.033318014939 13.359517057139
10020 2 -1.200000000000 150.716052659388 18.499982324930 12.246223969045
10021 1 2.400000000000 145.009654229077 19.733314479925 13.359517057139
10022 1 2.400000000000 146.016665716779 21.377757353253 10.019637792855
10023 1 2.400000000000 147.023677204480 23.022200226580 13.359517057139
10024 1 2.400000000000 148.702029683984 19.733314479925 12.246223969044
10025 2 -1.200000000000 146.688006708580 20.966646634921 12.246223969045
10026 2 -1.200000000000 146.352336212679 23.433310944912 11.132930880950
10027 2 -1.200000000000 148.030688692182 20.144425198257 10.019637792855
10028 2 -1.200000000000 147.695018196282 22.611089508248 8.906344704760
10029 2 -1.200000000000 149.037700179884 21.788868071584 13.359517057139
10030 2 -1.200000000000 148.702029683984 24.255532381575 12.246223969045
10031 2 -1.200000000000 150.380382163487 20.966646634921 11.132930880950
10032 2 -1.200000000000 150.044711667586 23.433310944912 10.019637792855
10033 1 2.400000000000 144.338313237275 24.666643099907 11.132930880950
10034 1 2.400000000000 145.345324724977 26.311085973234 7.793051616665
10035 1 2.400000000000 146.352336212679 27.955528846561 11.132930880950
10036 1 2.400000000000 148.030688692182 24.666643099907 10.019637792855
10037 2 -1.200000000000 146.016665716779 25.899975254902 10.019637792855
10038 2 -1.200000000000 145.680995220878 28.366639564893 8.906344704760
10039 2 -1.200000000000 147.359347700381 25.077753818239 7.793051616665
10040 2 -1.200000000000 147.023677204480 27.544418128229 6.679758528570
10041 2 -1.200000000000 148.366359188083 26.722196691566 11.132930880950
10042 2 -1.200000000000 148.030688692182 29.188861001556 10.019637792855
10043 2 -1.200000000000 149.709041171686 25.899975254902 8.906344704760
10044 2 -1.200000000000 149.373370675785 28.366639564893 7.793051616665
10045 1 2.400000000000 143.666972245474 29.599971719888 8.906344704760
10046 1 2.400000000000 144.673983733176 31.244414593215 5.566465440475
10047 1 2.400000000000 145.680995220878 32.888857466542 8.906344704760
10048 1 2.400000000000 147.359347700381 29.599971719888 7.793051616665
10049 2 -1.200000000000 145.345324724977 30.833303874884 7.793051616665
10050 2 -1.200000000000 145.009654229077 33.299968184874 6.679758528570
10051 2 -1.200000000000 146.688006708580 30.011082438220 5.566465440475
10052 2 -1.200000000000 146.352336212679 32.477746748211 4.453172352380
10053 2 -1.200000000000 147.695018196282 31.655525311547 8.906344704760
10054 2 -1.200000000000 147.359347700381 34.122189621538 7.793051616665
10055 2 -1.200000000000 149.037700179884 30.833303874884 6.679758528570
10056 2 -1.200000000000 148.702029683984 33.299968184874 5.566465440475
10057 1 2.400000000000 142.995631253673 34.533300339870 6.679758528570
10058 1 2.400000000000 144.002642741375 0.000000000000 3.339879264285
10059 1 2.400000000000 145.009654229077 1.644442873327 6.679758528570
10060 1 2.400000000000 146.688006708580 34.533300339870 5.566465440475
10061 2 -1.200000000000 144.673983733176 35.766632494865 5.566465440475
10062 2 -1.200000000000 144.338313237275 2.055553591659 4.453172352380
10063 2 -1.200000000000 146.016665716779 34.944411058201 3.339879264285
10064 2 -1.200000000000 145.680995220878 1.233332154995 2.226586176190
10065 2 -1.200000000000 147.023677204480 0.411110718332 6.679758528570
10066 2 -1.200000000000 146.688006708580 2.877775028322 5.566465440475
10067 2 -1.200000000000 148.366359188083 35.766632494865 4.453172352380
10068 2 -1.200000000000 148.030688692182 2.055553591659 3.339879264285
10069 1 2.400000000000 149.709041171686 3.288885746654 15.586103233329
10070 1 2.400000000000 150.716052659388 4.933328619981 12.246223969045
10071 1 2.400000000000 151.723064147089 6.577771493308 15.586103233329
10072 1 2.400000000000 153.401416626593 3.288885746654 14.472810145234
10073 2 -1.200000000000 151.387393651189 4.522217901650 14.472810145234
10074 2 -1.200000000000 151.051723155288 6.988882211640 13.359517057139
10075 2 -1.200000000000 152.730075634791 3.699996464986 12.246223969045
10076 2 -1.200000000000 152.394405138891 6.166660774977 11.132930880950
10077 2 -1.200000000000 153.737087122493 5.344439338313 15.586103233329
10078 2 -1.200000000000 153.401416626593 7.811103648304 14.472810145234
10079 2 -1.200000000000 155.079769106096 4.522217901650 13.359517057139
10080 2 -1.200000000000 154.744098610195 6.988882211640 12.246223969045
10081 1 2.400000000000 149.037700179884 8.222214366636 13.359517057139
10082 1 2.400000000000 150.044711667586 9.866657239963 10.019637792855
10083 1 2.400000000000 151.051723155288 11.511100113290 13.359517057139
10084 1 2.400000000000 152.730075634791 8.222214366636 12.246223969045
10085 2 -1.200000000000 150.716052659388 9.455546521631 12.246223969045
10086 2 -1.200000000000 150.380382163487 11.922210831622 11.132930880950
10087 2 -1.200000000000 152.058734642990 8.633325084967 10.019637792855
10088 2 -1.200000000000 151.723064147089 11.099989394958 8.906344704760
10089 2 -1.200000000000 153.065746130692 10.277767958295 13.359517057139
10090 2 -1.200000000000 152.730075634791 12.744432268285 12.246223969045
10091 2 -1.200000000000 154.408428114295 9.455546521631 11.132930880950
10092 2 -1.200000000000 154.072757618394 11.922210831622 10.019637792855
10093 1 2.400000000000 148.366359188083 13.155542986617 11.132930880950
10094 1 2.400000000000 149.373370675785 14.799985859944 7.793051616665
10095 1 2.400000000000 150.380382163487 16.444428733271 11.132930880950
10096 1 2.400000000000 152.058734642990 13.155542986617 10.019637792855
10097 2 -1.200000000000 150.044711667586 14.388875141612 10.019637792855
10098 2 -1.200000000000 149.709041171686 16.855539451603 8.906344704760
10099 2 -1.200000000000 151.387393651189 13.566653704949 7.793051616665
10100 2 -1.200000000000 151.051723155288 16.033318014939 6.679758528570
10101 2 -1.200000000000 152.394405138891 15.211096578276 11.132930880950
10102 2 -1.200000000000 152.058734642990 17.677760888267 10.019637792855
10103 2 -1.200000000000 153.737087122493 14.388875141612 8.906344704760
10104 2 -1.200000000000 153.401416626593 16.855539451603 7.793051616665
10105 1 2.400000000000 147.695018196282 18.088871606598 8.906344704760
10106 1 2.400000000000 148.702029683984 19.733314479925 5.566465440475
10107 1 2.400000000000 149.709041171686 21.377757353253 8.906344704760
10108 1 2.400000000000 151.387393651189 18.088871606598 7.793051616665
10109 2 -1.200000000000 149.373370675785 19.322203761594 7.793051616665
10110 2 -1.200000000000 149.037700179884 21.788868071584 6.679758528570
10111 2 -1.200000000000 150.716052659388 18.499982324930 5.566465440475
10112 2 -1.200000000000 150.380382163487 20.966646634921 4.453172352380
10113 2 -1.200000000000 151.723064147089 20.144425198257 8.906344704760
10114 2 -1.200000000000 151.387393651189 22.611089508248 7.793051616665
10115 2 -1.200000000000 153.065746130692 19.322203761594 6.679758528570
10116 2 -1.200000000000 152.730075634791 21.788868071584 5.566465440475
10117 1 2.400000000000 147.023677204480 23.022200226580 6.679758528570
10118 1 2.400000000000 148.030688692182 24.666643099907 3.339879264285
10119 1 2.400000000000 149.037700179884 26.311085973234 6.679758528570
10120 1 2.400000000000 150.716052659388 23.022200226580 5.566465440475
10121 2 -1.200000000000 148.702029683984 24.255532381575 5.566465440475
10122 2 -1.200000000000 148.366359188083 26.722196691566 4.453172352380
10123 2 -1.200000000000 150.044711667586 23.433310944912 3.339879264285
10124 2 -1.200000000000 149.709041171686 25.899975254902 2.226586176190
10125 2 -1.200000000000 151.051723155288 25.077753818239 6.679758528570
10126 2 -1.200000000000 150.716052659388 27.544418128229 5.566465440475
10127 2 -1.200000000000 152.394405138891 24.255532381575 4.453172352380
10128 2 -1.200000000000 152.058734642990 26.722196691566 3.339879264285
10129 1 2.400000000000 146.352336212679 27.955528846561 4.453172352380
10130 1 2.400000000000 147.359347700381 29.599971719888 1.113293088095
10131 1 2.400000000000 148.366359188083 31.244414593215 4.453172352380
10132 1 2.400000000000 150.044711667586 27.955528846561 3.339879264285
10133 2 -1.200000000000 148.030688692182 29.188861001556 3.339879264285
10134 2 -1.200000000000 147.695018196282 31.655525311547 2.226586176190
10135 2 -1.200000000000 149.373370675785 28.366639564893 1.113293088095
10136 2 -1.200000000000 149.037700179884 30.833303874884 0.000000000000
10137 2 -1.200000000000 150.380382163487 30.011082438220 4.453172352380
10138 2 -1.200000000000 150.044711667586 32.477746748211 3.339879264285
10139 2 -1.200000000000 151.723064147089 29.188861001556 2.226586176190
10140 2 -1.200000000000 151.387393651189 31.655525311547 1.113293088095
10141 1 2.400000000000 145.680995220878 32.888857466542 2.226586176190
10142 1 2.400000000000 146.688006708580 34.533300339870 25.605741026184
10143 1 2.400000000000 147.695018196282 0.000000000000 2.226586176190
10144 1 2.400000000000 149.373370675785 32.888857466542 1.113293088095
10145 2 -1.200000000000 147.359347700381 34.122189621538 1.113293088095
10146 2 -1.200000000000 147.023677204480 0.411110718332 0.000000000000
10147 2 -1.200000000000 148.702029683984 33.299968184874 25.605741026184
10148 2 -1.200000000000 148.366359188083 35.766632494865 24.492447938089
10149 2 -1.200000000000 149.709041171686 34.944411058201 2.226586176190
10150 2 -1.200000000000 149.373370675785 1.233332154995 1.113293088095
10151 2 -1.200000000000 151.051723155288 34.122189621538 0.000000000000
10152 2 -1.200000000000 150.716052659388 0.411110718332 25.605741026184
10153 1 2.400000000000 152.394405138891 1.644442873327 11.132930880950
10154 1 2.400000000000 153.401416626593 3.288885746654 7.793051616665
10155 1 2.400000000000 154.408428114295 4.933328619981 11.132930880950
10156 1 2.400000000000 156.086780593798 1.644442873327 10.019637792855
10157 2 -1.200000000000 154.072757618394 2.877775028322 10.019637792855
10158 2 -1.200000000000 153.737087122493 5.344439338313 8.906344704760
10159 2 -1.200000000000 155.415439601996 2.055553591659 7.793051616665
10160 2 -1.200000000000 155.079769106096 4.522217901650 6.679758528570
10161 2 -1.200000000000 156.422451089698 3.699996464986 11.132930880950
10162 2 -1.200000000000 156.086780593798 6.166660774977 10.019637792855
10163 2 -1.200000000000 157.765133073301 2.877775028322 8.906344704760
10164 2 -1.200000000000 157.429462577400 5.344439338313 7.793051616665
10165 1 2.400000000000 151.723064147089 6.577771493308 8.906344704760
10166 1 2.400000000000 152.730075634791 8.222214366636 5.566465440475
10167 1 2.400000000000 153.737087122493 9.866657239963 8.906344704760
10168 1 2.400000000000 155.415439601996 6.577771493308 7.793051616665
10169 2 -1.200000000000 153.401416626593 7.811103648304 7.793051616665
10170 2 -1.200000000000 153.065746130692 10.277767958295 6.679758528570
10171 2 -1.200000000000 154.744098610195 6.988882211640 5.566465440475
10172 2 -1.200000000000 154.408428114295 9.455546521631 4.453172352380
10173 2 -1.200000000000 155.751110097897 8.633325084967 8.906344704760
10174 2 -1.200000000000 155.415439601996 11.099989394958 7.793051616665
10175 2 -1.200000000000 157.093792081500 7.811103648304 6.679758528570
10176 2 -1.200000000000 156.758121585599 10.277767958295 5.566465440475
10177 1 2.400000000000 151.051723155288 11.511100113290 6.679758528570
10178 1 2.400000000000 152.058734642990 13.155542986617 3.339879264285
10179 1 2.400000000000 153.065746130692 14.799985859944 6.679758528570
10180 1 2.400000000000 154.744098610195 11.511100113290 5.566465440475
10181 2 -1.200000000000 152.730075634791 12.744432268285 5.566465440475
10182 2 -1.200000000000 152.394405138891 15.211096578276 4.453172352380
10183 2 -1.200000000000 154.072757618394 11.922210831622 3.339879264285
10184 2 -1.200000000000 153.737087122493 14.388875141612 2.226586176190
10185 2 -1.200000000000 155.079769106096 13.566653704949 6.679758528570
10186 2 -1.200000000000 154.744098610195 16.033318014939 5.566465440475
10187 2 -1.200000000000 156.422451089698 12.744432268285 4.453172352380
10188 2 -1.200000000000 156.086780593798 15.211096578276 3.339879264285
10189 1 2.400000000000 150.380382163487 16.444428733271 4.453172352380
10190 1 2.400000000000 151.387393651189 18.088871606598 1.113293088095
10191 1 2.400000000000 152.394405138891 19.733314479925 4.453172352380
10192 1 2.400000000000 154.072757618394 16.444428733271 3.339879264285
10193 2 -1.200000000000 152.058734642990 17.677760888267 3.339879264285
10194 2 -1.200000000000 151.723064147089 20.144425198257 2.226586176190
10195 2 -1.200000000000 153.401416626593 16.855539451603 1.113293088095
10196 2 -1.200000000000 153.065746130692 19.322203761594 0.000000000000
10197 2 -1.200000000000 154.408428114295 18.499982324930 4.453172352380
10198 2 -1.200000000000 154.072757618394 20.966646634921 3.339879264285
10199 2 -1.200000000000 155.751110097897 17.677760888267 2.226586176190
10200 2 -1.200000000000 155.415439601996 20.144425198257 1.113293088095
10201 1 2.400000000000 149.709041171686 21.377757353253 2.226586176190
10202 1 2.400000000000 150.716052659388 23.022200226580 25.605741026184
10203 1 2.400000000000 151.723064147089 24.666643099907 2.226586176190
10204 1 2.400000000000 153.401416626593 21.377757353253 1.113293088095
10205 2 -1.200000000000 151.387393651189 22.611089508248 1.113293088095
10206 2 -1.200000000000 151.051723155288 25.077753818239 0.000000000000
10207 2 -1.200000000000 152.730075634791 21.788868071584 25.605741026184
10208 2 -1.200000000000 152.394405138891 24.255532381575 24.492447938089
10209 2 -1.200000000000 153.737087122493 23.433310944912 2.226586176190
10210 2 -1.200000000000 153.401416626593 25.899975254902 1.113293088095
10211 2 -1.200000000000 155.079769106096 22.611089508248 0.000000000000
10212 2 -1.200000000000 154.744098610195 25.077753818239 25.605741026184
10213 1 2.400000000000 149.037700179884 26.311085973234 0.000000000000
10214 1 2.400000000000 150.044711667586 27.955528846561 23.379154849994
10215 1 2.400000000000 151.051723155288 29.599971719888 0.000000000000
10216 1 2.400000000000 152.730075634791 26.311085973234 25.605741026184
10217 2 -1.200000000000 150.716052659388 27.544418128229 25.605741026184
10218 2 -1.200000000000 150.380382163487 30.011082438220 24.492447938089
10219 2 -1.200000000000 152.058734642990 26.722196691566 23.379154849994
10220 2 -1.200000000000 151.723064147089 29.188861001556 22.265861761899
10221 2 -1.200000000000 153.065746130692 28.366639564893 0.000000000000
10222 2 -1.200000000000 152.730075634791 30.833303874884 25.605741026184
10223 2 -1.200000000000 154.408428114295 27.544418128229 24.492447938089
10224 2 -1.200000000000 154.072757618394 30.011082438220 23.379154849994
10225 1 2.400000000000 155.079769106096 0.000000000000 6.679758528570
10226 1 2.400000000000 156.086780593798 1.644442873327 3.339879264285
10227 1 2.400000000000 157.093792081500 3.288885746654 6.679758528570
10228 1 2.400000000000 158.772144561003 0.000000000000 5.566465440475
10229 2 -1.200000000000 156.758121585599 1.233332154995 5.566465440475
10230 2 -1.200000000000 156.422451089698 3.699996464986 4.453172352380
10231 2 -1.200000000000 158.100803569202 0.411110718332 3.339879264285
10232 2 -1.200000000000 157.765133073301 2.877775028322 2.226586176190
10233 2 -1.200000000000 159.107815056904 2.055553591659 6.679758528570
10234 2 -1.200000000000 158.772144561003 4.522217901650 5.566465440475
10235 2 -1.200000000000 160.450497040506 1.233332154995 4.453172352380
10236 2 -1.200000000000 160.114826544605 3.699996464986 3.339879264285
10237 1 2.400000000000 154.408428114295 4.933328619981 4.453172352380
10238 1 2.400000000000 155.415439601996 6.577771493308 1.113293088095
10239 1 2.400000000000 156.422451089698 8.222214366636 4.453172352380
10240 1 2.400000000000 158.100803569202 4.933328619981 3.339879264285
10241 2 -1.200000000000 156.086780593798 6.166660774977 3.339879264285
10242 2 -1.200000000000 155.751110097897 8.633325084967 2.226586176190
10243 2 -1.200000000000 157.429462577400 5.344439338313 1.113293088095
10244 2 -1.200000000000 157.093792081500 7.811103648304 0.000000000000
10245 2 -1.200000000000 158.436474065102 6.988882211640 4.453172352380
10246 2 -1.200000000000 158.100803569202 9.455546521631 3.339879264285
10247 2 -1.200000000000 159.779156048705 6.166660774977 2.226586176190
10248 2 -1.200000000000 159.443485552804 8.633325084967 1.113293088095
10249 1 2.400000000000 153.737087122493 9.866657239963 2.226586176190
10250 1 2.400000000000 154.744098610195 11.511100113290 25.605741026184
10251 1 2.400000000000 155.751110097897 13.155542986617 2.226586176190
10252 1 2.400000000000 157.429462577400 9.866657239963 1.113293088095
10253 2 -1.200000000000 155.415439601996 11.099989394958 1.113293088095
10254 2 -1.200000000000 155.079769106096 13.566653704949 0.000000000000
10255 2 -1.200000000000 156.758121585599 10.277767958295 25.605741026184
10256 2 -1.200000000000 156.422451089698 12.744432268285 24.492447938089
10257 2 -1.200000000000 157.765133073301 11.922210831622 2.226586176190
10258 2 -1.200000000000 157.429462577400 14.388875141612 1.113293088095
10259 2 -1.200000000000 159.107815056904 11.099989394958 0.000000000000
10260 2 -1.200000000000 158.772144561003 13.566653704949 25.605741026184
10261 1 2.400000000000 153.065746130692 14.799985859944 0.000000000000
10262 1 2.400000000000 154.072757618394 16.444428733271 23.379154849994
10263 1 2.400000000000 155.079769106096 18.088871606598 0.000000000000
10264 1 2.400000000000 156.758121585599 14.799985859944 25.605741026184
10265 2 -1.200000000000 154.744098610195 16.033318014939 25.605741026184
10266 2 -1.200000000000 154.408428114295 18.499982324930 24.492447938089
10267 2 -1.200000000000 156.086780593798 15.211096578276 23.379154849994
10268 2 -1.200000000000 155.751110097897 17.677760888267 22.265861761899
10269 2 -1.200000000000 157.093792081500 16.855539451603 0.000000000000
10270 2 -1.200000000000 156.758121585599 19.322203761594 25.605741026184
10271 2 -1.200000000000 158.436474065102 16.033318014939 24.492447938089
10272 2 -1.200000000000 158.100803569202 18.499982324930 23.379154849994
10273 1 2.400000000000 157.093792081500 3.288885746654 0.000000000000
10274 1 2.400000000000 158.100803569202 4.933328619981 23.379154849994
10275 1 2.400000000000 159.107815056904 6.577771493308 0.000000000000
10276 1 2.400000000000 160.786167536407 3.288885746654 25.605741026184
10277 2 -1.200000000000 158.772144561003 4.522217901650 25.605741026184
10278 2 -1.200000000000 158.436474065102 6.988882211640 24.492447938089
10279 2 -1.200000000000 160.114826544605 3.699996464986 23.379154849994
10280 2 -1.200000000000 159.779156048705 6.166660774977 22.265861761899
10281 2 -1.200000000000 161.121838032307 5.344439338313 0.000000000000
10282 2 -1.200000000000 160.786167536407 7.811103648304 25.605741026184
10283 2 -1.200000000000 162.464520015910 4.522217901650 24.492447938089
10284 2 -1.200000000000 162.128849520009 6.988882211640 23.379154849994
10285 1 2.400000000000 144.338313237275 24.666643099907 24.492447938089
10286 1 2.400000000000 145.345324724977 26.311085973234 21.152568673804
10287 1 2.400000000000 146.352336212679 27.955528846561 24.492447938089
10288 1 2.400000000000 148.030688692182 24.666643099907 23.379154849994
10289 2 -1.200000000000 146.016665716779 25.899975254902 23.379154849994
10290 2 -1.200000000000 145.680995220878 28.366639564893 22.265861761899
10291 2 -1.200000000000 147.359347700381 25.077753818239 21.152568673804
10292 2 -1.200000000000 147.023677204480 27.544418128229 20.039275585709
10293 2 -1.200000000000 148.366359188083 26.722196691566 24.492447938089
10294 2 -1.200000000000 148.030688692182 29.188861001556 23.379154849994
10295 2 -1.200000000000 149.709041171686 25.899975254902 22.265861761899
10296 2 -1.200000000000 149.373370675785 28.366639564893 21.152568673804
10297 1 2.400000000000 143.666972245474 29.599971719888 22.265861761899
10298 1 2.400000000000 144.673983733176 31.244414593215 18.925982497614
10299 1 2.400000000000 145.680995220878 32.888857466542 22.265861761899
10300 1 2.400000000000 147.359347700381 29.599971719888 21.152568673804
10301 2 -1.200000000000 145.345324724977 30.833303874884 21.152568673804
10302 2 -1.200000000000 145.009654229077 33.299968184874 20.039275585709
10303 2 -1.200000000000 146.688006708580 30.011082438220 18.925982497614
10304 2 -1.200000000000 146.352336212679 32.477746748211 17.812689409519
10305 2 -1.200000000000 147.695018196282 31.655525311547 22.265861761899
10306 2 -1.200000000000 147.359347700381 34.122189621538 21.152568673804
10307 2 -1.200000000000 149.037700179884 30.833303874884 20.039275585709
10308 2 -1.200000000000 148.702029683984 33.299968184874 18.925982497614
10309 1 2.400000000000 142.995631253673 34.533300339870 20.039275585709
10310 1 2.400000000000 144.002642741375 0.000000000000 16.699396321424
10311 1 2.400000000000 145.009654229077 1.644442873327 20.039275585709
10312 1 2.400000000000 146.688006708580 34.533300339870 18.925982497614
10313 2 -1.200000000000 144.673983733176 35.766632494865 18.925982497614
10314 2 -1.200000000000 144.338313237275 2.055553591659 17.812689409519
10315 2 -1.200000000000 146.016665716779 34.944411058201 16.699396321424
10316 2 -1.200000000000 145.680995220878 1.233332154995 15.586103233329
10317 2 -1.200000000000 147.023677204480 0.411110718332 20.039275585709
10318 2 -1.200000000000 146.688006708580 2.877775028322 18.925982497614
10319 2 -1.200000000000 148.366359188083 35.766632494865 17.812689409519
10320 2 -1.200000000000 148.030688692182 2.055553591659 16.699396321424
10321 1 2.400000000000 148.366359188083 13.155542986617 24.492447938089
10322 1 2.400000000000 149.373370675785 14.799985859944 21.152568673804
10323 1 2.400000000000 150.380382163487 16.444428733271 24.492447938089
10324 1 2.400000000000 152.058734642990 13.155542986617 23.379154849994
10325 2 -1.200000000000 150.044711667586 14.388875141612 23.379154849994
10326 2 -1.200000000000 149.709041171686 16.855539451603 22.265861761899
10327 2 -1.200000000000 151.387393651189 13.566653704949 21.152568673804
10328 2 -1.200000000000 151.051723155288 16.033318014939 20.039275585709
10329 2 -1.200000000000 152.394405138891 15.211096578276 24.492447938089
10330 2 -1.200000000000 152.058734642990 17.677760888267 23.379154849994
10331 2 -1.200000000000 153.737087122493 14.388875141612 22.265861761899
10332 2 -1.200000000000 153.401416626593 16.855539451603 21.152568673804
10333 1 2.400000000000 147.695018196282 18.088871606598 22.265861761899
10334 1 2.400000000000 148.702029683984 19.733314479925 18.925982497614
10335 1 2.400000000000 149.709041171686 21.377757353253 22.265861761899
10336 1 2.400000000000 151.387393651189 18.088871606598 21.152568673804
10337 2 -1.200000000000 149.373370675785 19.322203761594 21.152568673804
10338 2 -1.200000000000 149.037700179884 21.788868071584 20.039275585709
10339 2 -1.200000000000 150.716052659388 18.499982324930 18.925982497614
10340 2 -1.200000000000 150.380382163487 20.966646634921 17.812689409519
10341 2 -1.200000000000 151.723064147089 20.144425198257 22.265861761899
10342 2 -1.200000000000 151.387393651189 22.611089508248 21.152568673804
10343 2 -1.200000000000 153.065746130692 19.322203761594 20.039275585709
10344 2 -1.200000000000 152.730075634791 21.788868071584 18.925982497614
10345 1 2.400000000000 147.023677204480 23.022200226580 20.039275585709
10346 1 2.400000000000 148.030688692182 24.666643099907 16.699396321424
10347 1 2.400000000000 149.037700179884 26.311085973234 20.039275585709
10348 1 2.400000000000 150.716052659388 23.022200226580 18.925982497614
10349 2 -1.200000000000 148.702029683984 24.255532381575 18.925982497614
10350 2 -1.200000000000 148.366359188083 26.722196691566 17.812689409519
10351 2 -1.200000000000 150.044711667586 23.433310944911 16.699396321424
10352 2 -1.200000000000 149.709041171686 25.899975254902 15.586103233329
10353 2 -1.200000000000 151.051723155288 25.077753818239 20.039275585709
10354 2 -1.200000000000 150.716052659388 27.544418128229 18.925982497614
10355 2 -1.200000000000 152.394405138891 24.255532381575 17.812689409519
10356 2 -1.200000000000 152.058734642990 26.722196691566 16.699396321424
10357 1 2.400000000000 146.352336212679 27.955528846561 17.812689409519
10358 1 2.400000000000 147.359347700381 29.599971719888 14.472810145234
10359 1 2.400000000000 148.366359188083 31.244414593215 17.812689409519
10360 1 2.400000000000 150.044711667586 27.955528846561 16.699396321424
10361 2 -1.200000000000 148.030688692182 29.188861001556 16.699396321424
10362 2 -1.200000000000 147.695018196282 31.655525311547 15.586103233329
10363 2 -1.200000000000 149.373370675785 28.366639564893 14.472810145234
10364 2 -1.200000000000 149.037700179884 30.833303874884 13.359517057139
10365 2 -1.200000000000 150.380382163487 30.011082438220 17.812689409519
10366 2 -1.200000000000 150.044711667586 32.477746748211 16.699396321424
10367 2 -1.200000000000 151.723064147089 29.188861001556 15.586103233329
10368 2 -1.200000000000 151.387393651189 31.655525311547 14.472810145234
10369 1 2.400000000000 145.680995220878 32.888857466542 15.586103233329
10370 1 2.400000000000 146.688006708580 34.533300339870 12.246223969044
10371 1 2.400000000000 147.695018196282 0.000000000000 15.586103233329
10372 1 2.400000000000 149.373370675785 32.888857466542 14.472810145234
10373 2 -1.200000000000 147.359347700381 34.122189621538 14.472810145234
10374 2 -1.200000000000 147.023677204480 0.411110718332 13.359517057139
10375 2 -1.200000000000 148.702029683984 33.299968184874 12.246223969045
10376 2 -1.200000000000 148.366359188083 35.766632494865 11.132930880950
10377 2 -1.200000000000 149.709041171686 34.944411058201 15.586103233329
10378 2 -1.200000000000 149.373370675785 1.233332154995 14.472810145234
10379 2 -1.200000000000 151.051723155288 34.122189621538 13.359517057139
10380 2 -1.200000000000 150.716052659388 0.411110718332 12.246223969045
10381 1 2.400000000000 152.394405138891 1.644442873327 24.492447938089
10382 1 2.400000000000 153.401416626593 3.288885746654 21.152568673804
10383 1 2.400000000000 154.408428114295 4.933328619981 24.492447938089
10384 1 2.400000000000 156.086780593798 1.644442873327 23.379154849994
10385 2 -1.200000000000 154.072757618394 2.877775028322 23.379154849994
10386 2 -1.200000000000 153.737087122493 5.344439338313 22.265861761899
10387 2 -1.200000000000 155.415439601996 2.055553591659 21.152568673804
10388 2 -1.200000000000 155.079769106096 4.522217901650 20.039275585709
10389 2 -1.200000000000 156.422451089698 3.699996464986 24.492447938089
10390 2 -1.200000000000 156.086780593798 6.166660774977 23.379154849994
10391 2 -1.200000000000 157.765133073301 2.877775028322 22.265861761899
10392 2 -1.200000000000 157.429462577400 5.344439338313 21.152568673804
10393 1 2.400000000000 151.723064147089 6.577771493308 22.265861761899
10394 1 2.400000000000 152.730075634791 8.222214366636 18.925982497614
10395 1 2.400000000000 153.737087122493 9.866657239963 22.265861761899
10396 1 2.400000000000 155.415439601996 6.577771493308 21.152568673804
10397 2 -1.200000000000 153.401416626593 7.811103648304 21.152568673804
10398 2 -1.200000000000 153.065746130692 10.277767958295 20.039275585709
10399 2 -1.200000000000 154.744098610195 6.988882211640 18.925982497614
10400 2 -1.200000000000 154.408428114295 9.455546521631 17.812689409519
10401 2 -1.200000000000 155.751110097897 8.633325084967 22.265861761899
10402 2 -1.200000000000 155.415439601996 11.099989394958 21.152568673804
10403 2 -1.200000000000 157.093792081500 7.811103648304 20.039275585709
10404 2 -1.200000000000 156.758121585599 10.277767958295 18.925982497614
10405 1 2.400000000000 151.051723155288 11.511100113290 20.039275585709
10406 1 2.400000000000 152.058734642990 13.155542986617 16.699396321424
10407 1 2.400000000000 153.065746130692 14.799985859944 20.039275585709
10408 1 2.400000000000 154.744098610195 11.511100113290 18.925982497614
10409 2 -1.200000000000 152.730075634791 12.744432268285 18.925982497614
10410 2 -1.200000000000 152.394405138891 15.211096578276 17.812689409519
10411 2 -1.200000000000 154.072757618394 11.922210831622 16.699396321424
10412 2 -1.200000000000 153.737087122493 14.388875141612 15.586103233329
10413 2 -1.200000000000 155.079769106096 13.566653704949 20.039275585709
10414 2 -1.200000000000 154.744098610195 16.033318014939 18.925982497614
10415 2 -1.200000000000 156.422451089698 12.744432268285 17.812689409519
10416 2 -1.200000000000 156.086780593798 15.211096578276 16.699396321424
10417 1 2.400000000000 150.380382163487 16.444428733271 17.812689409519
10418 1 2.400000000000 151.387393651189 18.088871606598 14.472810145234
10419 1 2.400000000000 152.394405138891 19.733314479925 17.812689409519
10420 1 2.400000000000 154.072757618394 16.444428733271 16.699396321424
10421 2 -1.200000000000 152.058734642990 17.677760888267 16.699396321424
10422 2 -1.200000000000 151.723064147089 20.144425198257 15.586103233329
10423 2 -1.200000000000 153.401416626593 16.855539451603 14.472810145234
10424 2 -1.200000000000 153.065746130692 19.322203761594 13.359517057139
10425 2 -1.200000000000 154.408428114295 18.499982324930 17.812689409519
10426 2 -1.200000000000 154.072757618394 20.966646634921 16.699396321424
10427 2 -1.200000000000 155.751110097897 17.677760888267 15.586103233329
10428 2 -1.200000000000 155.415439601996 20.144425198257 14.472810145234
10429 1 2.400000000000 149.709041171686 21.377757353253 15.586103233329
10430 1 2.400000000000 150.716052659388 23.022200226580 12.246223969044
10431 1 2.400000000000 151.723064147089 24.666643099907 15.586103233329
10432 1 2.400000000000 153.401416626593 21.377757353253 14.472810145234
10433 2 -1.200000000000 151.387393651189 22.611089508248 14.472810145234
10434 2 -1.200000000000 151.051723155288 25.077753818239 13.359517057139
10435 2 -1.200000000000 152.730075634791 21.788868071584 12.246223969045
10436 2 -1.200000000000 152.394405138891 24.255532381575 11.132930880950
10437 2 -1.200000000000 153.737087122493 23.433310944912 15.586103233329
10438 2 -1.200000000000 153.401416626593 25.899975254902 14.472810145234
10439 2 -1.200000000000 155.079769106096 22.611089508248 13.359517057139
10440 2 -1.200000000000 154.744098610195 25.077753818239 12.246223969045
10441 1 2.400000000000 149.037700179884 26.311085973234 13.359517057139
10442 1 2.400000000000 150.044711667586 27.955528846561 10.019637792855
10443 1 2.400000000000 151.051723155288 29.599971719888 13.359517057139
10444 1 2.400000000000 152.730075634791 26.311085973234 12.246223969045
10445 2 -1.200000000000 150.716052659388 27.544418128229 12.246223969044
10446 2 -1.200000000000 150.380382163487 30.011082438220 11.132930880950
10447 2 -1.200000000000 152.058734642990 26.722196691566 10.019637792855
10448 2 -1.200000000000 151.723064147089 29.188861001556 8.906344704760
10449 2 -1.200000000000 153.065746130692 28.366639564893 13.359517057139
10450 2 -1.200000000000 152.730075634791 30.833303874884 12.246223969045
10451 2 -1.200000000000 154.408428114295 27.544418128229 11.132930880950
10452 2 -1.200000000000 154.072757618394 30.011082438220 10.019637792855
10453 1 2.400000000000 148.366359188083 31.244414593215 11.132930880950
10454 1 2.400000000000 149.373370675785 32.888857466542 7.793051616665
10455 1 2.400000000000 150.380382163487 34.533300339870 11.132930880950
10456 1 2.400000000000 152.058734642990 31.244414593215 10.019637792855
10457 2 -1.200000000000 150.044711667586 32.477746748211 10.019637792855
10458 2 -1.200000000000 149.709041171686 34.944411058201 8.906344704760
10459 2 -1.200000000000 151.387393651189 31.655525311547 7.793051616665
10460 2 -1.200000000000 151.051723155288 34.122189621538 6.679758528570
10461 2 -1.200000000000 152.394405138891 33.299968184874 11.132930880950
10462 2 -1.200000000000 152.058734642990 35.766632494865 10.019637792855
10463 2 -1.200000000000 153.737087122493 32.477746748211 8.906344704760
10464 2 -1.200000000000 153.401416626593 34.944411058201 7.793051616665
10465 1 2.400000000000 155.079769106096 0.000000000000 20.039275585709
10466 1 2.400000000000 156.086780593798 1.644442873327 16.699396321424
10467 1 2.400000000000 157.093792081500 3.288885746654 20.039275585709
10468 1 2.400000000000 158.772144561003 0.000000000000 18.925982497614
10469 2 -1.200000000000 156.758121585599 1.233332154995 18.925982497614
10470 2 -1.200000000000 156.422451089698 3.699996464986 17.812689409519
10471 2 -1.200000000000 158.100803569202 0.411110718332 16.699396321424
10472 2 -1.200000000000 157.765133073301 2.877775028322 15.586103233329
10473 2 -1.200000000000 159.107815056904 2.055553591659 20.039275585709
10474 2 -1.200000000000 158.772144561003 4.522217901650 18.925982497614
10475 2 -1.200000000000 160.450497040506 1.233332154995 17.812689409519
10476 2 -1.200000000000 160.114826544605 3.699996464986 16.699396321424
10477 1 2.400000000000 154.408428114295 4.933328619981 17.812689409519
10478 1 2.400000000000 155.415439601996 6.577771493308 14.472810145234
10479 1 2.400000000000 156.422451089698 8.222214366636 17.812689409519
10480 1 2.400000000000 158.100803569202 4.933328619981 16.699396321424
10481 2 -1.200000000000 156.086780593798 6.166660774977 16.699396321424
10482 2 -1.200000000000 155.751110097897 8.633325084967 15.586103233329
10483 2 -1.200000000000 157.429462577400 5.344439338313 14.472810145234
10484 2 -1.200000000000 157.093792081500 7.811103648304 13.359517057139
10485 2 -1.200000000000 158.436474065102 6.988882211640 17.812689409519
10486 2 -1.200000000000 158.100803569202 9.455546521631 16.699396321424
10487 2 -1.200000000000 159.779156048705 6.166660774977 15.586103233329
10488 2 -1.200000000000 159.443485552804 8.633325084967 14.472810145234
10489 1 2.400000000000 153.737087122493 9.866657239963 15.586103233329
10490 1 2.400000000000 154.744098610195 11.511100113290 12.246223969045
10491 1 2.400000000000 155.751110097897 13.155542986617 15.586103233329
10492 1 2.400000000000 157.429462577400 9.866657239963 14.472810145234
10493 2 -1.200000000000 155.415439601996 11.099989394958 14.472810145234
10494 2 -1.200000000000 155.079769106096 13.566653704949 13.359517057139
10495 2 -1.200000000000 156.758121585599 10.277767958295 12.246223969045
10496 2 -1.200000000000 156.422451089698 12.744432268285 11.132930880950
10497 2 -1.200000000000 157.765133073301 11.922210831622 15.586103233329
10498 2 -1.200000000000 157.429462577400 14.388875141612 14.472810145234
10499 2 -1.200000000000 159.107815056904 11.099989394958 13.359517057139
10500 2 -1.200000000000 158.772144561003 13.566653704949 12.246223969045
10501 1 2.400000000000 153.065746130692 14.799985859944 13.359517057139
10502 1 2.400000000000 154.072757618394 16.444428733271 10.019637792855
10503 1 2.400000000000 155.079769106096 18.088871606598 13.359517057139
10504 1 2.400000000000 156.758121585599 14.799985859944 12.246223969045
10505 2 -1.200000000000 154.744098610195 16.033318014939 12.246223969045
10506 2 -1.200000000000 154.408428114295 18.499982324930 11.132930880950
10507 2 -1.200000000000 156.086780593798 15.211096578276 10.019637792855
10508 2 -1.200000000000 155.751110097897 17.677760888267 8.906344704760
10509 2 -1.200000000000 157.093792081500 16.855539451603 13.359517057139
10510 2 -1.200000000000 156.758121585599 19.322203761594 12.246223969045
10511 2 -1.200000000000 158.436474065102 16.033318014939 11.132930880950
10512 2 -1.200000000000 158.100803569202 18.499982324930 10.019637792855
10513 1 2.400000000000 152.394405138891 19.733314479925 11.132930880950
10514 1 2.400000000000 153.401416626593 21.377757353253 7.793051616665
10515 1 2.400000000000 154.408428114295 23.022200226580 11.132930880950
10516 1 2.400000000000 156.086780593798 19.733314479925 10.019637792855
10517 2 -1.200000000000 154.072757618394 20.966646634921 10.019637792855
10518 2 -1.200000000000 153.737087122493 23.433310944912 8.906344704760
10519 2 -1.200000000000 155.415439601996 20.144425198257 7.793051616665
10520 2 -1.200000000000 155.079769106096 22.611089508248 6.679758528570
10521 2 -1.200000000000 156.422451089698 21.788868071584 11.132930880950
10522 2 -1.200000000000 156.086780593798 24.255532381575 10.019637792855
10523 2 -1.200000000000 157.765133073301 20.966646634921 8.906344704760
10524 2 -1.200000000000 157.429462577400 23.433310944912 7.793051616665
10525 1 2.400000000000 151.723064147089 24.666643099907 8.906344704760
10526 1 2.400000000000 152.730075634791 26.311085973234 5.566465440475
10527 1 2.400000000000 153.737087122493 27.955528846561 8.906344704760
10528 1 2.400000000000 155.415439601996 24.666643099907 7.793051616665
10529 2 -1.200000000000 153.401416626593 25.899975254902 7.793051616665
10530 2 -1.200000000000 153.065746130692 28.366639564893 6.679758528570
10531 2 -1.200000000000 154.744098610195 25.077753818239 5.566465440475
10532 2 -1.200000000000 154.408428114295 27.544418128229 4.453172352380
10533 2 -1.200000000000 155.751110097897 26.722196691566 8.906344704760
10534 2 -1.200000000000 155.415439601996 29.188861001556 7.793051616665
10535 2 -1.200000000000 157.093792081500 25.899975254902 6.679758528570
10536 2 -1.200000000000 156.758121585599 28.366639564893 5.566465440475
10537 1 2.400000000000 151.051723155288 29.599971719888 6.679758528570
10538 1 2.400000000000 152.058734642990 31.244414593215 3.339879264285
10539 1 2.400000000000 153.065746130692 32.888857466542 6.679758528570
10540 1 2.400000000000 154.744098610195 29.599971719888 5.566465440475
10541 2 -1.200000000000 152.730075634791 30.833303874884 5.566465440475
10542 2 -1.200000000000 152.394405138891 33.299968184874 4.453172352380
10543 2 -1.200000000000 154.072757618394 30.011082438220 3.339879264285
10544 2 -1.200000000000 153.737087122493 32.477746748211 2.226586176190
10545 2 -1.200000000000 155.079769106096 31.655525311547 6.679758528570
10546 2 -1.200000000000 154.744098610195 34.122189621538 5.566465440475
10547 2 -1.200000000000 156.422451089698 30.833303874884 4.453172352380
10548 2 -1.200000000000 156.086780593798 33.299968184874 3.339879264285
10549 1 2.400000000000 150.380382163487 34.533300339870 4.453172352380
10550 1 2.400000000000 151.387393651189 0.000000000000 1.113293088095
10551 1 2.400000000000 152.394405138891 1.644442873327 4.453172352380
10552 1 2.400000000000 154.072757618394 34.533300339870 3.339879264285
10553 2 -1.200000000000 152.058734642990 35.766632494865 3.339879264285
10554 2 -1.200000000000 151.723064147089 2.055553591659 2.226586176190
10555 2 -1.200000000000 153.401416626593 34.944411058201 1.113293088095
10556 2 -1.200000000000 153.065746130692 1.233332154995 0.000000000000
10557 2 -1.200000000000 154.408428114295 0.411110718332 4.453172352380
10558 2 -1.200000000000 154.072757618394 2.877775028322 3.339879264285
10559 2 -1.200000000000 155.751110097897 35.766632494865 2.226586176190
10560 2 -1.200000000000 155.415439601996 2.055553591659 1.113293088095
10561 1 2.400000000000 157.093792081500 3.288885746654 13.359517057139
10562 1 2.400000000000 158.100803569202 4.933328619981 10.019637792855
10563 1 2.400000000000 159.107815056904 6.577771493308 13.359517057139
10564 1 2.400000000000 160.786167536407 3.288885746654 12.246223969045
10565 2 -1.200000000000 158.772144561003 4.522217901650 12.246223969045
10566 2 -1.200000000000 158.436474065102 6.988882211640 11.132930880950
10567 2 -1.200000000000 160.114826544605 3.699996464986 10.019637792855
10568 2 -1.200000000000 159.779156048705 6.166660774977 8.906344704760
10569 2 -1.200000000000 161.121838032307 5.344439338313 13.359517057139
10570 2 -1.200000000000 160.786167536407 7.811103648304 12.246223969045
10571 2 -1.200000000000 162.464520015910 4.522217901650 11.132930880950
10572 2 -1.200000000000 162.128849520009 6.988882211640 10.019637792855
10573 1 2.400000000000 156.422451089698 8.222214366636 11.132930880950
10574 1 2.400000000000 157.429462577400 9.866657239963 7.793051616665
10575 1 2.400000000000 158.436474065102 11.511100113290 11.132930880950
10576 1 2.400000000000 160.114826544605 8.222214366636 10.019637792855
10577 2 -1.200000000000 158.100803569202 9.455546521631 10.019637792855
10578 2 -1.200000000000 157.765133073301 11.922210831622 8.906344704760
10579 2 -1.200000000000 159.443485552804 8.633325084967 7.793051616665
10580 2 -1.200000000000 159.107815056904 11.099989394958 6.679758528570
10581 2 -1.200000000000 160.450497040506 10.277767958295 11.132930880950
10582 2 -1.200000000000 160.114826544605 12.744432268285 10.019637792855
10583 2 -1.200000000000 161.793179024109 9.455546521631 8.906344704760
10584 2 -1.200000000000 161.457508528208 11.922210831622 7.793051616665
10585 1 2.400000000000 155.751110097897 13.155542986617 8.906344704760
10586 1 2.400000000000 156.758121585599 14.799985859944 5.566465440475
10587 1 2.400000000000 157.765133073301 16.444428733271 8.906344704760
10588 1 2.400000000000 159.443485552804 13.155542986617 7.793051616665
10589 2 -1.200000000000 157.429462577400 14.388875141612 7.793051616665
10590 2 -1.200000000000 157.093792081500 16.855539451603 6.679758528570
10591 2 -1.200000000000 158.772144561003 13.566653704949 5.566465440475
10592 2 -1.200000000000 158.436474065102 16.033318014939 4.453172352380
10593 2 -1.200000000000 159.779156048705 15.211096578276 8.906344704760
10594 2 -1.200000000000 159.443485552804 17.677760888267 7.793051616665
10595 2 -1.200000000000 161.121838032307 14.388875141612 6.679758528570
10596 2 -1.200000000000 160.786167536407 16.855539451603 5.566465440475
10597 1 2.400000000000 155.079769106096 18.088871606598 6.679758528570
10598 1 2.400000000000 156.086780593798 19.733314479925 3.339879264285
10599 1 2.400000000000 157.093792081500 21.377757353253 6.679758528570
10600 1 2.400000000000 158.772144561003 18.088871606598 5.566465440475
10601 2 -1.200000000000 156.758121585599 19.322203761594 5.566465440475
10602 2 -1.200000000000 156.422451089698 21.788868071584 4.453172352380
10603 2 -1.200000000000 158.100803569202 18.499982324930 3.339879264285
10604 2 -1.200000000000 157.765133073301 20.966646634921 2.226586176190
10605 2 -1.200000000000 159.107815056904 20.144425198257 6.679758528570
10606 2 -1.200000000000 158.772144561003 22.611089508248 5.566465440475
10607 2 -1.200000000000 160.450497040506 19.322203761594 4.453172352380
10608 2 -1.200000000000 160.114826544605 21.788868071584 3.339879264285
10609 1 2.400000000000 154.408428114295 23.022200226580 4.453172352380
10610 1 2.400000000000 155.415439601996 24.666643099907 1.113293088095
10611 1 2.400000000000 156.422451089698 26.311085973234 4.453172352380
10612 1 2.400000000000 158.100803569202 23.022200226580 3.339879264285
10613 2 -1.200000000000 156.086780593798 24.255532381575 3.339879264285
10614 2 -1.200000000000 155.751110097897 26.722196691566 2.226586176190
10615 2 -1.200000000000 157.429462577400 23.433310944911 1.113293088095
10616 2 -1.200000000000 157.093792081500 25.899975254902 0.000000000000
10617 2 -1.200000000000 158.436474065102 25.077753818239 4.453172352380
10618 2 -1.200000000000 158.100803569202 27.544418128229 3.339879264285
10619 2 -1.200000000000 159.779156048705 24.255532381575 2.226586176190
10620 2 -1.200000000000 159.443485552804 26.722196691566 1.113293088095
10621 1 2.400000000000 153.737087122493 27.955528846561 2.226586176190
10622 1 2.400000000000 154.744098610195 29.599971719888 25.605741026184
10623 1 2.400000000000 155.751110097897 31.244414593215 2.226586176190
10624 1 2.400000000000 157.429462577400 27.955528846561 1.113293088095
10625 2 -1.200000000000 155.415439601996 29.188861001556 1.113293088095
10626 2 -1.200000000000 155.079769106096 31.655525311547 0.000000000000
10627 2 -1.200000000000 156.758121585599 28.366639564893 25.605741026184
10628 2 -1.200000000000 156.422451089698 30.833303874884 24.492447938089
10629 2 -1.200000000000 157.765133073301 30.011082438220 2.226586176190
10630 2 -1.200000000000 157.429462577400 32.477746748211 1.113293088095
10631 2 -1.200000000000 159.107815056904 29.188861001556 0.000000000000
10632 2 -1.200000000000 158.772144561003 31.655525311547 25.605741026184
10633 1 2.400000000000 153.065746130692 32.888857466542 0.000000000000
10634 1 2.400000000000 154.072757618394 34.533300339870 23.379154849994
10635 1 2.400000000000 155.079769106096 0.000000000000 0.000000000000
10636 1 2.400000000000 156.758121585599 32.888857466542 25.605741026184
10637 2 -1.200000000000 154.744098610195 34.122189621538 25.605741026184
10638 2 -1.200000000000 154.408428114295 0.411110718332 24.492447938089
10639 2 -1.200000000000 156.086780593798 33.299968184874 23.379154849994
10640 2 -1.200000000000 155.751110097897 35.766632494865 22.265861761899
10641 2 -1.200000000000 157.093792081500 34.944411058201 0.000000000000
10642 2 -1.200000000000 156.758121585599 1.233332154995 25.605741026184
10643 2 -1.200000000000 158.436474065102 34.122189621538 24.492447938089
10644 2 -1.200000000000 158.100803569202 0.411110718332 23.379154849994
10645 1 2.400000000000 159.779156048705 1.644442873327 8.906344704760
10646 1 2.400000000000 160.786167536407 3.288885746654 5.566465440475
10647 1 2.400000000000 161.793179024109 4.933328619981 8.906344704760
10648 1 2.400000000000 163.471531503612 1.644442873327 7.793051616665
10649 2 -1.200000000000 161.457508528208 2.877775028322 7.793051616665
10650 2 -1.200000000000 161.121838032307 5.344439338313 6.679758528570
10651 2 -1.200000000000 162.800190511811 2.055553591659 5.566465440475
10652 2 -1.200000000000 162.464520015910 4.522217901650 4.453172352380
10653 2 -1.200000000000 163.807201999512 3.699996464986 8.906344704760
10654 2 -1.200000000000 163.471531503612 6.166660774977 7.793051616665
10655 2 -1.200000000000 165.149883983115 2.877775028322 6.679758528570
10656 2 -1.200000000000 164.814213487214 5.344439338313 5.566465440475
10657 1 2.400000000000 159.107815056904 6.577771493308 6.679758528570
10658 1 2.400000000000 160.114826544605 8.222214366636 3.339879264285
10659 1 2.400000000000 161.121838032307 9.866657239963 6.679758528570
10660 1 2.400000000000 162.800190511811 6.577771493308 5.566465440475
10661 2 -1.200000000000 160.786167536407 7.811103648304 5.566465440475
10662 2 -1.200000000000 160.450497040506 10.277767958295 4.453172352380
10663 2 -1.200000000000 162.128849520009 6.988882211640 3.339879264285
10664 2 -1.200000000000 161.793179024109 9.455546521631 2.226586176190
10665 2 -1.200000000000 163.135861007711 8.633325084967 6.679758528570
10666 2 -1.200000000000 162.800190511811 11.099989394958 5.566465440475
10667 2 -1.200000000000 164.478542991314 7.811103648304 4.453172352380
10668 2 -1.200000000000 164.142872495413 10.277767958295 3.339879264285
10669 1 2.400000000000 158.436474065102 11.511100113290 4.453172352380
10670 1 2.400000000000 159.443485552804 13.155542986617 1.113293088095
10671 1 2.400000000000 160.450497040506 14.799985859944 4.453172352380
10672 1 2.400000000000 162.128849520009 11.511100113290 3.339879264285
10673 2 -1.200000000000 160.114826544605 12.744432268285 3.339879264285
10674 2 -1.200000000000 159.779156048705 15.211096578276 2.226586176190
10675 2 -1.200000000000 161.457508528208 11.922210831622 1.113293088095
10676 2 -1.200000000000 161.121838032307 14.388875141612 0.000000000000
10677 2 -1.200000000000 162.464520015910 13.566653704949 4.453172352380
10678 2 -1.200000000000 162.128849520009 16.033318014939 3.339879264285
10679 2 -1.200000000000 163.807201999512 12.744432268285 2.226586176190
10680 2 -1.200000000000 163.471531503612 15.211096578276 1.113293088095
10681 1 2.400000000000 157.765133073301 16.444428733271 2.226586176190
10682 1 2.400000000000 158.772144561003 18.088871606598 25.605741026184
10683 1 2.400000000000 159.779156048705 19.733314479925 2.226586176190
10684 1 2.400000000000 161.457508528208 16.444428733271 1.113293088095
10685 2 -1.200000000000 159.443485552804 17.677760888267 1.113293088095
10686 2 -1.200000000000 159.107815056904 20.144425198257 0.000000000000
10687 2 -1.200000000000 160.786167536407 16.855539451603 25.605741026184
10688 2 -1.200000000000 160.450497040506 19.322203761594 24.492447938089
10689 2 -1.200000000000 161.793179024109 18.499982324930 2.226586176190
10690 2 -1.200000000000 161.457508528208 20.966646634921 1.113293088095
10691 2 -1.200000000000 163.135861007711 17.677760888267 0.000000000000
10692 2 -1.200000000000 162.800190511811 20.144425198257 25.605741026184
10693 1 2.400000000000 157.093792081500 21.377757353253 0.000000000000
10694 1 2.400000000000 158.100803569202 23.022200226580 23.379154849994
10695 1 2.400000000000 159.107815056904 24.666643099907 0.000000000000
10696 1 2.400000000000 160.786167536407 21.377757353253 25.605741026184
10697 2 -1.200000000000 158.772144561003 22.611089508248 25.605741026184
10698 2 -1.200000000000 158.436474065102 25.077753818239 24.492447938089
10699 2 -1.200000000000 160.114826544605 21.788868071584 23.379154849994
10700 2 -1.200000000000 159.779156048705 24.255532381575 22.265861761899
10701 2 -1.200000000000 161.121838032307 23.433310944912 0.000000000000
10702 2 -1.200000000000 160.786167536407 25.899975254902 25.605741026184
10703 2 -1.200000000000 162.464520015910 22.611089508248 24.492447938089
10704 2 -1.200000000000 162.128849520009 25.077753818239 23.379154849994
10705 1 2.400000000000 162.464520015910 0.000000000000 4.453172352380
10706 1 2.400000000000 163.471531503612 1.644442873327 1.113293088095
10707 1 2.400000000000 164.478542991314 3.288885746654 4.453172352380
10708 1 2.400000000000 166.156895470817 0.000000000000 3.339879264285
10709 2 -1.200000000000 164.142872495413 1.233332154995 3.339879264285
10710 2 -1.200000000000 163.807201999512 3.699996464986 2.226586176190
10711 2 -1.200000000000 165.485554479016 0.411110718332 1.113293088095
10712 2 -1.200000000000 165.149883983115 2.877775028322 0.000000000000
10713 2 -1.200000000000 166.492565966718 2.055553591659 4.453172352380
10714 2 -1.200000000000 166.156895470817 4.522217901650 3.339879264285
10715 2 -1.200000000000 167.835247950320 1.233332154995 2.226586176190
10716 2 -1.200000000000 167.499577454420 3.699996464986 1.113293088095
10717 1 2.400000000000 161.793179024109 4.933328619981 2.226586176190
10718 1 2.400000000000 162.800190511811 6.577771493308 25.605741026184
10719 1 2.400000000000 163.807201999512 8.222214366636 2.226586176190
10720 1 2.400000000000 165.485554479016 4.933328619981 1.113293088095
10721 2 -1.200000000000 163.471531503612 6.166660774977 1.113293088095
10722 2 -1.200000000000 163.135861007711 8.633325084967 0.000000000000
10723 2 -1.200000000000 164.814213487214 5.344439338313 25.605741026184
10724 2 -1.200000000000 164.478542991314 7.811103648304 24.492447938089
10725 2 -1.200000000000 165.821224974916 6.988882211640 2.226586176190
10726 2 -1.200000000000 165.485554479016 9.455546521631 1.113293088095
10727 2 -1.200000000000 167.163906958519 6.166660774977 0.000000000000
10728 2 -1.200000000000 166.828236462618 8.633325084967 25.605741026184
10729 1 2.400000000000 161.121838032307 9.866657239963 0.000000000000
10730 1 2.400000000000 162.128849520009 11.511100113290 23.379154849994
10731 1 2.400000000000 163.135861007711 13.155542986617 0.000000000000
10732 1 2.400000000000 164.814213487214 9.866657239963 25.605741026184
10733 2 -1.200000000000 162.800190511811 11.099989394958 25.605741026184
10734 2 -1.200000000000 162.464520015910 13.566653704949 24.492447938089
10735 2 -1.200000000000 164.142872495413 10.277767958295 23.379154849994
10736 2 -1.200000000000 163.807201999512 12.744432268285 22.265861761899
10737 2 -1.200000000000 165.149883983115 11.922210831622 0.000000000000
10738 2 -1.200000000000 164.814213487214 14.388875141612 25.605741026184
10739 2 -1.200000000000 166.492565966718 11.099989394958 24.492447938089
10740 2 -1.200000000000 166.156895470817 13.566653704949 23.379154849994
10741 1 2.400000000000 148.366359188083 31.244414593215 24.492447938089
10742 1 2.400000000000 149.373370675785 32.888857466542 21.152568673804
10743 1 2.400000000000 150.380382163487 34.533300339870 24.492447938089
10744 1 2.400000000000 152.058734642990 31.244414593215 23.379154849994
10745 2 -1.200000000000 150.044711667586 32.477746748211 23.379154849994
10746 2 -1.200000000000 149.709041171686 34.944411058201 22.265861761899
10747 2 -1.200000000000 151.387393651189 31.655525311547 21.152568673804
10748 2 -1.200000000000 151.051723155288 34.122189621538 20.039275585709
10749 2 -1.200000000000 152.394405138891 33.299968184874 24.492447938089
10750 2 -1.200000000000 152.058734642990 35.766632494865 23.379154849994
10751 2 -1.200000000000 153.737087122493 32.477746748211 22.265861761899
10752 2 -1.200000000000 153.401416626593 34.944411058201 21.152568673804
10753 1 2.400000000000 152.394405138891 19.733314479925 24.492447938089
10754 1 2.400000000000 153.401416626593 21.377757353253 21.152568673804
10755 1 2.400000000000 154.408428114295 23.022200226580 24.492447938089
10756 1 2.400000000000 156.086780593798 19.733314479925 23.379154849994
10757 2 -1.200000000000 154.072757618394 20.966646634921 23.379154849994
10758 2 -1.200000000000 153.737087122493 23.433310944912 22.265861761899
10759 2 -1.200000000000 155.415439601996 20.144425198257 21.152568673804
10760 2 -1.200000000000 155.079769106096 22.611089508248 20.039275585709
10761 2 -1.200000000000 156.422451089698 21.788868071584 24.492447938089
10762 2 -1.200000000000 156.086780593798 24.255532381575 23.379154849994
10763 2 -1.200000000000 157.765133073301 20.966646634921 22.265861761899
10764 2 -1.200000000000 157.429462577400 23.433310944912 21.152568673804
10765 1 2.400000000000 151.723064147089 24.666643099907 22.265861761899
10766 1 2.400000000000 152.730075634791 26.311085973234 18.925982497614
10767 1 2.400000000000 153.737087122493 27.955528846561 22.265861761899
10768 1 2.400000000000 155.415439601996 24.666643099907 21.152568673804
10769 2 -1.200000000000 153.401416626593 25.899975254902 21.152568673804
10770 2 -1.200000000000 153.065746130692 28.366639564893 20.039275585709
10771 2 -1.200000000000 154.744098610195 25.077753818239 18.925982497614
10772 2 -1.200000000000 154.408428114295 27.544418128229 17.812689409519
10773 2 -1.200000000000 155.751110097897 26.722196691566 22.265861761899
10774 2 -1.200000000000 155.415439601996 29.188861001556 21.152568673804
10775 2 -1.200000000000 157.093792081500 25.899975254902 20.039275585709
10776 2 -1.200000000000 156.758121585599 28.366639564893 18.925982497614
10777 1 2.400000000000 151.051723155288 29.599971719888 20.039275585709
10778 1 2.400000000000 152.058734642990 31.244414593215 16.699396321424
10779 1 2.400000000000 153.065746130692 32.888857466542 20.039275585709
10780 1 2.400000000000 154.744098610195 29.599971719888 18.925982497614
10781 2 -1.200000000000 152.730075634791 30.833303874884 18.925982497614
10782 2 -1.200000000000 152.394405138891 33.299968184874 17.812689409519
10783 2 -1.200000000000 154.072757618394 30.011082438220 16.699396321424
10784 2 -1.200000000000 153.737087122493 32.477746748211 15.586103233329
10785 2 -1.200000000000 155.079769106096 31.655525311547 20.039275585709
10786 2 -1.200000000000 154.744098610195 34.122189621538 18.925982497614
10787 2 -1.200000000000 156.422451089698 30.833303874884 17.812689409519
10788 2 -1.200000000000 156.086780593798 33.299968184874 16.699396321424
10789 1 2.400000000000 150.380382163487 34.533300339870 17.812689409519
10790 1 2.400000000000 151.387393651189 0.000000000000 14.472810145234
10791 1 2.400000000000 152.394405138891 1.644442873327 17.812689409519
10792 1 2.400000000000 154.072757618394 34.533300339870 16.699396321424
10793 2 -1.200000000000 152.058734642990 35.766632494865 16.699396321424
10794 2 -1.200000000000 151.723064147089 2.055553591659 15.586103233329
10795 2 -1.200000000000 153.401416626593 34.944411058201 14.472810145234
10796 2 -1.200000000000 153.065746130692 1.233332154995 13.359517057139
10797 2 -1.200000000000 154.408428114295 0.411110718332 17.812689409519
10798 2 -1.200000000000 154.072757618394 2.877775028322 16.699396321424
10799 2 -1.200000000000 155.751110097897 35.766632494865 15.586103233329
10800 2 -1.200000000000 155.415439601996 2.055553591659 14.472810145234
10801 1 2.400000000000 156.422451089698 8.222214366636 24.492447938089
10802 1 2.400000000000 157.429462577400 9.866657239963 21.152568673804
10803 1 2.400000000000 158.436474065102 11.511100113290 24.492447938089
10804 1 2.400000000000 160.114826544605 8.222214366636 23.379154849994
10805 2 -1.200000000000 158.100803569202 9.455546521631 23.379154849994
10806 2 -1.200000000000 157.765133073301 11.922210831622 22.265861761899
10807 2 -1.200000000000 159.443485552804 8.633325084967 21.152568673804
10808 2 -1.200000000000 159.107815056904 11.099989394958 20.039275585709
10809 2 -1.200000000000 160.450497040506 10.277767958295 24.492447938089
10810 2 -1.200000000000 160.114826544605 12.744432268285 23.379154849994
10811 2 -1.200000000000 161.793179024109 9.455546521631 22.265861761899
10812 2 -1.200000000000 161.457508528208 11.922210831622 21.152568673804
10813 1 2.400000000000 155.751110097897 13.155542986617 22.265861761899
10814 1 2.400000000000 156.758121585599 14.799985859944 18.925982497614
10815 1 2.400000000000 157.765133073301 16.444428733271 22.265861761899
10816 1 2.400000000000 159.443485552804 13.155542986617 21.152568673804
10817 2 -1.200000000000 157.429462577400 14.388875141612 21.152568673804
10818 2 -1.200000000000 157.093792081500 16.855539451603 20.039275585709
10819 2 -1.200000000000 158.772144561003 13.566653704949 18.925982497614
10820 2 -1.200000000000 158.436474065102 16.033318014939 17.812689409519
10821 2 -1.200000000000 159.779156048705 15.211096578276 22.265861761899
10822 2 -1.200000000000 159.443485552804 17.677760888267 21.152568673804
10823 2 -1.200000000000 161.121838032307 14.388875141612 20.039275585709
10824 2 -1.200000000000 160.786167536407 16.855539451603 18.925982497614
10825 1 2.400000000000 155.079769106096 18.088871606598 20.039275585709
10826 1 2.400000000000 156.086780593798 19.733314479925 16.699396321424
10827 1 2.400000000000 157.093792081500 21.377757353253 20.039275585709
10828 1 2.400000000000 158.772144561003 18.088871606598 18.925982497614
10829 2 -1.200000000000 156.758121585599 19.322203761594 18.925982497614
10830 2 -1.200000000000 156.422451089698 21.788868071584 17.812689409519
10831 2 -1.200000000000 158.100803569202 18.499982324930 16.699396321424
10832 2 -1.200000000000 157.765133073301 20.966646634921 15.586103233329
10833 2 -1.200000000000 159.107815056904 20.144425198257 20.039275585709
10834 2 -1.200000000000 158.772144561003 22.611089508248 18.925982497614
10835 2 -1.200000000000 160.450497040506 19.322203761594 17.812689409519
10836 2 -1.200000000000 160.114826544605 21.788868071584 16.699396321424
10837 1 2.400000000000 154.408428114295 23.022200226580 17.812689409519
10838 1 2.400000000000 155.415439601996 24.666643099907 14.472810145234
10839 1 2.400000000000 156.422451089698 26.311085973234 17.812689409519
10840 1 2.400000000000 158.100803569202 23.022200226580 16.699396321424
10841 2 -1.200000000000 156.086780593798 24.255532381575 16.699396321424
10842 2 -1.200000000000 155.751110097897 26.722196691566 15.586103233329
10843 2 -1.200000000000 157.429462577400 23.433310944912 14.472810145234
10844 2 -1.200000000000 157.093792081500 25.899975254902 13.359517057139
10845 2 -1.200000000000 158.436474065102 25.077753818239 17.812689409519
10846 2 -1.200000000000 158.100803569202 27.544418128229 16.699396321424
10847 2 -1.200000000000 159.779156048705 24.255532381575 15.586103233329
10848 2 -1.200000000000 159.443485552804 26.722196691566 14.472810145234
10849 1 2.400000000000 153.737087122493 27.955528846561 15.586103233329
10850 1 2.400000000000 154.744098610195 29.599971719888 12.246223969045
10851 1 2.400000000000 155.751110097897 31.244414593215 15.586103233329
10852 1 2.400000000000 157.429462577400 27.955528846561 14.472810145234
10853 2 -1.200000000000 155.415439601996 29.188861001556 14.472810145234
10854 2 -1.200000000000 155.079769106096 31.655525311547 13.359517057139
10855 2 -1.200000000000 156.758121585599 28.366639564893 12.246223969045
10856 2 -1.200000000000 156.422451089698 30.833303874884 11.132930880950
10857 2 -1.200000000000 157.765133073301 30.011082438220 15.586103233329
10858 2 -1.200000000000 157.429462577400 32.477746748211 14.472810145234
10859 2 -1.200000000000 159.107815056904 29.188861001556 13.359517057139
10860 2 -1.200000000000 158.772144561003 31.655525311547 12.246223969045
10861 1 2.400000000000 153.065746130692 32.888857466542 13.359517057139
10862 1 2.400000000000 154.072757618394 34.533300339870 10.019637792855
10863 1 2.400000000000 155.079769106096 0.000000000000 13.359517057139
10864 1 2.400000000000 156.758121585599 32.888857466542 12.246223969045
10865 2 -1.200000000000 154.744098610195 34.122189621538 12.246223969045
10866 2 -1.200000000000 154.408428114295 0.411110718332 11.132930880950
10867 2 -1.200000000000 156.086780593798 33.299968184874 10.019637792855
10868 2 -1.200000000000 155.751110097897 35.766632494865 8.906344704760
10869 2 -1.200000000000 157.093792081500 34.944411058201 13.359517057139
10870 2 -1.200000000000 156.758121585599 1.233332154995 12.246223969045
10871 2 -1.200000000000 158.436474065102 34.122189621538 11.132930880950
10872 2 -1.200000000000 158.100803569202 0.411110718332 10.019637792855
10873 1 2.400000000000 159.779156048705 1.644442873327 22.265861761899
10874 1 2.400000000000 160.786167536407 3.288885746654 18.925982497614
10875 1 2.400000000000 161.793179024109 4.933328619981 22.265861761899
10876 1 2.400000000000 163.471531503612 1.644442873327 21.152568673804
10877 2 -1.200000000000 161.457508528208 2.877775028322 21.152568673804
10878 2 -1.200000000000 161.121838032307 5.344439338313 20.039275585709
10879 2 -1.200000000000 162.800190511811 2.055553591659 18.925982497614
10880 2 -1.200000000000 162.464520015910 4.522217901650 17.812689409519
10881 2 -1.200000000000 163.807201999513 3.699996464986 22.265861761899
10882 2 -1.200000000000 163.471531503612 6.166660774977 21.152568673804
10883 2 -1.200000000000 165.149883983115 2.877775028322 20.039275585709
10884 2 -1.200000000000 164.814213487214 5.344439338313 18.925982497614
10885 1 2.400000000000 159.107815056904 6.577771493308 20.039275585709
10886 1 2.400000000000 160.114826544605 8.222214366636 16.699396321424
10887 1 2.400000000000 161.121838032307 9.866657239963 20.039275585709
10888 1 2.400000000000 162.800190511811 6.577771493308 18.925982497614
10889 2 -1.200000000000 160.786167536407 7.811103648304 18.925982497614
10890 2 -1.200000000000 160.450497040506 10.277767958295 17.812689409519
10891 2 -1.200000000000 162.128849520009 6.988882211640 16.699396321424
10892 2 -1.200000000000 161.793179024109 9.455546521631 15.586103233329
10893 2 -1.200000000000 163.135861007711 8.633325084967 20.039275585709
10894 2 -1.200000000000 162.800190511811 11.099989394958 18.925982497614
10895 2 -1.200000000000 164.478542991314 7.811103648304 17.812689409519
10896 2 -1.200000000000 164.142872495413 10.277767958295 16.699396321424
10897 1 2.400000000000 158.436474065102 11.511100113290 17.812689409519
10898 1 2.400000000000 159.443485552804 13.155542986617 14.472810145234
10899 1 2.400000000000 160.450497040506 14.799985859944 17.812689409519
10900 1 2.400000000000 162.128849520009 11.511100113290 16.699396321424
10901 2 -1.200000000000 160.114826544605 12.744432268285 16.699396321424
10902 2 -1.200000000000 159.779156048705 15.211096578276 15.586103233329
10903 2 -1.200000000000 161.457508528208 11.922210831622 14.472810145234
10904 2 -1.200000000000 161.121838032307 14.388875141612 13.359517057139
10905 2 -1.200000000000 162.464520015910 13.566653704949 17.812689409519
10906 2 -1.200000000000 162.128849520009 16.033318014939 16.699396321424
10907 2 -1.200000000000 163.807201999513 12.744432268285 15.586103233329
10908 2 -1.200000000000 163.471531503612 15.211096578276 14.472810145234
10909 1 2.400000000000 157.765133073301 16.444428733271 15.586103233329
10910 1 2.400000000000 158.772144561003 18.088871606598 12.246223969045
10911 1 2.400000000000 159.779156048705 19.733314479925 15.586103233329
10912 1 2.400000000000 161.457508528208 16.444428733271 14.472810145234
10913 2 -1.200000000000 159.443485552804 17.677760888267 14.472810145234
10914 2 -1.200000000000 159.107815056904 20.144425198257 13.359517057139
10915 2 -1.200000000000 160.786167536407 16.855539451603 12.246223969045
10916 2 -1.200000000000 160.450497040506 19.322203761594 11.132930880950
10917 2 -1.200000000000 161.793179024109 18.499982324930 15.586103233329
10918 2 -1.200000000000 161.457508528208 20.966646634921 14.472810145234
10919 2 -1.200000000000 163.135861007711 17.677760888267 13.359517057139
10920 2 -1.200000000000 162.800190511811 20.144425198257 12.246223969045
10921 1 2.400000000000 157.093792081500 21.377757353253 13.359517057139
10922 1 2.400000000000 158.100803569202 23.022200226580 10.019637792855
10923 1 2.400000000000 159.107815056904 24.666643099907 13.359517057139
10924 1 2.400000000000 160.786167536407 21.377757353253 12.246223969045
10925 2 -1.200000000000 158.772144561003 22.611089508248 12.246223969045
10926 2 -1.200000000000 158.436474065102 25.077753818239 11.132930880950
10927 2 -1.200000000000 160.114826544605 21.788868071584 10.019637792855
10928 2 -1.200000000000 159.779156048705 24.255532381575 8.906344704760
10929 2 -1.200000000000 161.121838032307 23.433310944912 13.359517057139
10930 2 -1.200000000000 160.786167536407 25.899975254902 12.246223969045
10931 2 -1.200000000000 162.464520015910 22.611089508248 11.132930880950
10932 2 -1.200000000000 162.128849520009 25.077753818239 10.019637792855
10933 1 2.400000000000 156.422451089698 26.311085973234 11.132930880950
10934 1 2.400000000000 157.429462577400 27.955528846561 7.793051616665
10935 1 2.400000000000 158.436474065102 29.599971719888 11.132930880950
10936 1 2.400000000000 160.114826544605 26.311085973234 10.019637792855
10937 2 -1.200000000000 158.100803569202 27.544418128229 10.019637792855
10938 2 -1.200000000000 157.765133073301 30.011082438220 8.906344704760
10939 2 -1.200000000000 159.443485552804 26.722196691566 7.793051616665
10940 2 -1.200000000000 159.107815056904 29.188861001556 6.679758528570
10941 2 -1.200000000000 160.450497040506 28.366639564893 11.132930880950
10942 2 -1.200000000000 160.114826544605 30.833303874884 10.019637792855
10943 2 -1.200000000000 161.793179024109 27.544418128229 8.906344704760
10944 2 -1.200000000000 161.457508528208 30.011082438220 7.793051616665
10945 1 2.400000000000 155.751110097897 31.244414593215 8.906344704760
10946 1 2.400000000000 156.758121585599 32.888857466542 5.566465440475
10947 1 2.400000000000 157.765133073301 34.533300339870 8.906344704760
10948 1 2.400000000000 159.443485552804 31.244414593215 7.793051616665
10949 2 -1.200000000000 157.429462577400 32.477746748211 7.793051616665
10950 2 -1.200000000000 157.093792081500 34.944411058201 6.679758528570
10951 2 -1.200000000000 158.772144561003 31.655525311547 5.566465440475
10952 2 -1.200000000000 158.436474065102 34.122189621538 4.453172352380
10953 2 -1.200000000000 159.779156048705 33.299968184874 8.906344704760
10954 2 -1.200000000000 159.443485552804 35.766632494865 7.793051616665
10955 2 -1.200000000000 161.121838032307 32.477746748211 6.679758528570
10956 2 -1.200000000000 160.786167536407 34.944411058201 5.566465440475
10957 1 2.400000000000 162.464520015910 0.000000000000 17.812689409519
10958 1 2.400000000000 163.471531503612 1.644442873327 14.472810145234
10959 1 2.400000000000 164.478542991314 3.288885746654 17.812689409519
10960 1 2.400000000000 166.156895470817 0.000000000000 16.699396321424
10961 2 -1.200000000000 164.142872495413 1.233332154995 16.699396321424
10962 2 -1.200000000000 163.807201999512 3.699996464986 15.586103233329
10963 2 -1.200000000000 165.485554479016 0.411110718332 14.472810145234
10964 2 -1.200000000000 165.149883983115 2.877775028322 13.359517057139
10965 2 -1.200000000000 166.492565966718 2.055553591659 17.812689409519
10966 2 -1.200000000000 166.156895470817 4.522217901650 16.699396321424
10967 2 -1.200000000000 167.835247950320 1.233332154995 15.586103233329
10968 2 -1.200000000000 167.499577454420 3.699996464986 14.472810145234
10969 1 2.400000000000 161.793179024109 4.933328619981 15.586103233329
10970 1 2.400000000000 162.800190511811 6.577771493308 12.246223969045
10971 1 2.400000000000 163.807201999512 8.222214366636 15.586103233329
10972 1 2.400000000000 165.485554479016 4.933328619981 14.472810145234
10973 2 -1.200000000000 163.471531503612 6.166660774977 14.472810145234
10974 2 -1.200000000000 163.135861007711 8.633325084967 13.359517057139
10975 2 -1.200000000000 164.814213487214 5.344439338313 12.246223969045
10976 2 -1.200000000000 164.478542991314 7.811103648304 11.132930880950
10977 2 -1.200000000000 165.821224974916 6.988882211640 15.586103233329
10978 2 -1.200000000000 165.485554479016 9.455546521631 14.472810145234
10979 2 -1.200000000000 167.163906958519 6.166660774977 13.359517057139
10980 2 -1.200000000000 166.828236462618 8.633325084967 12.246223969045
10981 1 2.400000000000 161.121838032307 9.866657239963 13.359517057139
10982 1 2.400000000000 162.128849520009 11.511100113290 10.019637792855
10983 1 2.400000000000 163.135861007711 13.155542986617 13.359517057139
10984 1 2.400000000000 164.814213487214 9.866657239963 12.246223969045
10985 2 -1.200000000000 162.800190511811 11.099989394958 12.246223969045
10986 2 -1.200000000000 162.464520015910 13.566653704949 11.132930880950
10987 2 -1.200000000000 164.142872495413 10.277767958295 10.019637792855
10988 2 -1.200000000000 163.807201999512 12.744432268285 8.906344704760
10989 2 -1.200000000000 165.149883983115 11.922210831622 13.359517057139
10990 2 -1.200000000000 164.814213487214 14.388875141612 12.246223969045
10991 2 -1.200000000000 166.492565966718 11.099989394958 11.132930880950
10992 2 -1.200000000000 166.156895470817 13.566653704949 10.019637792855
10993 1 2.400000000000 160.450497040506 14.799985859944 11.132930880950
10994 1 2.400000000000 161.457508528208 16.444428733271 7.793051616665
10995 1 2.400000000000 162.464520015910 18.088871606598 11.132930880950
10996 1 2.400000000000 164.142872495413 14.799985859944 10.019637792855
10997 2 -1.200000000000 162.128849520009 16.033318014939 10.019637792855
10998 2 -1.200000000000 161.793179024109 18.499982324930 8.906344704760
10999 2 -1.200000000000 163.471531503612 15.211096578276 7.793051616665
11000 2 -1.200000000000 163.135861007711 17.677760888267 6.679758528570
11001 2 -1.200000000000 164.478542991314 16.855539451603 11.132930880950
11002 2 -1.200000000000 164.142872495413 19.322203761594 10.019637792855
11003 2 -1.200000000000 165.821224974916 16.033318014939 8.906344704760
11004 2 -1.200000000000 165.485554479016 18.499982324930 7.793051616665
11005 1 2.400000000000 159.779156048705 19.733314479925 8.906344704760
11006 1 2.400000000000 160.786167536407 21.377757353253 5.566465440475
11007 1 2.400000000000 161.793179024109 23.022200226580 8.906344704760
11008 1 2.400000000000 163.471531503612 19.733314479925 7.793051616665
11009 2 -1.200000000000 161.457508528208 20.966646634921 7.793051616665
11010 2 -1.200000000000 161.121838032307 23.433310944912 6.679758528570
11011 2 -1.200000000000 162.800190511811 20.144425198257 5.566465440475
11012 2 -1.200000000000 162.464520015910 22.611089508248 4.453172352380
11013 2 -1.200000000000 163.807201999513 21.788868071584 8.906344704760
11014 2 -1.200000000000 163.471531503612 24.255532381575 7.793051616665
11015 2 -1.200000000000 165.149883983115 20.966646634921 6.679758528570
11016 2 -1.200000000000 164.814213487214 23.433310944912 5.566465440475
11017 1 2.400000000000 159.107815056904 24.666643099907 6.679758528570
11018 1 2.400000000000 160.114826544605 26.311085973234 3.339879264285
11019 1 2.400000000000 161.121838032307 27.955528846561 6.679758528570
11020 1 2.400000000000 162.800190511811 24.666643099907 5.566465440475
11021 2 -1.200000000000 160.786167536407 25.899975254902 5.566465440475
11022 2 -1.200000000000 160.450497040506 28.366639564893 4.453172352380
11023 2 -1.200000000000 162.128849520009 25.077753818239 3.339879264285
11024 2 -1.200000000000 161.793179024109 27.544418128229 2.226586176190
11025 2 -1.200000000000 163.135861007711 26.722196691566 6.679758528570
11026 2 -1.200000000000 162.800190511811 29.188861001556 5.566465440475
11027 2 -1.200000000000 164.478542991314 25.899975254902 4.453172352380
11028 2 -1.200000000000 164.142872495413 28.366639564893 3.339879264285
11029 1 2.400000000000 158.436474065102 29.599971719888 4.453172352380
11030 1 2.400000000000 159.443485552804 31.244414593215 1.113293088095
11031 1 2.400000000000 160.450497040506 32.888857466542 4.453172352380
11032 1 2.400000000000 162.128849520009 29.599971719888 3.339879264285
11033 2 -1.200000000000 160.114826544605 30.833303874884 3.339879264285
11034 2 -1.200000000000 159.779156048705 33.299968184874 2.226586176190
11035 2 -1.200000000000 161.457508528208 30.011082438220 1.113293088095
11036 2 -1.200000000000 161.121838032307 32.477746748211 0.000000000000
11037 2 -1.200000000000 162.464520015910 31.655525311547 4.453172352380
11038 2 -1.200000000000 162.128849520009 34.122189621538 3.339879264285
11039 2 -1.200000000000 163.807201999513 30.833303874884 2.226586176190
11040 2 -1.200000000000 163.471531503612 33.299968184874 1.113293088095
11041 1 2.400000000000 157.765133073301 34.533300339870 2.226586176190
11042 1 2.400000000000 158.772144561003 0.000000000000 25.605741026184
11043 1 2.400000000000 159.779156048705 1.644442873327 2.226586176190
11044 1 2.400000000000 161.457508528208 34.533300339870 1.113293088095
11045 2 -1.200000000000 159.443485552804 35.766632494865 1.113293088095
11046 2 -1.200000000000 159.107815056904 2.055553591659 0.000000000000
11047 2 -1.200000000000 160.786167536407 34.944411058201 25.605741026184
11048 2 -1.200000000000 160.450497040506 1.233332154995 24.492447938089
11049 2 -1.200000000000 161.793179024109 0.411110718332 2.226586176190
11050 2 -1.200000000000 161.457508528208 2.877775028322 1.113293088095
11051 2 -1.200000000000 163.135861007711 35.766632494865 0.000000000000
11052 2 -1.200000000000 162.800190511811 2.055553591659 25.605741026184
11053 1 2.400000000000 164.478542991314 3.288885746654 11.132930880950
11054 1 2.400000000000 165.485554479016 4.933328619981 7.793051616665
11055 1 2.400000000000 166.492565966718 6.577771493308 11.132930880950
11056 1 2.400000000000 168.170918446221 3.288885746654 10.019637792855
11057 2 -1.200000000000 166.156895470817 4.522217901650 10.019637792855
11058 2 -1.200000000000 165.821224974916 6.988882211640 8.906344704760
11059 2 -1.200000000000 167.499577454420 3.699996464986 7.793051616665
11060 2 -1.200000000000 167.163906958519 6.166660774977 6.679758528570
11061 2 -1.200000000000 168.506588942121 5.344439338313 11.132930880950
11062 2 -1.200000000000 168.170918446221 7.811103648304 10.019637792855
11063 2 -1.200000000000 169.849270925724 4.522217901650 8.906344704760
11064 2 -1.200000000000 169.513600429823 6.988882211640 7.793051616665
11065 1 2.400000000000 163.807201999513 8.222214366636 8.906344704760
11066 1 2.400000000000 164.814213487214 9.866657239963 5.566465440475
11067 1 2.400000000000 165.821224974916 11.511100113290 8.906344704760
11068 1 2.400000000000 167.499577454420 8.222214366636 7.793051616665
11069 2 -1.200000000000 165.485554479016 9.455546521631 7.793051616665
11070 2 -1.200000000000 165.149883983115 11.922210831622 6.679758528570
11071 2 -1.200000000000 166.828236462618 8.633325084967 5.566465440475
11072 2 -1.200000000000 166.492565966718 11.099989394958 4.453172352380
11073 2 -1.200000000000 167.835247950320 10.277767958295 8.906344704760
11074 2 -1.200000000000 167.499577454420 12.744432268285 7.793051616665
11075 2 -1.200000000000 169.177929933923 9.455546521631 6.679758528570
11076 2 -1.200000000000 168.842259438022 11.922210831622 5.566465440475
11077 1 2.400000000000 163.135861007711 13.155542986617 6.679758528570
11078 1 2.400000000000 164.142872495413 14.799985859944 3.339879264285
11079 1 2.400000000000 165.149883983115 16.444428733271 6.679758528570
11080 1 2.400000000000 166.828236462618 13.155542986617 5.566465440475
11081 2 -1.200000000000 164.814213487214 14.388875141612 5.566465440475
11082 2 -1.200000000000 164.478542991314 16.855539451603 4.453172352380
11083 2 -1.200000000000 166.156895470817 13.566653704949 3.339879264285
11084 2 -1.200000000000 165.821224974916 16.033318014939 2.226586176190
11085 2 -1.200000000000 167.163906958519 15.211096578276 6.679758528570
11086 2 -1.200000000000 166.828236462618 17.677760888267 5.566465440475
11087 2 -1.200000000000 168.506588942121 14.388875141612 4.453172352380
11088 2 -1.200000000000 168.170918446221 16.855539451603 3.339879264285
11089 1 2.400000000000 162.464520015910 18.088871606598 4.453172352380
11090 1 2.400000000000 163.471531503612 19.733314479925 1.113293088095
11091 1 2.400000000000 164.478542991314 21.377757353253 4.453172352380
11092 1 2.400000000000 166.156895470817 18.088871606598 3.339879264285
11093 2 -1.200000000000 164.142872495413 19.322203761594 3.339879264285
11094 2 -1.200000000000 163.807201999512 21.788868071584 2.226586176190
11095 2 -1.200000000000 165.485554479016 18.499982324930 1.113293088095
11096 2 -1.200000000000 165.149883983115 20.966646634921 0.000000000000
11097 2 -1.200000000000 166.492565966718 20.144425198257 4.453172352380
11098 2 -1.200000000000 166.156895470817 22.611089508248 3.339879264285
11099 2 -1.200000000000 167.835247950320 19.322203761594 2.226586176190
11100 2 -1.200000000000 167.499577454420 21.788868071584 1.113293088095
11101 1 2.400000000000 161.793179024109 23.022200226580 2.226586176190
11102 1 2.400000000000 162.800190511811 24.666643099907 25.605741026184
11103 1 2.400000000000 163.807201999512 26.311085973234 2.226586176190
11104 1 2.400000000000 165.485554479016 23.022200226580 1.113293088095
11105 2 -1.200000000000 163.471531503612 24.255532381575 1.113293088095
11106 2 -1.200000000000 163.135861007711 26.722196691566 0.000000000000
11107 2 -1.200000000000 164.814213487214 23.433310944912 25.605741026184
11108 2 -1.200000000000 164.478542991314 25.899975254902 24.492447938089
11109 2 -1.200000000000 165.821224974916 25.077753818239 2.226586176190
11110 2 -1.200000000000 165.485554479016 27.544418128229 1.113293088095
11111 2 -1.200000000000 167.163906958519 24.255532381575 0.000000000000
11112 2 -1.200000000000 166.828236462618 26.722196691566 25.605741026184
11113 1 2.400000000000 161.121838032307 27.955528846561 0.000000000000
11114 1 2.400000000000 162.128849520009 29.599971719888 23.379154849994
11115 1 2.400000000000 163.135861007711 31.244414593215 0.000000000000
11116 1 2.400000000000 164.814213487214 27.955528846561 25.605741026184
11117 2 -1.200000000000 162.800190511811 29.188861001556 25.605741026184
11118 2 -1.200000000000 162.464520015910 31.655525311547 24.492447938089
11119 2 -1.200000000000 164.142872495413 28.366639564893 23.379154849994
11120 2 -1.200000000000 163.807201999512 30.833303874884 22.265861761899
11121 2 -1.200000000000 165.149883983115 30.011082438220 0.000000000000
11122 2 -1.200000000000 164.814213487214 32.477746748211 25.605741026184
11123 2 -1.200000000000 166.492565966718 29.188861001556 24.492447938089
11124 2 -1.200000000000 166.156895470817 31.655525311547 23.379154849994
11125 1 2.400000000000 167.163906958519 1.644442873327 6.679758528570
11126 1 2.400000000000 168.170918446221 3.288885746654 3.339879264285
11127 1 2.400000000000 169.177929933923 4.933328619981 6.679758528570
11128 1 2.400000000000 170.856282413426 1.644442873327 5.566465440475
11129 2 -1.200000000000 168.842259438022 2.877775028322 5.566465440475
11130 2 -1.200000000000 168.506588942121 5.344439338313 4.453172352380
11131 2 -1.200000000000 170.184941421625 2.055553591659 3.339879264285
11132 2 -1.200000000000 169.849270925724 4.522217901650 2.226586176190
11133 2 -1.200000000000 171.191952909327 3.699996464986 6.679758528570
11134 2 -1.200000000000 170.856282413426 6.166660774977 5.566465440475
11135 2 -1.200000000000 172.534634892929 2.877775028322 4.453172352380
11136 2 -1.200000000000 172.198964397029 5.344439338313 3.339879264285
11137 1 2.400000000000 166.492565966718 6.577771493308 4.453172352380
11138 1 2.400000000000 167.499577454420 8.222214366636 1.113293088095
11139 1 2.400000000000 168.506588942121 9.866657239963 4.453172352380
11140 1 2.400000000000 170.184941421625 6.577771493308 3.339879264285
11141 2 -1.200000000000 168.170918446221 7.811103648304 3.339879264285
11142 2 -1.200000000000 167.835247950320 10.277767958295 2.226586176190
11143 2 -1.200000000000 169.513600429823 6.988882211640 1.113293088095
11144 2 -1.200000000000 169.177929933923 9.455546521631 0.000000000000
11145 2 -1.200000000000 170.520611917525 8.633325084967 4.453172352380
11146 2 -1.200000000000 170.184941421625 11.099989394958 3.339879264285
11147 2 -1.200000000000 171.863293901128 7.811103648304 2.226586176190
11148 2 -1.200000000000 171.527623405227 10.277767958295 1.113293088095
11149 1 2.400000000000 165.821224974916 11.511100113290 2.226586176190
11150 1 2.400000000000 166.828236462618 13.155542986617 25.605741026184
11151 1 2.400000000000 167.835247950320 14.799985859944 2.226586176190
11152 1 2.400000000000 169.513600429823 11.511100113290 1.113293088095
11153 2 -1.200000000000 167.499577454420 12.744432268285 1.113293088095
11154 2 -1.200000000000 167.163906958519 15.211096578276 0.000000000000
11155 2 -1.200000000000 168.842259438022 11.922210831622 25.605741026184
11156 2 -1.200000000000 168.506588942121 14.388875141612 24.492447938089
11157 2 -1.200000000000 169.849270925724 13.566653704949 2.226586176190
11158 2 -1.200000000000 169.513600429823 16.033318014939 1.113293088095
11159 2 -1.200000000000 171.191952909327 12.744432268285 0.000000000000
11160 2 -1.200000000000 170.856282413426 15.211096578276 25.605741026184
11161 1 2.400000000000 165.149883983115 16.444428733271 0.000000000000
11162 1 2.400000000000 166.156895470817 18.088871606598 23.379154849994
11163 1 2.400000000000 167.163906958519 19.733314479925 0.000000000000
11164 1 2.400000000000 168.842259438022 16.444428733271 25.605741026184
11165 2 -1.200000000000 166.828236462618 17.677760888267 25.605741026184
11166 2 -1.200000000000 166.492565966718 20.144425198257 24.492447938089
11167 2 -1.200000000000 168.170918446221 16.855539451603 23.379154849994
11168 2 -1.200000000000 167.835247950320 19.322203761594 22.265861761899
11169 2 -1.200000000000 169.177929933923 18.499982324930 0.000000000000
11170 2 -1.200000000000 168.842259438022 20.966646634921 25.605741026184
11171 2 -1.200000000000 170.520611917525 17.677760888267 24.492447938089
11172 2 -1.200000000000 170.184941421625 20.144425198257 23.379154849994
11173 1 2.400000000000 169.849270925724 0.000000000000 2.226586176190
11174 1 2.400000000000 170.856282413426 1.644442873327 25.605741026184
11175 1 2.400000000000 171.863293901128 3.288885746654 2.226586176190
11176 1 2.400000000000 173.541646380631 0.000000000000 1.113293088095
11177 2 -1.200000000000 171.527623405227 1.233332154995 1.113293088095
11178 2 -1.200000000000 171.191952909327 3.699996464986 0.000000000000
11179 2 -1.200000000000 172.870305388830 0.411110718332 25.605741026184
11180 2 -1.200000000000 172.534634892929 2.877775028322 24.492447938089
11181 2 -1.200000000000 173.877316876532 2.055553591659 2.226586176190
11182 2 -1.200000000000 173.541646380631 4.522217901650 1.113293088095
11183 2 -1.200000000000 175.219998860134 1.233332154995 0.000000000000
11184 2 -1.200000000000 174.884328364234 3.699996464986 25.605741026184
11185 1 2.400000000000 169.177929933923 4.933328619981 0.000000000000
11186 1 2.400000000000 170.184941421625 6.577771493308 23.379154849994
11187 1 2.400000000000 171.191952909327 8.222214366636 0.000000000000
11188 1 2.400000000000 172.870305388830 4.933328619981 25.605741026184
11189 2 -1.200000000000 170.856282413426 6.166660774977 25.605741026184
11190 2 -1.200000000000 170.520611917525 8.633325084967 24.492447938089
11191 2 -1.200000000000 172.198964397029 5.344439338313 23.379154849994
11192 2 -1.200000000000 171.863293901128 7.811103648304 22.265861761899
11193 2 -1.200000000000 173.205975884730 6.988882211640 0.000000000000
11194 2 -1.200000000000 172.870305388830 9.455546521631 25.605741026184
11195 2 -1.200000000000 174.548657868333 6.166660774977 24.492447938089
11196 2 -1.200000000000 174.212987372432 8.633325084967 23.379154849994
11197 1 2.400000000000 156.422451089698 26.311085973234 24.492447938089
11198 1 2.400000000000 157.429462577400 27.955528846561 21.152568673804
11199 1 2.400000000000 158.436474065102 29.599971719888 24.492447938089
11200 1 2.400000000000 160.114826544605 26.311085973234 23.379154849994
11201 2 -1.200000000000 158.100803569202 27.544418128229 23.379154849994
11202 2 -1.200000000000 157.765133073301 30.011082438220 22.265861761899
11203 2 -1.200000000000 159.443485552804 26.722196691566 21.152568673804
11204 2 -1.200000000000 159.107815056904 29.188861001556 20.039275585709
11205 2 -1.200000000000 160.450497040506 28.366639564893 24.492447938089
11206 2 -1.200000000000 160.114826544605 30.833303874884 23.379154849994
11207 2 -1.200000000000 161.793179024109 27.544418128229 22.265861761899
11208 2 -1.200000000000 161.457508528208 30.011082438220 21.152568673804
11209 1 2.400000000000 155.751110097897 31.244414593215 22.265861761899
11210 1 2.400000000000 156.758121585599 32.888857466542 18.925982497614
11211 1 2.400000000000 157.765133073301 34.533300339870 22.265861761899
11212 1 2.400000000000 159.443485552804 31.244414593215 21.152568673804
11213 2 -1.200000000000 157.429462577400 32.477746748211 21.152568673804
11214 2 -1.200000000000 157.093792081500 34.944411058201 20.039275585709
11215 2 -1.200000000000 158.772144561003 31.655525311547 18.925982497614
11216 2 -1.200000000000 158.436474065102 34.122189621538 17.812689409519
11217 2 -1.200000000000 159.779156048705 33.299968184874 22.265861761899
11218 2 -1.200000000000 159.443485552804 35.766632494865 21.152568673804
11219 2 -1.200000000000 161.121838032307 32.477746748211 20.039275585709
11220 2 -1.200000000000 160.786167536407 34.944411058201 18.925982497614
11221 1 2.400000000000 160.450497040506 14.799985859944 24.492447938089
11222 1 2.400000000000 161.457508528208 16.444428733271 21.152568673804
11223 1 2.400000000000 162.464520015910 18.088871606598 24.492447938089
11224 1 2.400000000000 164.142872495413 14.799985859944 23.379154849994
11225 2 -1.200000000000 162.128849520009 16.033318014939 23.379154849994
11226 2 -1.200000000000 161.793179024109 18.499982324930 22.265861761899
11227 2 -1.200000000000 163.471531503612 15.211096578276 21.152568673804
11228 2 -1.200000000000 163.135861007711 17.677760888267 20.039275585709
11229 2 -1.200000000000 164.478542991314 16.855539451603 24.492447938089
11230 2 -1.200000000000 164.142872495413 19.322203761594 23.379154849994
11231 2 -1.200000000000 165.821224974916 16.033318014939 22.265861761899
11232 2 -1.200000000000 165.485554479016 18.499982324930 21.152568673804
11233 1 2.400000000000 159.779156048705 19.733314479925 22.265861761899
11234 1 2.400000000000 160.786167536407 21.377757353253 18.925982497614
11235 1 2.400000000000 161.793179024109 23.022200226580 22.265861761899
11236 1 2.400000000000 163.471531503612 19.733314479925 21.152568673804
11237 2 -1.200000000000 161.457508528208 20.966646634921 21.152568673804
11238 2 -1.200000000000 161.121838032307 23.433310944912 20.039275585709
11239 2 -1.200000000000 162.800190511811 20.144425198257 18.925982497614
11240 2 -1.200000000000 162.464520015910 22.611089508248 17.812689409519
11241 2 -1.200000000000 163.807201999512 21.788868071584 22.265861761899
11242 2 -1.200000000000 163.471531503612 24.255532381575 21.152568673804
11243 2 -1.200000000000 165.149883983115 20.966646634921 20.039275585709
11244 2 -1.200000000000 164.814213487214 23.433310944912 18.925982497614
11245 1 2.400000000000 159.107815056904 24.666643099907 20.039275585709
11246 1 2.400000000000 160.114826544605 26.311085973234 16.699396321424
11247 1 2.400000000000 161.121838032307 27.955528846561 20.039275585709
11248 1 2.400000000000 162.800190511811 24.666643099907 18.925982497614
11249 2 -1.200000000000 160.786167536407 25.899975254902 18.925982497614
11250 2 -1.200000000000 160.450497040506 28.366639564893 17.812689409519
11251 2 -1.200000000000 162.128849520009 25.077753818239 16.699396321424
11252 2 -1.200000000000 161.793179024109 27.544418128229 15.586103233329
11253 2 -1.200000000000 163.135861007711 26.722196691566 20.039275585709
11254 2 -1.200000000000 162.800190511811 29.188861001556 18.925982497614
11255 2 -1.200000000000 164.478542991314 25.899975254902 17.812689409519
11256 2 -1.200000000000 164.142872495413 28.366639564893 16.699396321424
11257 1 2.400000000000 158.436474065102 29.599971719888 17.812689409519
11258 1 2.400000000000 159.443485552804 31.244414593215 14.472810145234
11259 1 2.400000000000 160.450497040506 32.888857466542 17.812689409519
11260 1 2.400000000000 162.128849520009 29.599971719888 16.699396321424
11261 2 -1.200000000000 160.114826544605 30.833303874884 16.699396321424
11262 2 -1.200000000000 159.779156048705 33.299968184874 15.586103233329
11263 2 -1.200000000000 161.457508528208 30.011082438220 14.472810145234
11264 2 -1.200000000000 161.121838032307 32.477746748211 13.359517057139
11265 2 -1.200000000000 162.464520015910 31.655525311547 17.812689409519
11266 2 -1.200000000000 162.128849520009 34.122189621538 16.699396321424
11267 2 -1.200000000000 163.807201999512 30.833303874884 15.586103233329
11268 2 -1.200000000000 163.471531503612 33.299968184874 14.472810145234
11269 1 2.400000000000 157.765133073301 34.533300339870 15.586103233329
11270 1 2.400000000000 158.772144561003 0.000000000000 12.246223969044
11271 1 2.400000000000 159.779156048705 1.644442873327 15.586103233329
11272 1 2.400000000000 161.457508528208 34.533300339870 14.472810145234
11273 2 -1.200000000000 159.443485552804 35.766632494865 14.472810145234
11274 2 -1.200000000000 159.107815056904 2.055553591659 13.359517057139
11275 2 -1.200000000000 160.786167536407 34.944411058201 12.246223969044
11276 2 -1.200000000000 160.450497040506 1.233332154995 11.132930880950
11277 2 -1.200000000000 161.793179024109 0.411110718332 15.586103233329
11278 2 -1.200000000000 161.457508528208 2.877775028322 14.472810145234
11279 2 -1.200000000000 163.135861007711 35.766632494865 13.359517057139
11280 2 -1.200000000000 162.800190511811 2.055553591659 12.246223969045
11281 1 2.400000000000 164.478542991314 3.288885746654 24.492447938089
11282 1 2.400000000000 165.485554479016 4.933328619981 21.152568673804
11283 1 2.400000000000 166.492565966718 6.577771493308 24.492447938089
11284 1 2.400000000000 168.170918446221 3.288885746654 23.379154849994
11285 2 -1.200000000000 166.156895470817 4.522217901650 23.379154849994
11286 2 -1.200000000000 165.821224974916 6.988882211640 22.265861761899
11287 2 -1.200000000000 167.499577454420 3.699996464986 21.152568673804
11288 2 -1.200000000000 167.163906958519 6.166660774977 20.039275585709
11289 2 -1.200000000000 168.506588942121 5.344439338313 24.492447938089
11290 2 -1.200000000000 168.170918446221 7.811103648304 23.379154849994
11291 2 -1.200000000000 169.849270925724 4.522217901650 22.265861761899
11292 2 -1.200000000000 169.513600429823 6.988882211640 21.152568673804
11293 1 2.400000000000 163.807201999512 8.222214366636 22.265861761899
11294 1 2.400000000000 164.814213487214 9.866657239963 18.925982497614
11295 1 2.400000000000 165.821224974916 11.511100113290 22.265861761899
11296 1 2.400000000000 167.499577454420 8.222214366636 21.152568673804
11297 2 -1.200000000000 165.485554479016 9.455546521631 21.152568673804
11298 2 -1.200000000000 165.149883983115 11.922210831622 20.039275585709
11299 2 -1.200000000000 166.828236462618 8.633325084967 18.925982497614
11300 2 -1.200000000000 166.492565966718 11.099989394958 17.812689409519
11301 2 -1.200000000000 167.835247950320 10.277767958295 22.265861761899
11302 2 -1.200000000000 167.499577454420 12.744432268285 21.152568673804
11303 2 -1.200000000000 169.177929933923 9.455546521631 20.039275585709
11304 2 -1.200000000000 168.842259438022 11.922210831622 18.925982497614
11305 1 2.400000000000 163.135861007711 13.155542986617 20.039275585709
11306 1 2.400000000000 164.142872495413 14.799985859944 16.699396321424
11307 1 2.400000000000 165.149883983115 16.444428733271 20.039275585709
11308 1 2.400000000000 166.828236462618 13.155542986617 18.925982497614
11309 2 -1.200000000000 164.814213487214 14.388875141612 18.925982497614
11310 2 -1.200000000000 164.478542991314 16.855539451603 17.812689409519
11311 2 -1.200000000000 166.156895470817 13.566653704949 16.699396321424
11312 2 -1.200000000000 165.821224974916 16.033318014939 15.586103233329
11313 2 -1.200000000000 167.163906958519 15.211096578276 20.039275585709
11314 2 -1.200000000000 166.828236462618 17.677760888267 18.925982497614
11315 2 -1.200000000000 168.506588942121 14.388875141612 17.812689409519
11316 2 -1.200000000000 168.170918446221 16.855539451603 16.699396321424
11317 1 2.400000000000 162.464520015910 18.088871606598 17.812689409519
11318 1 2.400000000000 163.471531503612 19.733314479925 14.472810145234
11319 1 2.400000000000 164.478542991314 21.377757353253 17.812689409519
11320 1 2.400000000000 166.156895470817 18.088871606598 16.699396321424
11321 2 -1.200000000000 164.142872495413 19.322203761594 16.699396321424
11322 2 -1.200000000000 163.807201999512 21.788868071584 15.586103233329
11323 2 -1.200000000000 165.485554479016 18.499982324930 14.472810145234
11324 2 -1.200000000000 165.149883983115 20.966646634921 13.359517057139
11325 2 -1.200000000000 166.492565966718 20.144425198257 17.812689409519
11326 2 -1.200000000000 166.156895470817 22.611089508248 16.699396321424
11327 2 -1.200000000000 167.835247950320 19.322203761594 15.586103233329
11328 2 -1.200000000000 167.499577454420 21.788868071584 14.472810145234
11329 1 2.400000000000 161.793179024109 23.022200226580 15.586103233329
11330 1 2.400000000000 162.800190511811 24.666643099907 12.246223969044
11331 1 2.400000000000 163.807201999512 26.311085973234 15.586103233329
11332 1 2.400000000000 165.485554479016 23.022200226580 14.472810145234
11333 2 -1.200000000000 163.471531503612 24.255532381575 14.472810145234
11334 2 -1.200000000000 163.135861007711 26.722196691566 13.359517057139
11335 2 -1.200000000000 164.814213487214 23.433310944912 12.246223969045
11336 2 -1.200000000000 164.478542991314 25.899975254902 11.132930880950
11337 2 -1.200000000000 165.821224974916 25.077753818239 15.586103233329
11338 2 -1.200000000000 165.485554479016 27.544418128229 14.472810145234
11339 2 -1.200000000000 167.163906958519 24.255532381575 13.359517057139
11340 2 -1.200000000000 166.828236462618 26.722196691566 12.246223969045
11341 1 2.400000000000 161.121838032307 27.955528846561 13.359517057139
11342 1 2.400000000000 162.128849520009 29.599971719888 10.019637792855
11343 1 2.400000000000 163.135861007711 31.244414593215 13.359517057139
11344 1 2.400000000000 164.814213487214 27.955528846561 12.246223969045
11345 2 -1.200000000000 162.800190511811 29.188861001556 12.246223969044
11346 2 -1.200000000000 162.464520015910 31.655525311547 11.132930880950
11347 2 -1.200000000000 164.142872495413 28.366639564893 10.019637792855
11348 2 -1.200000000000 163.807201999512 30.833303874884 8.906344704760
11349 2 -1.200000000000 165.149883983115 30.011082438220 13.359517057139
11350 2 -1.200000000000 164.814213487214 32.477746748211 12.246223969045
11351 2 -1.200000000000 166.492565966718 29.188861001556 11.132930880950
11352 2 -1.200000000000 166.156895470817 31.655525311547 10.019637792855
11353 1 2.400000000000 160.450497040506 32.888857466542 11.132930880950
11354 1 2.400000000000 161.457508528208 34.533300339870 7.793051616665
11355 1 2.400000000000 162.464520015910 0.000000000000 11.132930880950
11356 1 2.400000000000 164.142872495413 32.888857466542 10.019637792855
11357 2 -1.200000000000 162.128849520009 34.122189621538 10.019637792855
11358 2 -1.200000000000 161.793179024109 0.411110718332 8.906344704760
11359 2 -1.200000000000 163.471531503612 33.299968184874 7.793051616665
11360 2 -1.200000000000 163.135861007711 35.766632494865 6.679758528570
11361 2 -1.200000000000 164.478542991314 34.944411058201 11.132930880950
11362 2 -1.200000000000 164.142872495413 1.233332154995 10.019637792855
11363 2 -1.200000000000 165.821224974916 34.122189621538 8.906344704760
11364 2 -1.200000000000 165.485554479016 0.411110718332 7.793051616665
11365 1 2.400000000000 167.163906958519 1.644442873327 20.039275585709
11366 1 2.400000000000 168.170918446221 3.288885746654 16.699396321424
11367 1 2.400000000000 169.177929933923 4.933328619981 20.039275585709
11368 1 2.400000000000 170.856282413426 1.644442873327 18.925982497614
11369 2 -1.200000000000 168.842259438022 2.877775028322 18.925982497614
11370 2 -1.200000000000 168.506588942121 5.344439338313 17.812689409519
11371 2 -1.200000000000 170.184941421625 2.055553591659 16.699396321424
11372 2 -1.200000000000 169.849270925724 4.522217901650 15.586103233329
11373 2 -1.200000000000 171.191952909327 3.699996464986 20.039275585709
11374 2 -1.200000000000 170.856282413426 6.166660774977 18.925982497614
11375 2 -1.200000000000 172.534634892929 2.877775028322 17.812689409519
11376 2 -1.200000000000 172.198964397028 5.344439338313 16.699396321424
11377 1 2.400000000000 166.492565966718 6.577771493308 17.812689409519
11378 1 2.400000000000 167.499577454420 8.222214366636 14.472810145234
11379 1 2.400000000000 168.506588942121 9.866657239963 17.812689409519
11380 1 2.400000000000 170.184941421625 6.577771493308 16.699396321424
11381 2 -1.200000000000 168.170918446221 7.811103648304 16.699396321424
11382 2 -1.200000000000 167.835247950320 10.277767958295 15.586103233329
11383 2 -1.200000000000 169.513600429823 6.988882211640 14.472810145234
11384 2 -1.200000000000 169.177929933923 9.455546521631 13.359517057139
11385 2 -1.200000000000 170.520611917525 8.633325084967 17.812689409519
11386 2 -1.200000000000 170.184941421625 11.099989394958 16.699396321424
11387 2 -1.200000000000 171.863293901128 7.811103648304 15.586103233329
11388 2 -1.200000000000 171.527623405227 10.277767958295 14.472810145234
11389 1 2.400000000000 165.821224974916 11.511100113290 15.586103233329
11390 1 2.400000000000 166.828236462618 13.155542986617 12.246223969044
11391 1 2.400000000000 167.835247950320 14.799985859944 15.586103233329
11392 1 2.400000000000 169.513600429823 11.511100113290 14.472810145234
11393 2 -1.200000000000 167.499577454420 12.744432268285 14.472810145234
11394 2 -1.200000000000 167.163906958519 15.211096578276 13.359517057139
11395 2 -1.200000000000 168.842259438022 11.922210831622 12.246223969045
11396 2 -1.200000000000 168.506588942121 14.388875141612 11.132930880950
11397 2 -1.200000000000 169.849270925724 13.566653704949 15.586103233329
11398 2 -1.200000000000 169.513600429823 16.033318014939 14.472810145234
11399 2 -1.200000000000 171.191952909327 12.744432268285 13.359517057139
11400 2 -1.200000000000 170.856282413426 15.211096578276 12.246223969045
11401 1 2.400000000000 165.149883983115 16.444428733271 13.359517057139
11402 1 2.400000000000 166.156895470817 18.088871606598 10.019637792855
11403 1 2.400000000000 167.163906958519 19.733314479925 13.359517057139
11404 1 2.400000000000 168.842259438022 16.444428733271 12.246223969045
11405 2 -1.200000000000 166.828236462618 17.677760888267 12.246223969044
11406 2 -1.200000000000 166.492565966718 20.144425198257 11.132930880950
11407 2 -1.200000000000 168.170918446221 16.855539451603 10.019637792855
11408 2 -1.200000000000 167.835247950320 19.322203761594 8.906344704760
11409 2 -1.200000000000 169.177929933923 18.499982324930 13.359517057139
11410 2 -1.200000000000 168.842259438022 20.966646634921 12.246223969045
11411 2 -1.200000000000 170.520611917525 17.677760888267 11.132930880950
11412 2 -1.200000000000 170.184941421625 20.144425198257 10.019637792855
11413 1 2.400000000000 164.478542991314 21.377757353253 11.132930880950
11414 1 2.400000000000 165.485554479016 23.022200226580 7.793051616665
11415 1 2.400000000000 166.492565966718 24.666643099907 11.132930880950
11416 1 2.400000000000 168.170918446221 21.377757353253 10.019637792855
11417 2 -1.200000000000 166.156895470817 22.611089508248 10.019637792855
11418 2 -1.200000000000 165.821224974916 25.077753818239 8.906344704760
11419 2 -1.200000000000 167.499577454420 21.788868071584 7.793051616665
11420 2 -1.200000000000 167.163906958519 24.255532381575 6.679758528570
11421 2 -1.200000000000 168.506588942121 23.433310944912 11.132930880950
11422 2 -1.200000000000 168.170918446221 25.899975254902 10.019637792855
11423 2 -1.200000000000 169.849270925724 22.611089508248 8.906344704760
11424 2 -1.200000000000 169.513600429823 25.077753818239 7.793051616665
11425 1 2.400000000000 163.807201999512 26.311085973234 8.906344704760
11426 1 2.400000000000 164.814213487214 27.955528846561 5.566465440475
11427 1 2.400000000000 165.821224974916 29.599971719888 8.906344704760
11428 1 2.400000000000 167.499577454420 26.311085973234 7.793051616665
11429 2 -1.200000000000 165.485554479016 27.544418128229 7.793051616665
11430 2 -1.200000000000 165.149883983115 30.011082438220 6.679758528570
11431 2 -1.200000000000 166.828236462618 26.722196691566 5.566465440475
11432 2 -1.200000000000 166.492565966718 29.188861001556 4.453172352380
11433 2 -1.200000000000 167.835247950320 28.366639564893 8.906344704760
11434 2 -1.200000000000 167.499577454420 30.833303874884 7.793051616665
11435 2 -1.200000000000 169.177929933923 27.544418128229 6.679758528570
11436 2 -1.200000000000 168.842259438022 30.011082438220 5.566465440475
11437 1 2.400000000000 163.135861007711 31.244414593215 6.679758528570
11438 1 2.400000000000 164.142872495413 32.888857466542 3.339879264285
11439 1 2.400000000000 165.149883983115 34.533300339870 6.679758528570
11440 1 2.400000000000 166.828236462618 31.244414593215 5.566465440475
11441 2 -1.200000000000 164.814213487214 32.477746748211 5.566465440475
11442 2 -1.200000000000 164.478542991314 34.944411058201 4.453172352380
11443 2 -1.200000000000 166.156895470817 31.655525311547 3.339879264285
11444 2 -1.200000000000 165.821224974916 34.122189621538 2.226586176190
11445 2 -1.200000000000 167.163906958519 33.299968184874 6.679758528570
11446 2 -1.200000000000 166.828236462618 35.766632494865 5.566465440475
11447 2 -1.200000000000 168.506588942121 32.477746748211 4.453172352380
11448 2 -1.200000000000 168.170918446221 34.944411058201 3.339879264285
11449 1 2.400000000000 169.849270925724 0.000000000000 15.586103233329
11450 1 2.400000000000 170.856282413426 1.644442873327 12.246223969044
11451 1 2.400000000000 171.863293901128 3.288885746654 15.586103233329
11452 1 2.400000000000 173.541646380631 0.000000000000 14.472810145234
11453 2 -1.200000000000 171.527623405227 1.233332154995 14.472810145234
11454 2 -1.200000000000 171.191952909327 3.699996464986 13.359517057139
11455 2 -1.200000000000 172.870305388830 0.411110718332 12.246223969044
11456 2 -1.200000000000 172.534634892929 2.877775028322 11.132930880950
11457 2 -1.200000000000 173.877316876532 2.055553591659 15.586103233329
11458 2 -1.200000000000 173.541646380631 4.522217901650 14.472810145234
11459 2 -1.200000000000 175.219998860134 1.233332154995 13.359517057139
11460 2 -1.200000000000 174.884328364234 3.699996464986 12.246223969045
11461 1 2.400000000000 169.177929933923 4.933328619981 13.359517057139
11462 1 2.400000000000 170.184941421625 6.577771493308 10.019637792855
11463 1 2.400000000000 171.191952909327 8.222214366636 13.359517057139
11464 1 2.400000000000 172.870305388830 4.933328619981 12.246223969045
11465 2 -1.200000000000 170.856282413426 6.166660774977 12.246223969044
11466 2 -1.200000000000 170.520611917525 8.633325084967 11.132930880950
11467 2 -1.200000000000 172.198964397028 5.344439338313 10.019637792855
11468 2 -1.200000000000 171.863293901128 7.811103648304 8.906344704760
11469 2 -1.200000000000 173.205975884730 6.988882211640 13.359517057139
11470 2 -1.200000000000 172.870305388830 9.455546521631 12.246223969045
11471 2 -1.200000000000 174.548657868333 6.166660774977 11.132930880950
11472 2 -1.200000000000 174.212987372432 8.633325084967 10.019637792855
11473 1 2.400000000000 168.506588942121 9.866657239963 11.132930880950
11474 1 2.400000000000 169.513600429823 11.511100113290 7.793051616665
11475 1 2.400000000000 170.520611917525 13.155542986617 11.132930880950
11476 1 2.400000000000 172.198964397029 9.866657239963 10.019637792855
11477 2 -1.200000000000 170.184941421625 11.099989394958 10.019637792855
11478 2 -1.200000000000 169.849270925724 13.566653704949 8.906344704760
11479 2 -1.200000000000 171.527623405227 10.277767958295 7.793051616665
11480 2 -1.200000000000 171.191952909327 12.744432268285 6.679758528570
11481 2 -1.200000000000 172.534634892929 11.922210831622 11.132930880950
11482 2 -1.200000000000 172.198964397028 14.388875141612 10.019637792855
11483 2 -1.200000000000 173.877316876532 11.099989394958 8.906344704760
11484 2 -1.200000000000 173.541646380631 13.566653704949 7.793051616665
11485 1 2.400000000000 167.835247950320 14.799985859944 8.906344704760
11486 1 2.400000000000 168.842259438022 16.444428733271 5.566465440475
11487 1 2.400000000000 169.849270925724 18.088871606598 8.906344704760
11488 1 2.400000000000 171.527623405227 14.799985859944 7.793051616665
11489 2 -1.200000000000 169.513600429823 16.033318014939 7.793051616665
11490 2 -1.200000000000 169.177929933923 18.499982324930 6.679758528570
11491 2 -1.200000000000 170.856282413426 15.211096578276 5.566465440475
11492 2 -1.200000000000 170.520611917525 17.677760888267 4.453172352380
11493 2 -1.200000000000 171.863293901128 16.855539451603 8.906344704760
11494 2 -1.200000000000 171.527623405227 19.322203761594 7.793051616665
11495 2 -1.200000000000 173.205975884730 16.033318014939 6.679758528570
11496 2 -1.200000000000 172.870305388830 18.499982324930 5.566465440475
11497 1 2.400000000000 167.163906958519 19.733314479925 6.679758528570
11498 1 2.400000000000 168.170918446221 21.377757353253 3.339879264285
11499 1 2.400000000000 169.177929933923 23.022200226580 6.679758528570
11500 1 2.400000000000 170.856282413426 19.733314479925 5.566465440475
11501 2 -1.200000000000 168.842259438022 20.966646634921 5.566465440475
11502 2 -1.200000000000 168.506588942121 23.433310944912 4.453172352380
11503 2 -1.200000000000 170.184941421625 20.144425198257 3.339879264285
11504 2 -1.200000000000 169.849270925724 22.611089508248 2.226586176190
11505 2 -1.200000000000 171.191952909327 21.788868071584 6.679758528570
11506 2 -1.200000000000 170.856282413426 24.255532381575 5.566465440475
11507 2 -1.200000000000 172.534634892929 20.966646634921 4.453172352380
11508 2 -1.200000000000 172.198964397028 23.433310944912 3.339879264285
11509 1 2.400000000000 166.492565966718 24.666643099907 4.453172352380
11510 1 2.400000000000 167.499577454420 26.311085973234 1.113293088095
11511 1 2.400000000000 168.506588942121 27.955528846561 4.453172352380
11512 1 2.400000000000 170.184941421625 24.666643099907 3.339879264285
11513 2 -1.200000000000 168.170918446221 25.899975254902 3.339879264285
11514 2 -1.200000000000 167.835247950320 28.366639564893 2.226586176190
11515 2 -1.200000000000 169.513600429823 25.077753818239 1.113293088095
11516 2 -1.200000000000 169.177929933923 27.544418128229 0.000000000000
11517 2 -1.200000000000 170.520611917525 26.722196691566 4.453172352380
11518 2 -1.200000000000 170.184941421625 29.188861001556 3.339879264285
11519 2 -1.200000000000 171.863293901128 25.899975254902 2.226586176190
11520 2 -1.200000000000 171.527623405227 28.366639564893 1.113293088095
11521 1 2.400000000000 165.821224974916 29.599971719888 2.226586176190
11522 1 2.400000000000 166.828236462618 31.244414593215 25.605741026184
11523 1 2.400000000000 167.835247950320 32.888857466542 2.226586176190
11524 1 2.400000000000 169.513600429823 29.599971719888 1.113293088095
11525 2 -1.200000000000 167.499577454420 30.833303874884 1.113293088095
11526 2 -1.200000000000 167.163906958519 33.299968184874 0.000000000000
11527 2 -1.200000000000 168.842259438022 30.011082438220 25.605741026184
11528 2 -1.200000000000 168.506588942121 32.477746748211 24.492447938089
11529 2 -1.200000000000 169.849270925724 31.655525311547 2.226586176190
11530 2 -1.200000000000 169.513600429823 34.122189621538 1.113293088095
11531 2 -1.200000000000 171.191952909327 30.833303874884 0.000000000000
11532 2 -1.200000000000 170.856282413426 33.299968184874 25.605741026184
11533 1 2.400000000000 165.149883983115 34.533300339870 0.000000000000
11534 1 2.400000000000 166.156895470817 0.000000000000 23.379154849994
11535 1 2.400000000000 167.163906958519 1.644442873327 0.000000000000
11536 1 2.400000000000 168.842259438022 34.533300339870 25.605741026184
11537 2 -1.200000000000 166.828236462618 35.766632494865 25.605741026184
11538 2 -1.200000000000 166.492565966718 2.055553591659 24.492447938089
11539 2 -1.200000000000 168.170918446221 34.944411058201 23.379154849994
11540 2 -1.200000000000 167.835247950320 1.233332154995 22.265861761899
11541 2 -1.200000000000 169.177929933923 0.411110718332 0.000000000000
11542 2 -1.200000000000 168.842259438022 2.877775028322 25.605741026184
11543 2 -1.200000000000 170.520611917525 35.766632494865 24.492447938089
11544 2 -1.200000000000 170.184941421625 2.055553591659 23.379154849994
11545 1 2.400000000000 171.191952909327 8.222214366636 6.679758528570
11546 1 2.400000000000 172.198964397028 9.866657239963 3.339879264285
11547 1 2.400000000000 173.205975884730 11.511100113290 6.679758528570
11548 1 2.400000000000 174.884328364234 8.222214366636 5.566465440475
11549 2 -1.200000000000 172.870305388830 9.455546521631 5.566465440475
11550 2 -1.200000000000 172.534634892929 11.922210831622 4.453172352380
11551 2 -1.200000000000 174.212987372432 8.633325084967 3.339879264285
11552 2 -1.200000000000 173.877316876532 11.099989394958 2.226586176190
11553 2 -1.200000000000 175.219998860134 10.277767958295 6.679758528570
11554 2 -1.200000000000 174.884328364234 12.744432268285 5.566465440475
11555 2 -1.200000000000 176.562680843737 9.455546521631 4.453172352380
11556 2 -1.200000000000 176.227010347836 11.922210831622 3.339879264285
11557 1 2.400000000000 170.520611917525 13.155542986617 4.453172352380
11558 1 2.400000000000 171.527623405227 14.799985859944 1.113293088095
11559 1 2.400000000000 172.534634892929 16.444428733271 4.453172352380
11560 1 2.400000000000 174.212987372432 13.155542986617 3.339879264285
11561 2 -1.200000000000 172.198964397029 14.388875141612 3.339879264285
11562 2 -1.200000000000 171.863293901128 16.855539451603 2.226586176190
11563 2 -1.200000000000 173.541646380631 13.566653704949 1.113293088095
11564 2 -1.200000000000 173.205975884730 16.033318014939 0.000000000000
11565 2 -1.200000000000 174.548657868333 15.211096578276 4.453172352380
11566 2 -1.200000000000 174.212987372432 17.677760888267 3.339879264285
11567 2 -1.200000000000 175.891339851936 14.388875141612 2.226586176190
11568 2 -1.200000000000 175.555669356035 16.855539451603 1.113293088095
11569 1 2.400000000000 169.849270925724 18.088871606598 2.226586176190
11570 1 2.400000000000 170.856282413426 19.733314479925 25.605741026184
11571 1 2.400000000000 171.863293901128 21.377757353253 2.226586176190
11572 1 2.400000000000 173.541646380631 18.088871606598 1.113293088095
11573 2 -1.200000000000 171.527623405227 19.322203761594 1.113293088095
11574 2 -1.200000000000 171.191952909327 21.788868071584 0.000000000000
11575 2 -1.200000000000 172.870305388830 18.499982324930 25.605741026184
11576 2 -1.200000000000 172.534634892929 20.966646634921 24.492447938089
11577 2 -1.200000000000 173.877316876532 20.144425198257 2.226586176190
11578 2 -1.200000000000 173.541646380631 22.611089508248 1.113293088095
11579 2 -1.200000000000 175.219998860134 19.322203761594 0.000000000000
11580 2 -1.200000000000 174.884328364234 21.788868071584 25.605741026184
11581 1 2.400000000000 169.177929933923 23.022200226580 0.000000000000
11582 1 2.400000000000 170.184941421625 24.666643099907 23.379154849994
11583 1 2.400000000000 171.191952909327 26.311085973234 0.000000000000
11584 1 2.400000000000 172.870305388830 23.022200226580 25.605741026184
11585 2 -1.200000000000 170.856282413426 24.255532381575 25.605741026184
11586 2 -1.200000000000 170.520611917525 26.722196691566 24.492447938089
11587 2 -1.200000000000 172.198964397029 23.433310944912 23.379154849994
11588 2 -1.200000000000 171.863293901128 25.899975254902 22.265861761899
11589 2 -1.200000000000 173.205975884730 25.077753818239 0.000000000000
11590 2 -1.200000000000 172.870305388830 27.544418128229 25.605741026184
11591 2 -1.200000000000 174.548657868333 24.255532381575 24.492447938089
11592 2 -1.200000000000 174.212987372432 26.722196691566 23.379154849994
11593 1 2.400000000000 160.450497040506 32.888857466542 24.492447938089
11594 1 2.400000000000 161.457508528208 34.533300339870 21.152568673804
11595 1 2.400000000000 162.464520015910 0.000000000000 24.492447938089
11596 1 2.400000000000 164.142872495413 32.888857466542 23.379154849994
11597 2 -1.200000000000 162.128849520009 34.122189621538 23.379154849994
11598 2 -1.200000000000 161.793179024109 0.411110718332 22.265861761899
11599 2 -1.200000000000 163.471531503612 33.299968184874 21.152568673804
11600 2 -1.200000000000 163.135861007711 35.766632494865 20.039275585709
11601 2 -1.200000000000 164.478542991314 34.944411058201 24.492447938089
11602 2 -1.200000000000 164.142872495413 1.233332154995 23.379154849994
11603 2 -1.200000000000 165.821224974916 34.122189621538 22.265861761899
11604 2 -1.200000000000 165.485554479016 0.411110718332 21.152568673804
11605 1 2.400000000000 164.478542991314 21.377757353253 24.492447938089
11606 1 2.400000000000 165.485554479016 23.022200226580 21.152568673804
11607 1 2.400000000000 166.492565966718 24.666643099907 24.492447938089
11608 1 2.400000000000 168.170918446221 21.377757353253 23.379154849994
11609 2 -1.200000000000 166.156895470817 22.611089508248 23.379154849994
11610 2 -1.200000000000 165.821224974916 25.077753818239 22.265861761899
11611 2 -1.200000000000 167.499577454420 21.788868071584 21.152568673804
11612 2 -1.200000000000 167.163906958519 24.255532381575 20.039275585709
11613 2 -1.200000000000 168.506588942121 23.433310944912 24.492447938089
11614 2 -1.200000000000 168.170918446221 25.899975254902 23.379154849994
11615 2 -1.200000000000 169.849270925724 22.611089508248 22.265861761899
11616 2 -1.200000000000 169.513600429823 25.077753818239 21.152568673804
11617 1 2.400000000000 163.807201999512 26.311085973234 22.265861761899
11618 1 2.400000000000 164.814213487214 27.955528846561 18.925982497614
11619 1 2.400000000000 165.821224974916 29.599971719888 22.265861761899
11620 1 2.400000000000 167.499577454420 26.311085973234 21.152568673804
11621 2 -1.200000000000 165.485554479016 27.544418128229 21.152568673804
11622 2 -1.200000000000 165.149883983115 30.011082438220 20.039275585709
11623 2 -1.200000000000 166.828236462618 26.722196691566 18.925982497614
11624 2 -1.200000000000 166.492565966718 29.188861001556 17.812689409519
11625 2 -1.200000000000 167.835247950320 28.366639564893 22.265861761899
11626 2 -1.200000000000 167.499577454420 30.833303874884 21.152568673804
11627 2 -1.200000000000 169.177929933923 27.544418128229 20.039275585709
11628 2 -1.200000000000 168.842259438022 30.011082438220 18.925982497614
11629 1 2.400000000000 163.135861007711 31.244414593215 20.039275585709
11630 1 2.400000000000 164.142872495413 32.888857466542 16.699396321424
11631 1 2.400000000000 165.149883983115 34.533300339870 20.039275585709
11632 1 2.400000000000 166.828236462618 31.244414593215 18.925982497614
11633 2 -1.200000000000 164.814213487214 32.477746748211 18.925982497614
11634 2 -1.200000000000 164.478542991314 34.944411058201 17.812689409519
11635 2 -1.200000000000 166.156895470817 31.655525311547 16.699396321424
11636 2 -1.200000000000 165.821224974916 34.122189621538 15.586103233329
11637 2 -1.200000000000 167.163906958519 33.299968184874 20.039275585709
11638 2 -1.200000000000 166.828236462618 35.766632494865 18.925982497614
11639 2 -1.200000000000 168.506588942121 32.477746748211 17.812689409519
11640 2 -1.200000000000 168.170918446221 34.944411058201 16.699396321424
11641 1 2.400000000000 168.506588942121 9.866657239963 24.492447938089
11642 1 2.400000000000 169.513600429823 11.511100113290 21.152568673804
11643 1 2.400000000000 170.520611917525 13.155542986617 24.492447938089
11644 1 2.400000000000 172.198964397029 9.866657239963 23.379154849994
11645 2 -1.200000000000 170.184941421625 11.099989394958 23.379154849994
11646 2 -1.200000000000 169.849270925724 13.566653704949 22.265861761899
11647 2 -1.200000000000 171.527623405227 10.277767958295 21.152568673804
11648 2 -1.200000000000 171.191952909327 12.744432268285 20.039275585709
11649 2 -1.200000000000 172.534634892929 11.922210831622 24.492447938089
11650 2 -1.200000000000 172.198964397028 14.388875141612 23.379154849994
11651 2 -1.200000000000 173.877316876532 11.099989394958 22.265861761899
11652 2 -1.200000000000 173.541646380631 13.566653704949 21.152568673804
11653 1 2.400000000000 167.835247950320 14.799985859944 22.265861761899
11654 1 2.400000000000 168.842259438022 16.444428733271 18.925982497614
11655 1 2.400000000000 169.849270925724 18.088871606598 22.265861761899
11656 1 2.400000000000 171.527623405227 14.799985859944 21.152568673804
11657 2 -1.200000000000 169.513600429823 16.033318014939 21.152568673804
11658 2 -1.200000000000 169.177929933923 18.499982324930 20.039275585709
11659 2 -1.200000000000 170.856282413426 15.211096578276 18.925982497614
11660 2 -1.200000000000 170.520611917525 17.677760888267 17.812689409519
11661 2 -1.200000000000 171.863293901128 16.855539451603 22.265861761899
11662 2 -1.200000000000 171.527623405227 19.322203761594 21.152568673804
11663 2 -1.200000000000 173.205975884730 16.033318014939 20.039275585709
11664 2 -1.200000000000 172.870305388830 18.499982324930 18.925982497614
11665 1 2.400000000000 167.163906958519 19.733314479925 20.039275585709
11666 1 2.400000000000 168.170918446221 21.377757353253 16.699396321424
11667 1 2.400000000000 169.177929933923 23.022200226580 20.039275585709
11668 1 2.400000000000 170.856282413426 19.733314479925 18.925982497614
11669 2 -1.200000000000 168.842259438022 20.966646634921 18.925982497614
11670 2 -1.200000000000 168.506588942121 23.433310944912 17.812689409519
11671 2 -1.200000000000 170.184941421625 20.144425198257 16.699396321424
11672 2 -1.200000000000 169.849270925724 22.611089508248 15.586103233329
11673 2 -1.200000000000 171.191952909327 21.788868071584 20.039275585709
11674 2 -1.200000000000 170.856282413426 24.255532381575 18.925982497614
11675 2 -1.200000000000 172.534634892929 20.966646634921 17.812689409519
11676 2 -1.200000000000 172.198964397028 23.433310944912 16.699396321424
11677 1 2.400000000000 166.492565966718 24.666643099907 17.812689409519
11678 1 2.400000000000 167.499577454420 26.311085973234 14.472810145234
11679 1 2.400000000000 168.506588942121 27.955528846561 17.812689409519
11680 1 2.400000000000 170.184941421625 24.666643099907 16.699396321424
11681 2 -1.200000000000 168.170918446221 25.899975254902 16.699396321424
11682 2 -1.200000000000 167.835247950320 28.366639564893 15.586103233329
11683 2 -1.200000000000 169.513600429823 25.077753818239 14.472810145234
11684 2 -1.200000000000 169.177929933923 27.544418128229 13.359517057139
11685 2 -1.200000000000 170.520611917525 26.722196691566 17.812689409519
11686 2 -1.200000000000 170.184941421625 29.188861001556 16.699396321424
11687 2 -1.200000000000 171.863293901128 25.899975254902 15.586103233329
11688 2 -1.200000000000 171.527623405227 28.366639564893 14.472810145234
11689 1 2.400000000000 165.821224974916 29.599971719888 15.586103233329
11690 1 2.400000000000 166.828236462618 31.244414593215 12.246223969045
11691 1 2.400000000000 167.835247950320 32.888857466542 15.586103233329
11692 1 2.400000000000 169.513600429823 29.599971719888 14.472810145234
11693 2 -1.200000000000 167.499577454420 30.833303874884 14.472810145234
11694 2 -1.200000000000 167.163906958519 33.299968184874 13.359517057139
11695 2 -1.200000000000 168.842259438022 30.011082438220 12.246223969045
11696 2 -1.200000000000 168.506588942121 32.477746748211 11.132930880950
11697 2 -1.200000000000 169.849270925724 31.655525311547 15.586103233329
11698 2 -1.200000000000 169.513600429823 34.122189621538 14.472810145234
11699 2 -1.200000000000 171.191952909327 30.833303874884 13.359517057139
11700 2 -1.200000000000 170.856282413426 33.299968184874 12.246223969045
11701 1 2.400000000000 165.149883983115 34.533300339870 13.359517057139
11702 1 2.400000000000 166.156895470817 0.000000000000 10.019637792855
11703 1 2.400000000000 167.163906958519 1.644442873327 13.359517057139
11704 1 2.400000000000 168.842259438022 34.533300339870 12.246223969045
11705 2 -1.200000000000 166.828236462618 35.766632494865 12.246223969045
11706 2 -1.200000000000 166.492565966718 2.055553591659 11.132930880950
11707 2 -1.200000000000 168.170918446221 34.944411058201 10.019637792855
11708 2 -1.200000000000 167.835247950320 1.233332154995 8.906344704760
11709 2 -1.200000000000 169.177929933923 0.411110718332 13.359517057139
11710 2 -1.200000000000 168.842259438022 2.877775028322 12.246223969045
11711 2 -1.200000000000 170.520611917525 35.766632494865 11.132930880950
11712 2 -1.200000000000 170.184941421625 2.055553591659 10.019637792855
11713 1 2.400000000000 171.191952909327 8.222214366636 20.039275585709
11714 1 2.400000000000 172.198964397028 9.866657239963 16.699396321424
11715 1 2.400000000000 173.205975884730 11.511100113290 20.039275585709
11716 1 2.400000000000 174.884328364234 8.222214366636 18.925982497614
11717 2 -1.200000000000 172.870305388830 9.455546521631 18.925982497614
11718 2 -1.200000000000 172.534634892929 11.922210831622 17.812689409519
11719 2 -1.200000000000 174.212987372432 8.633325084967 16.699396321424
11720 2 -1.200000000000 173.877316876532 11.099989394958 15.586103233329
11721 2 -1.200000000000 175.219998860134 10.277767958295 20.039275585709
11722 2 -1.200000000000 174.884328364234 12.744432268285 18.925982497614
11723 2 -1.200000000000 176.562680843737 9.455546521631 17.812689409519
11724 2 -1.200000000000 176.227010347836 11.922210831622 16.699396321424
11725 1 2.400000000000 170.520611917525 13.155542986617 17.812689409519
11726 1 2.400000000000 171.527623405227 14.799985859944 14.472810145234
11727 1 2.400000000000 172.534634892929 16.444428733271 17.812689409519
11728 1 2.400000000000 174.212987372432 13.155542986617 16.699396321424
11729 2 -1.200000000000 172.198964397029 14.388875141612 16.699396321424
11730 2 -1.200000000000 171.863293901128 16.855539451603 15.586103233329
11731 2 -1.200000000000 173.541646380631 13.566653704949 14.472810145234
11732 2 -1.200000000000 173.205975884730 16.033318014939 13.359517057139
11733 2 -1.200000000000 174.548657868333 15.211096578276 17.812689409519
11734 2 -1.200000000000 174.212987372432 17.677760888267 16.699396321424
11735 2 -1.200000000000 175.891339851936 14.388875141612 15.586103233329
11736 2 -1.200000000000 175.555669356035 16.855539451603 14.472810145234
11737 1 2.400000000000 169.849270925724 18.088871606598 15.586103233329
11738 1 2.400000000000 170.856282413426 19.733314479925 12.246223969045
11739 1 2.400000000000 171.863293901128 21.377757353253 15.586103233329
11740 1 2.400000000000 173.541646380631 18.088871606598 14.472810145234
11741 2 -1.200000000000 171.527623405227 19.322203761594 14.472810145234
11742 2 -1.200000000000 171.191952909327 21.788868071584 13.359517057139
11743 2 -1.200000000000 172.870305388830 18.499982324930 12.246223969045
11744 2 -1.200000000000 172.534634892929 20.966646634921 11.132930880950
11745 2 -1.200000000000 173.877316876532 20.144425198257 15.586103233329
11746 2 -1.200000000000 173.541646380631 22.611089508248 14.472810145234
11747 2 -1.200000000000 175.219998860134 19.322203761594 13.359517057139
11748 2 -1.200000000000 174.884328364234 21.788868071584 12.246223969045
11749 1 2.400000000000 169.177929933923 23.022200226580 13.359517057139
11750 1 2.400000000000 170.184941421625 24.666643099907 10.019637792855
11751 1 2.400000000000 171.191952909327 26.311085973234 13.359517057139
11752 1 2.400000000000 172.870305388830 23.022200226580 12.246223969045
11753 2 -1.200000000000 170.856282413426 24.255532381575 12.246223969045
11754 2 -1.200000000000 170.520611917525 26.722196691566 11.132930880950
11755 2 -1.200000000000 172.198964397029 23.433310944912 10.019637792855
11756 2 -1.200000000000 171.863293901128 25.899975254902 8.906344704760
11757 2 -1.200000000000 173.205975884730 25.077753818239 13.359517057139
11758 2 -1.200000000000 172.870305388830 27.544418128229 12.246223969045
11759 2 -1.200000000000 174.548657868333 24.255532381575 11.132930880950
11760 2 -1.200000000000 174.212987372432 26.722196691566 10.019637792855
11761 1 2.400000000000 168.506588942121 27.955528846561 11.132930880950
11762 1 2.400000000000 169.513600429823 29.599971719888 7.793051616665
11763 1 2.400000000000 170.520611917525 31.244414593215 11.132930880950
11764 1 2.400000000000 172.198964397029 27.955528846561 10.019637792855
11765 2 -1.200000000000 170.184941421625 29.188861001556 10.019637792855
11766 2 -1.200000000000 169.849270925724 31.655525311547 8.906344704760
11767 2 -1.200000000000 171.527623405227 28.366639564893 7.793051616665
11768 2 -1.200000000000 171.191952909327 30.833303874884 6.679758528570
11769 2 -1.200000000000 172.534634892929 30.011082438220 11.132930880950
11770 2 -1.200000000000 172.198964397028 32.477746748211 10.019637792855
11771 2 -1.200000000000 173.877316876532 29.188861001556 8.906344704760
11772 2 -1.200000000000 173.541646380631 31.655525311547 7.793051616665
11773 1 2.400000000000 167.835247950320 32.888857466542 8.906344704760
11774 1 2.400000000000 168.842259438022 34.533300339870 5.566465440475
11775 1 2.400000000000 169.849270925724 0.000000000000 8.906344704760
11776 1 2.400000000000 171.527623405227 32.888857466542 7.793051616665
11777 2 -1.200000000000 169.513600429823 34.122189621538 7.793051616665
11778 2 -1.200000000000 169.177929933923 0.411110718332 6.679758528570
11779 2 -1.200000000000 170.856282413426 33.299968184874 5.566465440475
11780 2 -1.200000000000 170.520611917525 35.766632494865 4.453172352380
11781 2 -1.200000000000 171.863293901128 34.944411058201 8.906344704760
11782 2 -1.200000000000 171.527623405227 1.233332154995 7.793051616665
11783 2 -1.200000000000 173.205975884730 34.122189621538 6.679758528570
11784 2 -1.200000000000 172.870305388830 0.411110718332 5.566465440475
11785 1 2.400000000000 171.191952909327 26.311085973234 6.679758528570
11786 1 2.400000000000 172.198964397028 27.955528846561 3.339879264285
11787 1 2.400000000000 173.205975884730 29.599971719888 6.679758528570
11788 1 2.400000000000 174.884328364234 26.311085973234 5.566465440475
11789 2 -1.200000000000 172.870305388830 27.544418128229 5.566465440475
11790 2 -1.200000000000 172.534634892929 30.011082438220 4.453172352380
11791 2 -1.200000000000 174.212987372432 26.722196691566 3.339879264285
11792 2 -1.200000000000 173.877316876532 29.188861001556 2.226586176190
11793 2 -1.200000000000 175.219998860134 28.366639564893 6.679758528570
11794 2 -1.200000000000 174.884328364234 30.833303874884 5.566465440475
11795 2 -1.200000000000 176.562680843737 27.544418128229 4.453172352380
11796 2 -1.200000000000 176.227010347836 30.011082438220 3.339879264285
11797 1 2.400000000000 170.520611917525 31.244414593215 4.453172352380
11798 1 2.400000000000 171.527623405227 32.888857466542 1.113293088095
11799 1 2.400000000000 172.534634892929 34.533300339870 4.453172352380
11800 1 2.400000000000 174.212987372432 31.244414593215 3.339879264285
11801 2 -1.200000000000 172.198964397029 32.477746748211 3.339879264285
11802 2 -1.200000000000 171.863293901128 34.944411058201 2.226586176190
11803 2 -1.200000000000 173.541646380631 31.655525311547 1.113293088095
11804 2 -1.200000000000 173.205975884730 34.122189621538 0.000000000000
11805 2 -1.200000000000 174.548657868333 33.299968184874 4.453172352380
11806 2 -1.200000000000 174.212987372432 35.766632494865 3.339879264285
11807 2 -1.200000000000 175.891339851936 32.477746748211 2.226586176190
11808 2 -1.200000000000 175.555669356035 34.944411058201 1.113293088095
11809 1 2.400000000000 168.506588942121 27.955528846561 24.492447938089
11810 1 2.400000000000 169.513600429823 29.599971719888 21.152568673804
11811 1 2.400000000000 170.520611917525 31.244414593215 24.492447938089
11812 1 2.400000000000 172.198964397028 27.955528846561 23.379154849994
11813 2 -1.200000000000 170.184941421625 29.188861001556 23.379154849994
11814 2 -1.200000000000 169.849270925724 31.655525311547 22.265861761899
11815 2 -1.200000000000 171.527623405227 28.366639564893 21.152568673804
11816 2 -1.200000000000 171.191952909327 30.833303874884 20.039275585709
11817 2 -1.200000000000 172.534634892929 30.011082438220 24.492447938089
11818 2 -1.200000000000 172.198964397029 32.477746748211 23.379154849994
11819 2 -1.200000000000 173.877316876532 29.188861001556 22.265861761899
11820 2 -1.200000000000 173.541646380631 31.655525311547 21.152568673804
11821 1 2.400000000000 167.835247950320 32.888857466542 22.265861761899
11822 1 2.400000000000 168.842259438022 34.533300339870 18.925982497614
11823 1 2.400000000000 169.849270925724 0.000000000000 22.265861761899
11824 1 2.400000000000 171.527623405227 32.888857466542 21.152568673804
11825 2 -1.200000000000 169.513600429823 34.122189621538 21.152568673804
11826 2 -1.200000000000 169.177929933923 0.411110718332 20.039275585709
11827 2 -1.200000000000 170.856282413426 33.299968184874 18.925982497614
11828 2 -1.200000000000 170.520611917525 35.766632494865 17.812689409519
11829 2 -1.200000000000 171.863293901128 34.944411058201 22.265861761899
11830 2 -1.200000000000 171.527623405227 1.233332154995 21.152568673804
11831 2 -1.200000000000 173.205975884730 34.122189621538 20.039275585709
11832 2 -1.200000000000 172.870305388830 0.411110718332 18.925982497614
11833 1 2.400000000000 171.191952909327 26.311085973234 20.039275585709
11834 1 2.400000000000 172.198964397029 27.955528846561 16.699396321424
11835 1 2.400000000000 173.205975884730 29.599971719888 20.039275585709
11836 1 2.400000000000 174.884328364234 26.311085973234 18.925982497614
11837 2 -1.200000000000 172.870305388830 27.544418128229 18.925982497614
11838 2 -1.200000000000 172.534634892929 30.011082438220 17.812689409519
11839 2 -1.200000000000 174.212987372432 26.722196691566 16.699396321424
11840 2 -1.200000000000 173.877316876532 29.188861001556 15.586103233329
11841 2 -1.200000000000 175.219998860134 28.366639564893 20.039275585709
11842 2 -1.200000000000 174.884328364234 30.833303874884 18.925982497614
11843 2 -1.200000000000 176.562680843737 27.544418128229 17.812689409519
11844 2 -1.200000000000 176.227010347836 30.011082438220 16.699396321424
11845 1 2.400000000000 170.520611917525 31.244414593215 17.812689409519
11846 1 2.400000000000 171.527623405227 32.888857466542 14.472810145234
11847 1 2.400000000000 172.534634892929 34.533300339870 17.812689409519
11848 1 2.400000000000 174.212987372432 31.244414593215 16.699396321424
11849 2 -1.200000000000 172.198964397028 32.477746748211 16.699396321424
11850 2 -1.200000000000 171.863293901128 34.944411058201 15.586103233329
11851 2 -1.200000000000 173.541646380631 31.655525311547 14.472810145234
11852 2 -1.200000000000 173.205975884730 34.122189621538 13.359517057139
11853 2 -1.200000000000 174.548657868333 33.299968184874 17.812689409519
11854 2 -1.200000000000 174.212987372432 35.766632494865 16.699396321424
11855 2 -1.200000000000 175.891339851936 32.477746748211 15.586103233329
11856 2 -1.200000000000 175.555669356035 34.944411058201 14.472810145234
