Crystalline OU atoms

5940 atoms
2 atom types
0.000000000000 133.595170571395 xlo xhi
0.000000000000 28.339815313442 ylo yhi
0.000000000000 23.139362307549 zlo zhi

Atoms

1 1 2.400000000000 6.679758528570 0.000000000000 3.856560384591
2 1 2.400000000000 5.566465440475 3.148868368160 1.928280192296
3 1 2.400000000000 5.566465440475 3.148868368160 5.784840576887
4 1 2.400000000000 8.906344704760 3.148868368160 3.856560384591
5 2 -1.200000000000 6.679758528570 2.361651276120 3.856560384591
6 2 -1.200000000000 4.453172352380 3.936085460200 3.856560384591
7 2 -1.200000000000 7.793051616665 3.936085460200 1.928280192296
8 2 -1.200000000000 5.566465440475 5.510519644280 1.928280192296
9 2 -1.200000000000 7.793051616665 3.936085460200 5.784840576887
10 2 -1.200000000000 5.566465440475 5.510519644280 5.784840576887
11 2 -1.200000000000 8.906344704760 5.510519644280 3.856560384591
12 2 -1.200000000000 6.679758528570 7.084953828360 3.856560384591
13 1 2.400000000000 2.226586176190 3.148868368160 3.856560384591
14 1 2.400000000000 1.113293088095 6.297736736320 1.928280192296
15 1 2.400000000000 1.113293088095 6.297736736320 5.784840576887
16 1 2.400000000000 4.453172352380 6.297736736320 3.856560384591
17 2 -1.200000000000 2.226586176190 5.510519644280 3.856560384591
18 2 -1.200000000000 0.000000000000 7.084953828360 3.856560384591
19 2 -1.200000000000 3.339879264285 7.084953828360 1.928280192296
20 2 -1.200000000000 1.113293088095 8.659388012441 1.928280192296
21 2 -1.200000000000 3.339879264285 7.084953828360 5.784840576887
22 2 -1.200000000000 1.113293088095 8.659388012441 5.784840576887
23 2 -1.200000000000 4.453172352380 8.659388012441 3.856560384591
24 2 -1.200000000000 2.226586176190 10.233822196521 3.856560384591
25 1 2.400000000000 13.359517057139 0.000000000000 0.000000000000
26 1 2.400000000000 12.246223969044 3.148868368160 21.211082115253
27 1 2.400000000000 12.246223969045 3.148868368160 1.928280192296
28 1 2.400000000000 15.586103233329 3.148868368160 0.000000000000
29 2 -1.200000000000 13.359517057139 2.361651276120 0.000000000000
30 2 -1.200000000000 11.132930880950 3.936085460200 0.000000000000
31 2 -1.200000000000 14.472810145234 3.936085460200 21.211082115253
32 2 -1.200000000000 12.246223969045 5.510519644280 21.211082115253
33 2 -1.200000000000 14.472810145234 3.936085460200 1.928280192296
34 2 -1.200000000000 12.246223969045 5.510519644280 1.928280192296
35 2 -1.200000000000 15.586103233329 5.510519644280 0.000000000000
36 2 -1.200000000000 13.359517057139 7.084953828360 0.000000000000
37 1 2.400000000000 8.906344704760 3.148868368160 0.000000000000
38 1 2.400000000000 7.793051616665 6.297736736320 21.211082115253
39 1 2.400000000000 7.793051616665 6.297736736320 1.928280192296
40 1 2.400000000000 11.132930880950 6.297736736320 0.000000000000
41 2 -1.200000000000 8.906344704760 5.510519644280 0.000000000000
42 2 -1.200000000000 6.679758528570 7.084953828360 0.000000000000
43 2 -1.200000000000 10.019637792855 7.084953828360 21.211082115253
44 2 -1.200000000000 7.793051616665 8.659388012441 21.211082115253
45 2 -1.200000000000 10.019637792855 7.084953828360 1.928280192296
46 2 -1.200000000000 7.793051616665 8.659388012441 1.928280192296
47 2 -1.200000000000 11.132930880950 8.659388012441 0.000000000000
48 2 -1.200000000000 8.906344704760 10.233822196521 0.000000000000
49 1 2.400000000000 4.453172352380 6.297736736320 0.000000000000
50 1 2.400000000000 3.339879264285 9.446605104481 21.211082115253
51 1 2.400000000000 3.339879264285 9.446605104481 1.928280192296
52 1 2.400000000000 6.679758528570 9.446605104481 0.000000000000
53 2 -1.200000000000 4.453172352380 8.659388012441 0.000000000000
54 2 -1.200000000000 2.226586176190 10.233822196521 0.000000000000
55 2 -1.200000000000 5.566465440475 10.233822196521 21.211082115253
56 2 -1.200000000000 3.339879264285 11.808256380601 21.211082115253
57 2 -1.200000000000 5.566465440475 10.233822196521 1.928280192296
58 2 -1.200000000000 3.339879264285 11.808256380601 1.928280192296
59 2 -1.200000000000 6.679758528570 11.808256380601 0.000000000000
60 2 -1.200000000000 4.453172352380 13.382690564681 0.000000000000
61 1 2.400000000000 6.679758528570 0.000000000000 11.569681153774
62 1 2.400000000000 5.566465440475 3.148868368160 9.641400961479
63 1 2.400000000000 5.566465440475 3.148868368160 13.497961346070
64 1 2.400000000000 8.906344704760 3.148868368160 11.569681153774
65 2 -1.200000000000 6.679758528570 2.361651276120 11.569681153774
66 2 -1.200000000000 4.453172352380 3.936085460200 11.569681153774
67 2 -1.200000000000 7.793051616665 3.936085460200 9.641400961479
68 2 -1.200000000000 5.566465440475 5.510519644280 9.641400961479
69 2 -1.200000000000 7.793051616665 3.936085460200 13.497961346070
70 2 -1.200000000000 5.566465440475 5.510519644280 13.497961346070
71 2 -1.200000000000 8.906344704760 5.510519644280 11.569681153774
72 2 -1.200000000000 6.679758528570 7.084953828360 11.569681153774
73 1 2.400000000000 2.226586176190 3.148868368160 11.569681153774
74 1 2.400000000000 1.113293088095 6.297736736320 9.641400961479
75 1 2.400000000000 1.113293088095 6.297736736320 13.497961346070
76 1 2.400000000000 4.453172352380 6.297736736320 11.569681153774
77 2 -1.200000000000 2.226586176190 5.510519644280 11.569681153774
78 2 -1.200000000000 0.000000000000 7.084953828360 11.569681153774
79 2 -1.200000000000 3.339879264285 7.084953828360 9.641400961479
80 2 -1.200000000000 1.113293088095 8.659388012441 9.641400961479
81 2 -1.200000000000 3.339879264285 7.084953828360 13.497961346070
82 2 -1.200000000000 1.113293088095 8.659388012441 13.497961346070
83 2 -1.200000000000 4.453172352380 8.659388012441 11.569681153774
84 2 -1.200000000000 2.226586176190 10.233822196521 11.569681153774
85 1 2.400000000000 13.359517057139 0.000000000000 7.713120769183
86 1 2.400000000000 12.246223969045 3.148868368160 5.784840576887
87 1 2.400000000000 12.246223969045 3.148868368160 9.641400961479
88 1 2.400000000000 15.586103233329 3.148868368160 7.713120769183
89 2 -1.200000000000 13.359517057139 2.361651276120 7.713120769183
90 2 -1.200000000000 11.132930880950 3.936085460200 7.713120769183
91 2 -1.200000000000 14.472810145234 3.936085460200 5.784840576887
92 2 -1.200000000000 12.246223969045 5.510519644280 5.784840576887
93 2 -1.200000000000 14.472810145234 3.936085460200 9.641400961479
94 2 -1.200000000000 12.246223969045 5.510519644280 9.641400961479
95 2 -1.200000000000 15.586103233329 5.510519644280 7.713120769183
96 2 -1.200000000000 13.359517057139 7.084953828360 7.713120769183
97 1 2.400000000000 8.906344704760 3.148868368160 7.713120769183
98 1 2.400000000000 7.793051616665 6.297736736320 5.784840576887
99 1 2.400000000000 7.793051616665 6.297736736320 9.641400961479
100 1 2.400000000000 11.132930880950 6.297736736320 7.713120769183
101 2 -1.200000000000 8.906344704760 5.510519644280 7.713120769183
102 2 -1.200000000000 6.679758528570 7.084953828360 7.713120769183
103 2 -1.200000000000 10.019637792855 7.084953828360 5.784840576887
104 2 -1.200000000000 7.793051616665 8.659388012441 5.784840576887
105 2 -1.200000000000 10.019637792855 7.084953828360 9.641400961479
106 2 -1.200000000000 7.793051616665 8.659388012441 9.641400961479
107 2 -1.200000000000 11.132930880950 8.659388012441 7.713120769183
108 2 -1.200000000000 8.906344704760 10.233822196521 7.713120769183
109 1 2.400000000000 4.453172352380 6.297736736320 7.713120769183
110 1 2.400000000000 3.339879264285 9.446605104481 5.784840576887
111 1 2.400000000000 3.339879264285 9.446605104481 9.641400961479
112 1 2.400000000000 6.679758528570 9.446605104481 7.713120769183
113 2 -1.200000000000 4.453172352380 8.659388012441 7.713120769183
114 2 -1.200000000000 2.226586176190 10.233822196521 7.713120769183
115 2 -1.200000000000 5.566465440475 10.233822196521 5.784840576887
116 2 -1.200000000000 3.339879264285 11.808256380601 5.784840576887
117 2 -1.200000000000 5.566465440475 10.233822196521 9.641400961479
118 2 -1.200000000000 3.339879264285 11.808256380601 9.641400961479
119 2 -1.200000000000 6.679758528570 11.808256380601 7.713120769183
120 2 -1.200000000000 4.453172352380 13.382690564681 7.713120769183
121 1 2.400000000000 20.039275585709 0.000000000000 3.856560384591
122 1 2.400000000000 18.925982497614 3.148868368160 1.928280192296
123 1 2.400000000000 18.925982497614 3.148868368160 5.784840576887
124 1 2.400000000000 22.265861761899 3.148868368160 3.856560384591
125 2 -1.200000000000 20.039275585709 2.361651276120 3.856560384591
126 2 -1.200000000000 17.812689409519 3.936085460200 3.856560384591
127 2 -1.200000000000 21.152568673804 3.936085460200 1.928280192296
128 2 -1.200000000000 18.925982497614 5.510519644280 1.928280192296
129 2 -1.200000000000 21.152568673804 3.936085460200 5.784840576887
130 2 -1.200000000000 18.925982497614 5.510519644280 5.784840576887
131 2 -1.200000000000 22.265861761899 5.510519644280 3.856560384591
132 2 -1.200000000000 20.039275585709 7.084953828360 3.856560384591
133 1 2.400000000000 15.586103233329 3.148868368160 3.856560384591
134 1 2.400000000000 14.472810145234 6.297736736320 1.928280192296
135 1 2.400000000000 14.472810145234 6.297736736320 5.784840576887
136 1 2.400000000000 17.812689409519 6.297736736320 3.856560384591
137 2 -1.200000000000 15.586103233329 5.510519644280 3.856560384591
138 2 -1.200000000000 13.359517057139 7.084953828360 3.856560384591
139 2 -1.200000000000 16.699396321424 7.084953828360 1.928280192296
140 2 -1.200000000000 14.472810145234 8.659388012441 1.928280192296
141 2 -1.200000000000 16.699396321424 7.084953828360 5.784840576887
142 2 -1.200000000000 14.472810145234 8.659388012441 5.784840576887
143 2 -1.200000000000 17.812689409519 8.659388012441 3.856560384591
144 2 -1.200000000000 15.586103233329 10.233822196521 3.856560384591
145 1 2.400000000000 11.132930880950 6.297736736320 3.856560384591
146 1 2.400000000000 10.019637792855 9.446605104481 1.928280192296
147 1 2.400000000000 10.019637792855 9.446605104481 5.784840576887
148 1 2.400000000000 13.359517057139 9.446605104481 3.856560384591
149 2 -1.200000000000 11.132930880950 8.659388012441 3.856560384591
150 2 -1.200000000000 8.906344704760 10.233822196521 3.856560384591
151 2 -1.200000000000 12.246223969045 10.233822196521 1.928280192296
152 2 -1.200000000000 10.019637792855 11.808256380601 1.928280192296
153 2 -1.200000000000 12.246223969045 10.233822196521 5.784840576887
154 2 -1.200000000000 10.019637792855 11.808256380601 5.784840576887
155 2 -1.200000000000 13.359517057139 11.808256380601 3.856560384591
156 2 -1.200000000000 11.132930880950 13.382690564681 3.856560384591
157 1 2.400000000000 6.679758528570 9.446605104481 3.856560384591
158 1 2.400000000000 5.566465440475 12.595473472641 1.928280192296
159 1 2.400000000000 5.566465440475 12.595473472641 5.784840576887
160 1 2.400000000000 8.906344704760 12.595473472641 3.856560384591
161 2 -1.200000000000 6.679758528570 11.808256380601 3.856560384591
162 2 -1.200000000000 4.453172352380 13.382690564681 3.856560384591
163 2 -1.200000000000 7.793051616665 13.382690564681 1.928280192296
164 2 -1.200000000000 5.566465440475 14.957124748761 1.928280192296
165 2 -1.200000000000 7.793051616665 13.382690564681 5.784840576887
166 2 -1.200000000000 5.566465440475 14.957124748761 5.784840576887
167 2 -1.200000000000 8.906344704760 14.957124748761 3.856560384591
168 2 -1.200000000000 6.679758528570 16.531558932841 3.856560384591
169 1 2.400000000000 2.226586176190 12.595473472641 3.856560384591
170 1 2.400000000000 1.113293088095 15.744341840801 1.928280192296
171 1 2.400000000000 1.113293088095 15.744341840801 5.784840576887
172 1 2.400000000000 4.453172352380 15.744341840801 3.856560384591
173 2 -1.200000000000 2.226586176190 14.957124748761 3.856560384591
174 2 -1.200000000000 -0.000000000000 16.531558932841 3.856560384591
175 2 -1.200000000000 3.339879264285 16.531558932841 1.928280192296
176 2 -1.200000000000 1.113293088095 18.105993116921 1.928280192296
177 2 -1.200000000000 3.339879264285 16.531558932841 5.784840576887
178 2 -1.200000000000 1.113293088095 18.105993116921 5.784840576887
179 2 -1.200000000000 4.453172352380 18.105993116921 3.856560384591
180 2 -1.200000000000 2.226586176190 19.680427301001 3.856560384591
181 1 2.400000000000 26.719034114279 0.000000000000 0.000000000000
182 1 2.400000000000 25.605741026184 3.148868368160 21.211082115253
183 1 2.400000000000 25.605741026184 3.148868368160 1.928280192296
184 1 2.400000000000 28.945620290469 3.148868368160 0.000000000000
185 2 -1.200000000000 26.719034114279 2.361651276120 0.000000000000
186 2 -1.200000000000 24.492447938089 3.936085460200 0.000000000000
187 2 -1.200000000000 27.832327202374 3.936085460200 21.211082115253
188 2 -1.200000000000 25.605741026184 5.510519644280 21.211082115253
189 2 -1.200000000000 27.832327202374 3.936085460200 1.928280192296
190 2 -1.200000000000 25.605741026184 5.510519644280 1.928280192296
191 2 -1.200000000000 28.945620290469 5.510519644280 0.000000000000
192 2 -1.200000000000 26.719034114279 7.084953828360 0.000000000000
193 1 2.400000000000 22.265861761899 3.148868368160 0.000000000000
194 1 2.400000000000 21.152568673804 6.297736736320 21.211082115253
195 1 2.400000000000 21.152568673804 6.297736736320 1.928280192296
196 1 2.400000000000 24.492447938089 6.297736736320 0.000000000000
197 2 -1.200000000000 22.265861761899 5.510519644280 0.000000000000
198 2 -1.200000000000 20.039275585709 7.084953828360 0.000000000000
199 2 -1.200000000000 23.379154849994 7.084953828360 21.211082115253
200 2 -1.200000000000 21.152568673804 8.659388012441 21.211082115253
201 2 -1.200000000000 23.379154849994 7.084953828360 1.928280192296
202 2 -1.200000000000 21.152568673804 8.659388012441 1.928280192296
203 2 -1.200000000000 24.492447938089 8.659388012441 0.000000000000
204 2 -1.200000000000 22.265861761899 10.233822196521 0.000000000000
205 1 2.400000000000 17.812689409519 6.297736736320 0.000000000000
206 1 2.400000000000 16.699396321424 9.446605104481 21.211082115253
207 1 2.400000000000 16.699396321424 9.446605104481 1.928280192296
208 1 2.400000000000 20.039275585709 9.446605104481 0.000000000000
209 2 -1.200000000000 17.812689409519 8.659388012441 0.000000000000
210 2 -1.200000000000 15.586103233329 10.233822196521 0.000000000000
211 2 -1.200000000000 18.925982497614 10.233822196521 21.211082115253
212 2 -1.200000000000 16.699396321424 11.808256380601 21.211082115253
213 2 -1.200000000000 18.925982497614 10.233822196521 1.928280192296
214 2 -1.200000000000 16.699396321424 11.808256380601 1.928280192296
215 2 -1.200000000000 20.039275585709 11.808256380601 0.000000000000
216 2 -1.200000000000 17.812689409519 13.382690564681 0.000000000000
217 1 2.400000000000 13.359517057139 9.446605104481 0.000000000000
218 1 2.400000000000 12.246223969045 12.595473472641 21.211082115253
219 1 2.400000000000 12.246223969045 12.595473472641 1.928280192296
220 1 2.400000000000 15.586103233329 12.595473472641 0.000000000000
221 2 -1.200000000000 13.359517057139 11.808256380601 0.000000000000
222 2 -1.200000000000 11.132930880950 13.382690564681 0.000000000000
223 2 -1.200000000000 14.472810145234 13.382690564681 21.211082115253
224 2 -1.200000000000 12.246223969045 14.957124748761 21.211082115253
225 2 -1.200000000000 14.472810145234 13.382690564681 1.928280192296
226 2 -1.200000000000 12.246223969045 14.957124748761 1.928280192296
227 2 -1.200000000000 15.586103233329 14.957124748761 0.000000000000
228 2 -1.200000000000 13.359517057139 16.531558932841 0.000000000000
229 1 2.400000000000 8.906344704760 12.595473472641 0.000000000000
230 1 2.400000000000 7.793051616665 15.744341840801 21.211082115253
231 1 2.400000000000 7.793051616665 15.744341840801 1.928280192296
232 1 2.400000000000 11.132930880950 15.744341840801 0.000000000000
233 2 -1.200000000000 8.906344704760 14.957124748761 0.000000000000
234 2 -1.200000000000 6.679758528570 16.531558932841 0.000000000000
235 2 -1.200000000000 10.019637792855 16.531558932841 21.211082115253
236 2 -1.200000000000 7.793051616665 18.105993116921 21.211082115253
237 2 -1.200000000000 10.019637792855 16.531558932841 1.928280192296
238 2 -1.200000000000 7.793051616665 18.105993116921 1.928280192296
239 2 -1.200000000000 11.132930880950 18.105993116921 0.000000000000
240 2 -1.200000000000 8.906344704760 19.680427301001 0.000000000000
241 1 2.400000000000 4.453172352380 15.744341840801 0.000000000000
242 1 2.400000000000 3.339879264285 18.893210208961 21.211082115253
243 1 2.400000000000 3.339879264285 18.893210208961 1.928280192296
244 1 2.400000000000 6.679758528570 18.893210208961 0.000000000000
245 2 -1.200000000000 4.453172352380 18.105993116921 0.000000000000
246 2 -1.200000000000 2.226586176190 19.680427301001 0.000000000000
247 2 -1.200000000000 5.566465440475 19.680427301001 21.211082115253
248 2 -1.200000000000 3.339879264285 21.254861485081 21.211082115253
249 2 -1.200000000000 5.566465440475 19.680427301001 1.928280192296
250 2 -1.200000000000 3.339879264285 21.254861485081 1.928280192296
251 2 -1.200000000000 6.679758528570 21.254861485081 0.000000000000
252 2 -1.200000000000 4.453172352380 22.829295669162 0.000000000000
253 1 2.400000000000 6.679758528570 0.000000000000 19.282801922957
254 1 2.400000000000 5.566465440475 3.148868368160 17.354521730661
255 1 2.400000000000 5.566465440475 3.148868368160 21.211082115253
256 1 2.400000000000 8.906344704760 3.148868368160 19.282801922957
257 2 -1.200000000000 6.679758528570 2.361651276120 19.282801922957
258 2 -1.200000000000 4.453172352380 3.936085460200 19.282801922957
259 2 -1.200000000000 7.793051616665 3.936085460200 17.354521730661
260 2 -1.200000000000 5.566465440475 5.510519644280 17.354521730661
261 2 -1.200000000000 7.793051616665 3.936085460200 21.211082115253
262 2 -1.200000000000 5.566465440475 5.510519644280 21.211082115253
263 2 -1.200000000000 8.906344704760 5.510519644280 19.282801922957
264 2 -1.200000000000 6.679758528570 7.084953828360 19.282801922957
265 1 2.400000000000 2.226586176190 3.148868368160 19.282801922957
266 1 2.400000000000 1.113293088095 6.297736736320 17.354521730661
267 1 2.400000000000 1.113293088095 6.297736736320 21.211082115253
268 1 2.400000000000 4.453172352380 6.297736736320 19.282801922957
269 2 -1.200000000000 2.226586176190 5.510519644280 19.282801922957
270 2 -1.200000000000 -0.000000000000 7.084953828360 19.282801922957
271 2 -1.200000000000 3.339879264285 7.084953828360 17.354521730661
272 2 -1.200000000000 1.113293088095 8.659388012441 17.354521730661
273 2 -1.200000000000 3.339879264285 7.084953828360 21.211082115253
274 2 -1.200000000000 1.113293088095 8.659388012441 21.211082115253
275 2 -1.200000000000 4.453172352380 8.659388012441 19.282801922957
276 2 -1.200000000000 2.226586176190 10.233822196521 19.282801922957
277 1 2.400000000000 13.359517057139 0.000000000000 15.426241538366
278 1 2.400000000000 12.246223969044 3.148868368160 13.497961346070
279 1 2.400000000000 12.246223969044 3.148868368160 17.354521730661
280 1 2.400000000000 15.586103233329 3.148868368160 15.426241538366
281 2 -1.200000000000 13.359517057139 2.361651276120 15.426241538366
282 2 -1.200000000000 11.132930880950 3.936085460200 15.426241538366
283 2 -1.200000000000 14.472810145234 3.936085460200 13.497961346070
284 2 -1.200000000000 12.246223969044 5.510519644280 13.497961346070
285 2 -1.200000000000 14.472810145234 3.936085460200 17.354521730661
286 2 -1.200000000000 12.246223969044 5.510519644280 17.354521730661
287 2 -1.200000000000 15.586103233329 5.510519644280 15.426241538366
288 2 -1.200000000000 13.359517057139 7.084953828360 15.426241538366
289 1 2.400000000000 8.906344704760 3.148868368160 15.426241538366
290 1 2.400000000000 7.793051616665 6.297736736320 13.497961346070
291 1 2.400000000000 7.793051616665 6.297736736320 17.354521730661
292 1 2.400000000000 11.132930880950 6.297736736320 15.426241538366
293 2 -1.200000000000 8.906344704760 5.510519644280 15.426241538366
294 2 -1.200000000000 6.679758528570 7.084953828360 15.426241538366
295 2 -1.200000000000 10.019637792855 7.084953828360 13.497961346070
296 2 -1.200000000000 7.793051616665 8.659388012441 13.497961346070
297 2 -1.200000000000 10.019637792855 7.084953828360 17.354521730661
298 2 -1.200000000000 7.793051616665 8.659388012441 17.354521730661
299 2 -1.200000000000 11.132930880950 8.659388012441 15.426241538366
300 2 -1.200000000000 8.906344704760 10.233822196521 15.426241538366
301 1 2.400000000000 4.453172352380 6.297736736320 15.426241538366
302 1 2.400000000000 3.339879264285 9.446605104481 13.497961346070
303 1 2.400000000000 3.339879264285 9.446605104481 17.354521730661
304 1 2.400000000000 6.679758528570 9.446605104481 15.426241538366
305 2 -1.200000000000 4.453172352380 8.659388012441 15.426241538366
306 2 -1.200000000000 2.226586176190 10.233822196521 15.426241538366
307 2 -1.200000000000 5.566465440475 10.233822196521 13.497961346070
308 2 -1.200000000000 3.339879264285 11.808256380601 13.497961346070
309 2 -1.200000000000 5.566465440475 10.233822196521 17.354521730661
310 2 -1.200000000000 3.339879264285 11.808256380601 17.354521730661
311 2 -1.200000000000 6.679758528570 11.808256380601 15.426241538366
312 2 -1.200000000000 4.453172352380 13.382690564681 15.426241538366
313 1 2.400000000000 20.039275585709 0.000000000000 11.569681153774
314 1 2.400000000000 18.925982497614 3.148868368160 9.641400961479
315 1 2.400000000000 18.925982497614 3.148868368160 13.497961346070
316 1 2.400000000000 22.265861761899 3.148868368160 11.569681153774
317 2 -1.200000000000 20.039275585709 2.361651276120 11.569681153774
318 2 -1.200000000000 17.812689409519 3.936085460200 11.569681153774
319 2 -1.200000000000 21.152568673804 3.936085460200 9.641400961479
320 2 -1.200000000000 18.925982497614 5.510519644280 9.641400961479
321 2 -1.200000000000 21.152568673804 3.936085460200 13.497961346070
322 2 -1.200000000000 18.925982497614 5.510519644280 13.497961346070
323 2 -1.200000000000 22.265861761899 5.510519644280 11.569681153774
324 2 -1.200000000000 20.039275585709 7.084953828360 11.569681153774
325 1 2.400000000000 15.586103233329 3.148868368160 11.569681153774
326 1 2.400000000000 14.472810145234 6.297736736320 9.641400961479
327 1 2.400000000000 14.472810145234 6.297736736320 13.497961346070
328 1 2.400000000000 17.812689409519 6.297736736320 11.569681153774
329 2 -1.200000000000 15.586103233329 5.510519644280 11.569681153774
330 2 -1.200000000000 13.359517057139 7.084953828360 11.569681153774
331 2 -1.200000000000 16.699396321424 7.084953828360 9.641400961479
332 2 -1.200000000000 14.472810145234 8.659388012441 9.641400961479
333 2 -1.200000000000 16.699396321424 7.084953828360 13.497961346070
334 2 -1.200000000000 14.472810145234 8.659388012441 13.497961346070
335 2 -1.200000000000 17.812689409519 8.659388012441 11.569681153774
336 2 -1.200000000000 15.586103233329 10.233822196521 11.569681153774
337 1 2.400000000000 11.132930880950 6.297736736320 11.569681153774
338 1 2.400000000000 10.019637792855 9.446605104481 9.641400961479
339 1 2.400000000000 10.019637792855 9.446605104481 13.497961346070
340 1 2.400000000000 13.359517057139 9.446605104481 11.569681153774
341 2 -1.200000000000 11.132930880950 8.659388012441 11.569681153774
342 2 -1.200000000000 8.906344704760 10.233822196521 11.569681153774
343 2 -1.200000000000 12.246223969044 10.233822196521 9.641400961479
344 2 -1.200000000000 10.019637792855 11.808256380601 9.641400961479
345 2 -1.200000000000 12.246223969045 10.233822196521 13.497961346070
346 2 -1.200000000000 10.019637792855 11.808256380601 13.497961346070
347 2 -1.200000000000 13.359517057139 11.808256380601 11.569681153774
348 2 -1.200000000000 11.132930880950 13.382690564681 11.569681153774
349 1 2.400000000000 6.679758528570 9.446605104481 11.569681153774
350 1 2.400000000000 5.566465440475 12.595473472641 9.641400961479
351 1 2.400000000000 5.566465440475 12.595473472641 13.497961346070
352 1 2.400000000000 8.906344704760 12.595473472641 11.569681153774
353 2 -1.200000000000 6.679758528570 11.808256380601 11.569681153774
354 2 -1.200000000000 4.453172352380 13.382690564681 11.569681153774
355 2 -1.200000000000 7.793051616665 13.382690564681 9.641400961479
356 2 -1.200000000000 5.566465440475 14.957124748761 9.641400961479
357 2 -1.200000000000 7.793051616665 13.382690564681 13.497961346070
358 2 -1.200000000000 5.566465440475 14.957124748761 13.497961346070
359 2 -1.200000000000 8.906344704760 14.957124748761 11.569681153774
360 2 -1.200000000000 6.679758528570 16.531558932841 11.569681153774
361 1 2.400000000000 2.226586176190 12.595473472641 11.569681153774
362 1 2.400000000000 1.113293088095 15.744341840801 9.641400961479
363 1 2.400000000000 1.113293088095 15.744341840801 13.497961346070
364 1 2.400000000000 4.453172352380 15.744341840801 11.569681153774
365 2 -1.200000000000 2.226586176190 14.957124748761 11.569681153774
366 2 -1.200000000000 -0.000000000000 16.531558932841 11.569681153774
367 2 -1.200000000000 3.339879264285 16.531558932841 9.641400961479
368 2 -1.200000000000 1.113293088095 18.105993116921 9.641400961479
369 2 -1.200000000000 3.339879264285 16.531558932841 13.497961346070
370 2 -1.200000000000 1.113293088095 18.105993116921 13.497961346070
371 2 -1.200000000000 4.453172352380 18.105993116921 11.569681153774
372 2 -1.200000000000 2.226586176190 19.680427301001 11.569681153774
373 1 2.400000000000 26.719034114279 0.000000000000 7.713120769183
374 1 2.400000000000 25.605741026184 3.148868368160 5.784840576887
375 1 2.400000000000 25.605741026184 3.148868368160 9.641400961479
376 1 2.400000000000 28.945620290469 3.148868368160 7.713120769183
377 2 -1.200000000000 26.719034114279 2.361651276120 7.713120769183
378 2 -1.200000000000 24.492447938089 3.936085460200 7.713120769183
379 2 -1.200000000000 27.832327202374 3.936085460200 5.784840576887
380 2 -1.200000000000 25.605741026184 5.510519644280 5.784840576887
381 2 -1.200000000000 27.832327202374 3.936085460200 9.641400961479
382 2 -1.200000000000 25.605741026184 5.510519644280 9.641400961479
383 2 -1.200000000000 28.945620290469 5.510519644280 7.713120769183
384 2 -1.200000000000 26.719034114279 7.084953828360 7.713120769183
385 1 2.400000000000 22.265861761899 3.148868368160 7.713120769183
386 1 2.400000000000 21.152568673804 6.297736736320 5.784840576887
387 1 2.400000000000 21.152568673804 6.297736736320 9.641400961479
388 1 2.400000000000 24.492447938089 6.297736736320 7.713120769183
389 2 -1.200000000000 22.265861761899 5.510519644280 7.713120769183
390 2 -1.200000000000 20.039275585709 7.084953828360 7.713120769183
391 2 -1.200000000000 23.379154849994 7.084953828360 5.784840576887
392 2 -1.200000000000 21.152568673804 8.659388012441 5.784840576887
393 2 -1.200000000000 23.379154849994 7.084953828360 9.641400961479
394 2 -1.200000000000 21.152568673804 8.659388012441 9.641400961479
395 2 -1.200000000000 24.492447938089 8.659388012441 7.713120769183
396 2 -1.200000000000 22.265861761899 10.233822196521 7.713120769183
397 1 2.400000000000 17.812689409519 6.297736736320 7.713120769183
398 1 2.400000000000 16.699396321424 9.446605104481 5.784840576887
399 1 2.400000000000 16.699396321424 9.446605104481 9.641400961479
400 1 2.400000000000 20.039275585709 9.446605104481 7.713120769183
401 2 -1.200000000000 17.812689409519 8.659388012441 7.713120769183
402 2 -1.200000000000 15.586103233329 10.233822196521 7.713120769183
403 2 -1.200000000000 18.925982497614 10.233822196521 5.784840576887
404 2 -1.200000000000 16.699396321424 11.808256380601 5.784840576887
405 2 -1.200000000000 18.925982497614 10.233822196521 9.641400961479
406 2 -1.200000000000 16.699396321424 11.808256380601 9.641400961479
407 2 -1.200000000000 20.039275585709 11.808256380601 7.713120769183
408 2 -1.200000000000 17.812689409519 13.382690564681 7.713120769183
409 1 2.400000000000 13.359517057139 9.446605104481 7.713120769183
410 1 2.400000000000 12.246223969045 12.595473472641 5.784840576887
411 1 2.400000000000 12.246223969045 12.595473472641 9.641400961479
412 1 2.400000000000 15.586103233329 12.595473472641 7.713120769183
413 2 -1.200000000000 13.359517057139 11.808256380601 7.713120769183
414 2 -1.200000000000 11.132930880950 13.382690564681 7.713120769183
415 2 -1.200000000000 14.472810145234 13.382690564681 5.784840576887
416 2 -1.200000000000 12.246223969044 14.957124748761 5.784840576887
417 2 -1.200000000000 14.472810145234 13.382690564681 9.641400961479
418 2 -1.200000000000 12.246223969044 14.957124748761 9.641400961479
419 2 -1.200000000000 15.586103233329 14.957124748761 7.713120769183
420 2 -1.200000000000 13.359517057139 16.531558932841 7.713120769183
421 1 2.400000000000 8.906344704760 12.595473472641 7.713120769183
422 1 2.400000000000 7.793051616665 15.744341840801 5.784840576887
423 1 2.400000000000 7.793051616665 15.744341840801 9.641400961479
424 1 2.400000000000 11.132930880950 15.744341840801 7.713120769183
425 2 -1.200000000000 8.906344704760 14.957124748761 7.713120769183
426 2 -1.200000000000 6.679758528570 16.531558932841 7.713120769183
427 2 -1.200000000000 10.019637792855 16.531558932841 5.784840576887
428 2 -1.200000000000 7.793051616665 18.105993116921 5.784840576887
429 2 -1.200000000000 10.019637792855 16.531558932841 9.641400961479
430 2 -1.200000000000 7.793051616665 18.105993116921 9.641400961479
431 2 -1.200000000000 11.132930880950 18.105993116921 7.713120769183
432 2 -1.200000000000 8.906344704760 19.680427301001 7.713120769183
433 1 2.400000000000 4.453172352380 15.744341840801 7.713120769183
434 1 2.400000000000 3.339879264285 18.893210208961 5.784840576887
435 1 2.400000000000 3.339879264285 18.893210208961 9.641400961479
436 1 2.400000000000 6.679758528570 18.893210208961 7.713120769183
437 2 -1.200000000000 4.453172352380 18.105993116921 7.713120769183
438 2 -1.200000000000 2.226586176190 19.680427301001 7.713120769183
439 2 -1.200000000000 5.566465440475 19.680427301001 5.784840576887
440 2 -1.200000000000 3.339879264285 21.254861485081 5.784840576887
441 2 -1.200000000000 5.566465440475 19.680427301001 9.641400961479
442 2 -1.200000000000 3.339879264285 21.254861485081 9.641400961479
443 2 -1.200000000000 6.679758528570 21.254861485081 7.713120769183
444 2 -1.200000000000 4.453172352380 22.829295669162 7.713120769183
445 1 2.400000000000 33.398792642849 0.000000000000 3.856560384591
446 1 2.400000000000 32.285499554754 3.148868368160 1.928280192296
447 1 2.400000000000 32.285499554754 3.148868368160 5.784840576887
448 1 2.400000000000 35.625378819039 3.148868368160 3.856560384591
449 2 -1.200000000000 33.398792642849 2.361651276120 3.856560384591
450 2 -1.200000000000 31.172206466659 3.936085460200 3.856560384591
451 2 -1.200000000000 34.512085730944 3.936085460200 1.928280192296
452 2 -1.200000000000 32.285499554754 5.510519644280 1.928280192296
453 2 -1.200000000000 34.512085730944 3.936085460200 5.784840576887
454 2 -1.200000000000 32.285499554754 5.510519644280 5.784840576887
455 2 -1.200000000000 35.625378819039 5.510519644280 3.856560384591
456 2 -1.200000000000 33.398792642849 7.084953828360 3.856560384591
457 1 2.400000000000 28.945620290469 3.148868368160 3.856560384591
458 1 2.400000000000 27.832327202374 6.297736736320 1.928280192296
459 1 2.400000000000 27.832327202374 6.297736736320 5.784840576887
460 1 2.400000000000 31.172206466659 6.297736736320 3.856560384591
461 2 -1.200000000000 28.945620290469 5.510519644280 3.856560384591
462 2 -1.200000000000 26.719034114279 7.084953828360 3.856560384591
463 2 -1.200000000000 30.058913378564 7.084953828360 1.928280192296
464 2 -1.200000000000 27.832327202374 8.659388012441 1.928280192296
465 2 -1.200000000000 30.058913378564 7.084953828360 5.784840576887
466 2 -1.200000000000 27.832327202374 8.659388012441 5.784840576887
467 2 -1.200000000000 31.172206466659 8.659388012441 3.856560384591
468 2 -1.200000000000 28.945620290469 10.233822196521 3.856560384591
469 1 2.400000000000 24.492447938089 6.297736736320 3.856560384591
470 1 2.400000000000 23.379154849994 9.446605104481 1.928280192296
471 1 2.400000000000 23.379154849994 9.446605104481 5.784840576887
472 1 2.400000000000 26.719034114279 9.446605104481 3.856560384591
473 2 -1.200000000000 24.492447938089 8.659388012441 3.856560384591
474 2 -1.200000000000 22.265861761899 10.233822196521 3.856560384591
475 2 -1.200000000000 25.605741026184 10.233822196521 1.928280192296
476 2 -1.200000000000 23.379154849994 11.808256380601 1.928280192296
477 2 -1.200000000000 25.605741026184 10.233822196521 5.784840576887
478 2 -1.200000000000 23.379154849994 11.808256380601 5.784840576887
479 2 -1.200000000000 26.719034114279 11.808256380601 3.856560384591
480 2 -1.200000000000 24.492447938089 13.382690564681 3.856560384591
481 1 2.400000000000 20.039275585709 9.446605104481 3.856560384591
482 1 2.400000000000 18.925982497614 12.595473472641 1.928280192296
483 1 2.400000000000 18.925982497614 12.595473472641 5.784840576887
484 1 2.400000000000 22.265861761899 12.595473472641 3.856560384591
485 2 -1.200000000000 20.039275585709 11.808256380601 3.856560384591
486 2 -1.200000000000 17.812689409519 13.382690564681 3.856560384591
487 2 -1.200000000000 21.152568673804 13.382690564681 1.928280192296
488 2 -1.200000000000 18.925982497614 14.957124748761 1.928280192296
489 2 -1.200000000000 21.152568673804 13.382690564681 5.784840576887
490 2 -1.200000000000 18.925982497614 14.957124748761 5.784840576887
491 2 -1.200000000000 22.265861761899 14.957124748761 3.856560384591
492 2 -1.200000000000 20.039275585709 16.531558932841 3.856560384591
493 1 2.400000000000 15.586103233329 12.595473472641 3.856560384591
494 1 2.400000000000 14.472810145234 15.744341840801 1.928280192296
495 1 2.400000000000 14.472810145234 15.744341840801 5.784840576887
496 1 2.400000000000 17.812689409519 15.744341840801 3.856560384591
497 2 -1.200000000000 15.586103233329 14.957124748761 3.856560384591
498 2 -1.200000000000 13.359517057139 16.531558932841 3.856560384591
499 2 -1.200000000000 16.699396321424 16.531558932841 1.928280192296
500 2 -1.200000000000 14.472810145234 18.105993116921 1.928280192296
501 2 -1.200000000000 16.699396321424 16.531558932841 5.784840576887
502 2 -1.200000000000 14.472810145234 18.105993116921 5.784840576887
503 2 -1.200000000000 17.812689409519 18.105993116921 3.856560384591
504 2 -1.200000000000 15.586103233329 19.680427301001 3.856560384591
505 1 2.400000000000 11.132930880950 15.744341840801 3.856560384591
506 1 2.400000000000 10.019637792855 18.893210208961 1.928280192296
507 1 2.400000000000 10.019637792855 18.893210208961 5.784840576887
508 1 2.400000000000 13.359517057139 18.893210208961 3.856560384591
509 2 -1.200000000000 11.132930880950 18.105993116921 3.856560384591
510 2 -1.200000000000 8.906344704760 19.680427301001 3.856560384591
511 2 -1.200000000000 12.246223969045 19.680427301001 1.928280192296
512 2 -1.200000000000 10.019637792855 21.254861485081 1.928280192296
513 2 -1.200000000000 12.246223969045 19.680427301001 5.784840576887
514 2 -1.200000000000 10.019637792855 21.254861485081 5.784840576887
515 2 -1.200000000000 13.359517057139 21.254861485081 3.856560384591
516 2 -1.200000000000 11.132930880950 22.829295669162 3.856560384591
517 1 2.400000000000 6.679758528570 18.893210208961 3.856560384591
518 1 2.400000000000 5.566465440475 22.042078577122 1.928280192296
519 1 2.400000000000 5.566465440475 22.042078577122 5.784840576887
520 1 2.400000000000 8.906344704760 22.042078577122 3.856560384591
521 2 -1.200000000000 6.679758528570 21.254861485081 3.856560384591
522 2 -1.200000000000 4.453172352380 22.829295669162 3.856560384591
523 2 -1.200000000000 7.793051616665 22.829295669162 1.928280192296
524 2 -1.200000000000 5.566465440475 24.403729853242 1.928280192296
525 2 -1.200000000000 7.793051616665 22.829295669162 5.784840576887
526 2 -1.200000000000 5.566465440475 24.403729853242 5.784840576887
527 2 -1.200000000000 8.906344704760 24.403729853242 3.856560384591
528 2 -1.200000000000 6.679758528570 25.978164037322 3.856560384591
529 1 2.400000000000 2.226586176190 22.042078577122 3.856560384591
530 1 2.400000000000 1.113293088095 25.190946945282 1.928280192296
531 1 2.400000000000 1.113293088095 25.190946945282 5.784840576887
532 1 2.400000000000 4.453172352380 25.190946945282 3.856560384591
533 2 -1.200000000000 2.226586176190 24.403729853242 3.856560384591
534 2 -1.200000000000 -0.000000000000 25.978164037322 3.856560384591
535 2 -1.200000000000 3.339879264285 25.978164037322 1.928280192296
536 2 -1.200000000000 1.113293088095 27.552598221402 1.928280192296
537 2 -1.200000000000 3.339879264285 25.978164037322 5.784840576887
538 2 -1.200000000000 1.113293088095 27.552598221402 5.784840576887
539 2 -1.200000000000 4.453172352380 27.552598221402 3.856560384591
540 2 -1.200000000000 2.226586176190 0.787217092040 3.856560384591
541 1 2.400000000000 40.078551171418 0.000000000000 0.000000000000
542 1 2.400000000000 38.965258083323 3.148868368160 21.211082115253
543 1 2.400000000000 38.965258083323 3.148868368160 1.928280192296
544 1 2.400000000000 42.305137347608 3.148868368160 0.000000000000
545 2 -1.200000000000 40.078551171418 2.361651276120 0.000000000000
546 2 -1.200000000000 37.851964995228 3.936085460200 0.000000000000
547 2 -1.200000000000 41.191844259513 3.936085460200 21.211082115253
548 2 -1.200000000000 38.965258083323 5.510519644280 21.211082115253
549 2 -1.200000000000 41.191844259513 3.936085460200 1.928280192296
550 2 -1.200000000000 38.965258083323 5.510519644280 1.928280192296
551 2 -1.200000000000 42.305137347608 5.510519644280 0.000000000000
552 2 -1.200000000000 40.078551171418 7.084953828360 0.000000000000
553 1 2.400000000000 35.625378819039 3.148868368160 0.000000000000
554 1 2.400000000000 34.512085730944 6.297736736320 21.211082115253
555 1 2.400000000000 34.512085730944 6.297736736320 1.928280192296
556 1 2.400000000000 37.851964995228 6.297736736320 0.000000000000
557 2 -1.200000000000 35.625378819039 5.510519644280 0.000000000000
558 2 -1.200000000000 33.398792642849 7.084953828360 0.000000000000
559 2 -1.200000000000 36.738671907134 7.084953828360 21.211082115253
560 2 -1.200000000000 34.512085730944 8.659388012441 21.211082115253
561 2 -1.200000000000 36.738671907134 7.084953828360 1.928280192296
562 2 -1.200000000000 34.512085730944 8.659388012441 1.928280192296
563 2 -1.200000000000 37.851964995228 8.659388012441 0.000000000000
564 2 -1.200000000000 35.625378819039 10.233822196521 0.000000000000
565 1 2.400000000000 31.172206466659 6.297736736320 0.000000000000
566 1 2.400000000000 30.058913378564 9.446605104481 21.211082115253
567 1 2.400000000000 30.058913378564 9.446605104481 1.928280192296
568 1 2.400000000000 33.398792642849 9.446605104481 0.000000000000
569 2 -1.200000000000 31.172206466659 8.659388012441 0.000000000000
570 2 -1.200000000000 28.945620290469 10.233822196521 0.000000000000
571 2 -1.200000000000 32.285499554754 10.233822196521 21.211082115253
572 2 -1.200000000000 30.058913378564 11.808256380601 21.211082115253
573 2 -1.200000000000 32.285499554754 10.233822196521 1.928280192296
574 2 -1.200000000000 30.058913378564 11.808256380601 1.928280192296
575 2 -1.200000000000 33.398792642849 11.808256380601 0.000000000000
576 2 -1.200000000000 31.172206466659 13.382690564681 0.000000000000
577 1 2.400000000000 26.719034114279 9.446605104481 0.000000000000
578 1 2.400000000000 25.605741026184 12.595473472641 21.211082115253
579 1 2.400000000000 25.605741026184 12.595473472641 1.928280192296
580 1 2.400000000000 28.945620290469 12.595473472641 0.000000000000
581 2 -1.200000000000 26.719034114279 11.808256380601 0.000000000000
582 2 -1.200000000000 24.492447938089 13.382690564681 0.000000000000
583 2 -1.200000000000 27.832327202374 13.382690564681 21.211082115253
584 2 -1.200000000000 25.605741026184 14.957124748761 21.211082115253
585 2 -1.200000000000 27.832327202374 13.382690564681 1.928280192296
586 2 -1.200000000000 25.605741026184 14.957124748761 1.928280192296
587 2 -1.200000000000 28.945620290469 14.957124748761 0.000000000000
588 2 -1.200000000000 26.719034114279 16.531558932841 0.000000000000
589 1 2.400000000000 22.265861761899 12.595473472641 0.000000000000
590 1 2.400000000000 21.152568673804 15.744341840801 21.211082115253
591 1 2.400000000000 21.152568673804 15.744341840801 1.928280192296
592 1 2.400000000000 24.492447938089 15.744341840801 0.000000000000
593 2 -1.200000000000 22.265861761899 14.957124748761 0.000000000000
594 2 -1.200000000000 20.039275585709 16.531558932841 0.000000000000
595 2 -1.200000000000 23.379154849994 16.531558932841 21.211082115253
596 2 -1.200000000000 21.152568673804 18.105993116921 21.211082115253
597 2 -1.200000000000 23.379154849994 16.531558932841 1.928280192296
598 2 -1.200000000000 21.152568673804 18.105993116921 1.928280192296
599 2 -1.200000000000 24.492447938089 18.105993116921 0.000000000000
600 2 -1.200000000000 22.265861761899 19.680427301001 0.000000000000
601 1 2.400000000000 17.812689409519 15.744341840801 0.000000000000
602 1 2.400000000000 16.699396321424 18.893210208961 21.211082115253
603 1 2.400000000000 16.699396321424 18.893210208961 1.928280192296
604 1 2.400000000000 20.039275585709 18.893210208961 0.000000000000
605 2 -1.200000000000 17.812689409519 18.105993116921 0.000000000000
606 2 -1.200000000000 15.586103233329 19.680427301001 0.000000000000
607 2 -1.200000000000 18.925982497614 19.680427301001 21.211082115253
608 2 -1.200000000000 16.699396321424 21.254861485081 21.211082115253
609 2 -1.200000000000 18.925982497614 19.680427301001 1.928280192296
610 2 -1.200000000000 16.699396321424 21.254861485081 1.928280192296
611 2 -1.200000000000 20.039275585709 21.254861485081 0.000000000000
612 2 -1.200000000000 17.812689409519 22.829295669162 0.000000000000
613 1 2.400000000000 13.359517057139 18.893210208961 0.000000000000
614 1 2.400000000000 12.246223969044 22.042078577122 21.211082115253
615 1 2.400000000000 12.246223969044 22.042078577122 1.928280192296
616 1 2.400000000000 15.586103233329 22.042078577122 0.000000000000
617 2 -1.200000000000 13.359517057139 21.254861485081 0.000000000000
618 2 -1.200000000000 11.132930880950 22.829295669162 0.000000000000
619 2 -1.200000000000 14.472810145234 22.829295669162 21.211082115253
620 2 -1.200000000000 12.246223969044 24.403729853242 21.211082115253
621 2 -1.200000000000 14.472810145234 22.829295669162 1.928280192296
622 2 -1.200000000000 12.246223969044 24.403729853242 1.928280192296
623 2 -1.200000000000 15.586103233329 24.403729853242 0.000000000000
624 2 -1.200000000000 13.359517057139 25.978164037322 0.000000000000
625 1 2.400000000000 8.906344704760 22.042078577122 0.000000000000
626 1 2.400000000000 7.793051616665 25.190946945282 21.211082115253
627 1 2.400000000000 7.793051616665 25.190946945282 1.928280192296
628 1 2.400000000000 11.132930880950 25.190946945282 0.000000000000
629 2 -1.200000000000 8.906344704760 24.403729853242 0.000000000000
630 2 -1.200000000000 6.679758528570 25.978164037322 0.000000000000
631 2 -1.200000000000 10.019637792855 25.978164037322 21.211082115253
632 2 -1.200000000000 7.793051616665 27.552598221402 21.211082115253
633 2 -1.200000000000 10.019637792855 25.978164037322 1.928280192296
634 2 -1.200000000000 7.793051616665 27.552598221402 1.928280192296
635 2 -1.200000000000 11.132930880950 27.552598221402 0.000000000000
636 2 -1.200000000000 8.906344704760 0.787217092040 0.000000000000
637 1 2.400000000000 4.453172352380 25.190946945282 0.000000000000
638 1 2.400000000000 3.339879264285 0.000000000000 21.211082115253
639 1 2.400000000000 3.339879264285 0.000000000000 1.928280192296
640 1 2.400000000000 6.679758528570 0.000000000000 0.000000000000
641 2 -1.200000000000 4.453172352380 27.552598221402 0.000000000000
642 2 -1.200000000000 2.226586176190 0.787217092040 0.000000000000
643 2 -1.200000000000 5.566465440475 0.787217092040 21.211082115253
644 2 -1.200000000000 3.339879264285 2.361651276120 21.211082115253
645 2 -1.200000000000 5.566465440475 0.787217092040 1.928280192296
646 2 -1.200000000000 3.339879264285 2.361651276120 1.928280192296
647 2 -1.200000000000 6.679758528570 2.361651276120 0.000000000000
648 2 -1.200000000000 4.453172352380 3.936085460200 0.000000000000
649 1 2.400000000000 20.039275585709 0.000000000000 19.282801922957
650 1 2.400000000000 18.925982497614 3.148868368160 17.354521730661
651 1 2.400000000000 18.925982497614 3.148868368160 21.211082115253
652 1 2.400000000000 22.265861761899 3.148868368160 19.282801922957
653 2 -1.200000000000 20.039275585709 2.361651276120 19.282801922957
654 2 -1.200000000000 17.812689409519 3.936085460200 19.282801922957
655 2 -1.200000000000 21.152568673804 3.936085460200 17.354521730661
656 2 -1.200000000000 18.925982497614 5.510519644280 17.354521730661
657 2 -1.200000000000 21.152568673804 3.936085460200 21.211082115253
658 2 -1.200000000000 18.925982497614 5.510519644280 21.211082115253
659 2 -1.200000000000 22.265861761899 5.510519644280 19.282801922957
660 2 -1.200000000000 20.039275585709 7.084953828360 19.282801922957
661 1 2.400000000000 15.586103233329 3.148868368160 19.282801922957
662 1 2.400000000000 14.472810145234 6.297736736320 17.354521730661
663 1 2.400000000000 14.472810145234 6.297736736320 21.211082115253
664 1 2.400000000000 17.812689409519 6.297736736320 19.282801922957
665 2 -1.200000000000 15.586103233329 5.510519644280 19.282801922957
666 2 -1.200000000000 13.359517057139 7.084953828360 19.282801922957
667 2 -1.200000000000 16.699396321424 7.084953828360 17.354521730661
668 2 -1.200000000000 14.472810145234 8.659388012441 17.354521730661
669 2 -1.200000000000 16.699396321424 7.084953828360 21.211082115253
670 2 -1.200000000000 14.472810145234 8.659388012441 21.211082115253
671 2 -1.200000000000 17.812689409519 8.659388012441 19.282801922957
672 2 -1.200000000000 15.586103233329 10.233822196521 19.282801922957
673 1 2.400000000000 11.132930880950 6.297736736320 19.282801922957
674 1 2.400000000000 10.019637792855 9.446605104481 17.354521730661
675 1 2.400000000000 10.019637792855 9.446605104481 21.211082115253
676 1 2.400000000000 13.359517057139 9.446605104481 19.282801922957
677 2 -1.200000000000 11.132930880950 8.659388012441 19.282801922957
678 2 -1.200000000000 8.906344704760 10.233822196521 19.282801922957
679 2 -1.200000000000 12.246223969044 10.233822196521 17.354521730661
680 2 -1.200000000000 10.019637792855 11.808256380601 17.354521730661
681 2 -1.200000000000 12.246223969045 10.233822196521 21.211082115253
682 2 -1.200000000000 10.019637792855 11.808256380601 21.211082115253
683 2 -1.200000000000 13.359517057139 11.808256380601 19.282801922957
684 2 -1.200000000000 11.132930880950 13.382690564681 19.282801922957
685 1 2.400000000000 6.679758528570 9.446605104481 19.282801922957
686 1 2.400000000000 5.566465440475 12.595473472641 17.354521730661
687 1 2.400000000000 5.566465440475 12.595473472641 21.211082115253
688 1 2.400000000000 8.906344704760 12.595473472641 19.282801922957
689 2 -1.200000000000 6.679758528570 11.808256380601 19.282801922957
690 2 -1.200000000000 4.453172352380 13.382690564681 19.282801922957
691 2 -1.200000000000 7.793051616665 13.382690564681 17.354521730661
692 2 -1.200000000000 5.566465440475 14.957124748761 17.354521730661
693 2 -1.200000000000 7.793051616665 13.382690564681 21.211082115253
694 2 -1.200000000000 5.566465440475 14.957124748761 21.211082115253
695 2 -1.200000000000 8.906344704760 14.957124748761 19.282801922957
696 2 -1.200000000000 6.679758528570 16.531558932841 19.282801922957
697 1 2.400000000000 2.226586176190 12.595473472641 19.282801922957
698 1 2.400000000000 1.113293088095 15.744341840801 17.354521730661
699 1 2.400000000000 1.113293088095 15.744341840801 21.211082115253
700 1 2.400000000000 4.453172352380 15.744341840801 19.282801922957
701 2 -1.200000000000 2.226586176190 14.957124748761 19.282801922957
702 2 -1.200000000000 -0.000000000000 16.531558932841 19.282801922957
703 2 -1.200000000000 3.339879264285 16.531558932841 17.354521730661
704 2 -1.200000000000 1.113293088095 18.105993116921 17.354521730661
705 2 -1.200000000000 3.339879264285 16.531558932841 21.211082115253
706 2 -1.200000000000 1.113293088095 18.105993116921 21.211082115253
707 2 -1.200000000000 4.453172352380 18.105993116921 19.282801922957
708 2 -1.200000000000 2.226586176190 19.680427301001 19.282801922957
709 1 2.400000000000 26.719034114279 0.000000000000 15.426241538366
710 1 2.400000000000 25.605741026184 3.148868368160 13.497961346070
711 1 2.400000000000 25.605741026184 3.148868368160 17.354521730661
712 1 2.400000000000 28.945620290469 3.148868368160 15.426241538366
713 2 -1.200000000000 26.719034114279 2.361651276120 15.426241538366
714 2 -1.200000000000 24.492447938089 3.936085460200 15.426241538366
715 2 -1.200000000000 27.832327202374 3.936085460200 13.497961346070
716 2 -1.200000000000 25.605741026184 5.510519644280 13.497961346070
717 2 -1.200000000000 27.832327202374 3.936085460200 17.354521730661
718 2 -1.200000000000 25.605741026184 5.510519644280 17.354521730661
719 2 -1.200000000000 28.945620290469 5.510519644280 15.426241538366
720 2 -1.200000000000 26.719034114279 7.084953828360 15.426241538366
721 1 2.400000000000 22.265861761899 3.148868368160 15.426241538366
722 1 2.400000000000 21.152568673804 6.297736736320 13.497961346070
723 1 2.400000000000 21.152568673804 6.297736736320 17.354521730661
724 1 2.400000000000 24.492447938089 6.297736736320 15.426241538366
725 2 -1.200000000000 22.265861761899 5.510519644280 15.426241538366
726 2 -1.200000000000 20.039275585709 7.084953828360 15.426241538366
727 2 -1.200000000000 23.379154849994 7.084953828360 13.497961346070
728 2 -1.200000000000 21.152568673804 8.659388012441 13.497961346070
729 2 -1.200000000000 23.379154849994 7.084953828360 17.354521730661
730 2 -1.200000000000 21.152568673804 8.659388012441 17.354521730661
731 2 -1.200000000000 24.492447938089 8.659388012441 15.426241538366
732 2 -1.200000000000 22.265861761899 10.233822196521 15.426241538366
733 1 2.400000000000 17.812689409519 6.297736736320 15.426241538366
734 1 2.400000000000 16.699396321424 9.446605104481 13.497961346070
735 1 2.400000000000 16.699396321424 9.446605104481 17.354521730661
736 1 2.400000000000 20.039275585709 9.446605104481 15.426241538366
737 2 -1.200000000000 17.812689409519 8.659388012441 15.426241538366
738 2 -1.200000000000 15.586103233329 10.233822196521 15.426241538366
739 2 -1.200000000000 18.925982497614 10.233822196521 13.497961346070
740 2 -1.200000000000 16.699396321424 11.808256380601 13.497961346070
741 2 -1.200000000000 18.925982497614 10.233822196521 17.354521730661
742 2 -1.200000000000 16.699396321424 11.808256380601 17.354521730661
743 2 -1.200000000000 20.039275585709 11.808256380601 15.426241538366
744 2 -1.200000000000 17.812689409519 13.382690564681 15.426241538366
745 1 2.400000000000 13.359517057139 9.446605104481 15.426241538366
746 1 2.400000000000 12.246223969045 12.595473472641 13.497961346070
747 1 2.400000000000 12.246223969045 12.595473472641 17.354521730661
748 1 2.400000000000 15.586103233329 12.595473472641 15.426241538366
749 2 -1.200000000000 13.359517057139 11.808256380601 15.426241538366
750 2 -1.200000000000 11.132930880950 13.382690564681 15.426241538366
751 2 -1.200000000000 14.472810145234 13.382690564681 13.497961346070
752 2 -1.200000000000 12.246223969044 14.957124748761 13.497961346070
753 2 -1.200000000000 14.472810145234 13.382690564681 17.354521730661
754 2 -1.200000000000 12.246223969045 14.957124748761 17.354521730661
755 2 -1.200000000000 15.586103233329 14.957124748761 15.426241538366
756 2 -1.200000000000 13.359517057139 16.531558932841 15.426241538366
757 1 2.400000000000 8.906344704760 12.595473472641 15.426241538366
758 1 2.400000000000 7.793051616665 15.744341840801 13.497961346070
759 1 2.400000000000 7.793051616665 15.744341840801 17.354521730661
760 1 2.400000000000 11.132930880950 15.744341840801 15.426241538366
761 2 -1.200000000000 8.906344704760 14.957124748761 15.426241538366
762 2 -1.200000000000 6.679758528570 16.531558932841 15.426241538366
763 2 -1.200000000000 10.019637792855 16.531558932841 13.497961346070
764 2 -1.200000000000 7.793051616665 18.105993116921 13.497961346070
765 2 -1.200000000000 10.019637792855 16.531558932841 17.354521730661
766 2 -1.200000000000 7.793051616665 18.105993116921 17.354521730661
767 2 -1.200000000000 11.132930880950 18.105993116921 15.426241538366
768 2 -1.200000000000 8.906344704760 19.680427301001 15.426241538366
769 1 2.400000000000 4.453172352380 15.744341840801 15.426241538366
770 1 2.400000000000 3.339879264285 18.893210208961 13.497961346070
771 1 2.400000000000 3.339879264285 18.893210208961 17.354521730661
772 1 2.400000000000 6.679758528570 18.893210208961 15.426241538366
773 2 -1.200000000000 4.453172352380 18.105993116921 15.426241538366
774 2 -1.200000000000 2.226586176190 19.680427301001 15.426241538366
775 2 -1.200000000000 5.566465440475 19.680427301001 13.497961346070
776 2 -1.200000000000 3.339879264285 21.254861485081 13.497961346070
777 2 -1.200000000000 5.566465440475 19.680427301001 17.354521730661
778 2 -1.200000000000 3.339879264285 21.254861485081 17.354521730661
779 2 -1.200000000000 6.679758528570 21.254861485081 15.426241538366
780 2 -1.200000000000 4.453172352380 22.829295669162 15.426241538366
781 1 2.400000000000 33.398792642849 0.000000000000 11.569681153774
782 1 2.400000000000 32.285499554754 3.148868368160 9.641400961479
783 1 2.400000000000 32.285499554754 3.148868368160 13.497961346070
784 1 2.400000000000 35.625378819039 3.148868368160 11.569681153774
785 2 -1.200000000000 33.398792642849 2.361651276120 11.569681153774
786 2 -1.200000000000 31.172206466659 3.936085460200 11.569681153774
787 2 -1.200000000000 34.512085730944 3.936085460200 9.641400961479
788 2 -1.200000000000 32.285499554754 5.510519644280 9.641400961479
789 2 -1.200000000000 34.512085730944 3.936085460200 13.497961346070
790 2 -1.200000000000 32.285499554754 5.510519644280 13.497961346070
791 2 -1.200000000000 35.625378819039 5.510519644280 11.569681153774
792 2 -1.200000000000 33.398792642849 7.084953828360 11.569681153774
793 1 2.400000000000 28.945620290469 3.148868368160 11.569681153774
794 1 2.400000000000 27.832327202374 6.297736736320 9.641400961479
795 1 2.400000000000 27.832327202374 6.297736736320 13.497961346070
796 1 2.400000000000 31.172206466659 6.297736736320 11.569681153774
797 2 -1.200000000000 28.945620290469 5.510519644280 11.569681153774
798 2 -1.200000000000 26.719034114279 7.084953828360 11.569681153774
799 2 -1.200000000000 30.058913378564 7.084953828360 9.641400961479
800 2 -1.200000000000 27.832327202374 8.659388012441 9.641400961479
801 2 -1.200000000000 30.058913378564 7.084953828360 13.497961346070
802 2 -1.200000000000 27.832327202374 8.659388012441 13.497961346070
803 2 -1.200000000000 31.172206466659 8.659388012441 11.569681153774
804 2 -1.200000000000 28.945620290469 10.233822196521 11.569681153774
805 1 2.400000000000 24.492447938089 6.297736736320 11.569681153774
806 1 2.400000000000 23.379154849994 9.446605104481 9.641400961479
807 1 2.400000000000 23.379154849994 9.446605104481 13.497961346070
808 1 2.400000000000 26.719034114279 9.446605104481 11.569681153774
809 2 -1.200000000000 24.492447938089 8.659388012441 11.569681153774
810 2 -1.200000000000 22.265861761899 10.233822196521 11.569681153774
811 2 -1.200000000000 25.605741026184 10.233822196521 9.641400961479
812 2 -1.200000000000 23.379154849994 11.808256380601 9.641400961479
813 2 -1.200000000000 25.605741026184 10.233822196521 13.497961346070
814 2 -1.200000000000 23.379154849994 11.808256380601 13.497961346070
815 2 -1.200000000000 26.719034114279 11.808256380601 11.569681153774
816 2 -1.200000000000 24.492447938089 13.382690564681 11.569681153774
817 1 2.400000000000 20.039275585709 9.446605104481 11.569681153774
818 1 2.400000000000 18.925982497614 12.595473472641 9.641400961479
819 1 2.400000000000 18.925982497614 12.595473472641 13.497961346070
820 1 2.400000000000 22.265861761899 12.595473472641 11.569681153774
821 2 -1.200000000000 20.039275585709 11.808256380601 11.569681153774
822 2 -1.200000000000 17.812689409519 13.382690564681 11.569681153774
823 2 -1.200000000000 21.152568673804 13.382690564681 9.641400961479
824 2 -1.200000000000 18.925982497614 14.957124748761 9.641400961479
825 2 -1.200000000000 21.152568673804 13.382690564681 13.497961346070
826 2 -1.200000000000 18.925982497614 14.957124748761 13.497961346070
827 2 -1.200000000000 22.265861761899 14.957124748761 11.569681153774
828 2 -1.200000000000 20.039275585709 16.531558932841 11.569681153774
829 1 2.400000000000 15.586103233329 12.595473472641 11.569681153774
830 1 2.400000000000 14.472810145234 15.744341840801 9.641400961479
831 1 2.400000000000 14.472810145234 15.744341840801 13.497961346070
832 1 2.400000000000 17.812689409519 15.744341840801 11.569681153774
833 2 -1.200000000000 15.586103233329 14.957124748761 11.569681153774
834 2 -1.200000000000 13.359517057139 16.531558932841 11.569681153774
835 2 -1.200000000000 16.699396321424 16.531558932841 9.641400961479
836 2 -1.200000000000 14.472810145234 18.105993116921 9.641400961479
837 2 -1.200000000000 16.699396321424 16.531558932841 13.497961346070
838 2 -1.200000000000 14.472810145234 18.105993116921 13.497961346070
839 2 -1.200000000000 17.812689409519 18.105993116921 11.569681153774
840 2 -1.200000000000 15.586103233329 19.680427301001 11.569681153774
841 1 2.400000000000 11.132930880950 15.744341840801 11.569681153774
842 1 2.400000000000 10.019637792855 18.893210208961 9.641400961479
843 1 2.400000000000 10.019637792855 18.893210208961 13.497961346070
844 1 2.400000000000 13.359517057139 18.893210208961 11.569681153774
845 2 -1.200000000000 11.132930880950 18.105993116921 11.569681153774
846 2 -1.200000000000 8.906344704760 19.680427301001 11.569681153774
847 2 -1.200000000000 12.246223969044 19.680427301001 9.641400961479
848 2 -1.200000000000 10.019637792855 21.254861485081 9.641400961479
849 2 -1.200000000000 12.246223969045 19.680427301001 13.497961346070
850 2 -1.200000000000 10.019637792855 21.254861485081 13.497961346070
851 2 -1.200000000000 13.359517057139 21.254861485081 11.569681153774
852 2 -1.200000000000 11.132930880950 22.829295669162 11.569681153774
853 1 2.400000000000 6.679758528570 18.893210208961 11.569681153774
854 1 2.400000000000 5.566465440475 22.042078577122 9.641400961479
855 1 2.400000000000 5.566465440475 22.042078577122 13.497961346070
856 1 2.400000000000 8.906344704760 22.042078577122 11.569681153774
857 2 -1.200000000000 6.679758528570 21.254861485081 11.569681153774
858 2 -1.200000000000 4.453172352380 22.829295669162 11.569681153774
859 2 -1.200000000000 7.793051616665 22.829295669162 9.641400961479
860 2 -1.200000000000 5.566465440475 24.403729853242 9.641400961479
861 2 -1.200000000000 7.793051616665 22.829295669162 13.497961346070
862 2 -1.200000000000 5.566465440475 24.403729853242 13.497961346070
863 2 -1.200000000000 8.906344704760 24.403729853242 11.569681153774
864 2 -1.200000000000 6.679758528570 25.978164037322 11.569681153774
865 1 2.400000000000 2.226586176190 22.042078577122 11.569681153774
866 1 2.400000000000 1.113293088095 25.190946945282 9.641400961479
867 1 2.400000000000 1.113293088095 25.190946945282 13.497961346070
868 1 2.400000000000 4.453172352380 25.190946945282 11.569681153774
869 2 -1.200000000000 2.226586176190 24.403729853242 11.569681153774
870 2 -1.200000000000 -0.000000000000 25.978164037322 11.569681153774
871 2 -1.200000000000 3.339879264285 25.978164037322 9.641400961479
872 2 -1.200000000000 1.113293088095 27.552598221402 9.641400961479
873 2 -1.200000000000 3.339879264285 25.978164037322 13.497961346070
874 2 -1.200000000000 1.113293088095 27.552598221402 13.497961346070
875 2 -1.200000000000 4.453172352380 27.552598221402 11.569681153774
876 2 -1.200000000000 2.226586176190 0.787217092040 11.569681153774
877 1 2.400000000000 40.078551171418 0.000000000000 7.713120769183
878 1 2.400000000000 38.965258083323 3.148868368160 5.784840576887
879 1 2.400000000000 38.965258083323 3.148868368160 9.641400961479
880 1 2.400000000000 42.305137347608 3.148868368160 7.713120769183
881 2 -1.200000000000 40.078551171418 2.361651276120 7.713120769183
882 2 -1.200000000000 37.851964995228 3.936085460200 7.713120769183
883 2 -1.200000000000 41.191844259513 3.936085460200 5.784840576887
884 2 -1.200000000000 38.965258083323 5.510519644280 5.784840576887
885 2 -1.200000000000 41.191844259513 3.936085460200 9.641400961479
886 2 -1.200000000000 38.965258083323 5.510519644280 9.641400961479
887 2 -1.200000000000 42.305137347608 5.510519644280 7.713120769183
888 2 -1.200000000000 40.078551171418 7.084953828360 7.713120769183
889 1 2.400000000000 35.625378819039 3.148868368160 7.713120769183
890 1 2.400000000000 34.512085730944 6.297736736320 5.784840576887
891 1 2.400000000000 34.512085730944 6.297736736320 9.641400961479
892 1 2.400000000000 37.851964995228 6.297736736320 7.713120769183
893 2 -1.200000000000 35.625378819039 5.510519644280 7.713120769183
894 2 -1.200000000000 33.398792642849 7.084953828360 7.713120769183
895 2 -1.200000000000 36.738671907134 7.084953828360 5.784840576887
896 2 -1.200000000000 34.512085730944 8.659388012441 5.784840576887
897 2 -1.200000000000 36.738671907134 7.084953828360 9.641400961479
898 2 -1.200000000000 34.512085730944 8.659388012441 9.641400961479
899 2 -1.200000000000 37.851964995228 8.659388012441 7.713120769183
900 2 -1.200000000000 35.625378819039 10.233822196521 7.713120769183
901 1 2.400000000000 31.172206466659 6.297736736320 7.713120769183
902 1 2.400000000000 30.058913378564 9.446605104481 5.784840576887
903 1 2.400000000000 30.058913378564 9.446605104481 9.641400961479
904 1 2.400000000000 33.398792642849 9.446605104481 7.713120769183
905 2 -1.200000000000 31.172206466659 8.659388012441 7.713120769183
906 2 -1.200000000000 28.945620290469 10.233822196521 7.713120769183
907 2 -1.200000000000 32.285499554754 10.233822196521 5.784840576887
908 2 -1.200000000000 30.058913378564 11.808256380601 5.784840576887
909 2 -1.200000000000 32.285499554754 10.233822196521 9.641400961479
910 2 -1.200000000000 30.058913378564 11.808256380601 9.641400961479
911 2 -1.200000000000 33.398792642849 11.808256380601 7.713120769183
912 2 -1.200000000000 31.172206466659 13.382690564681 7.713120769183
913 1 2.400000000000 26.719034114279 9.446605104481 7.713120769183
914 1 2.400000000000 25.605741026184 12.595473472641 5.784840576887
915 1 2.400000000000 25.605741026184 12.595473472641 9.641400961479
916 1 2.400000000000 28.945620290469 12.595473472641 7.713120769183
917 2 -1.200000000000 26.719034114279 11.808256380601 7.713120769183
918 2 -1.200000000000 24.492447938089 13.382690564681 7.713120769183
919 2 -1.200000000000 27.832327202374 13.382690564681 5.784840576887
920 2 -1.200000000000 25.605741026184 14.957124748761 5.784840576887
921 2 -1.200000000000 27.832327202374 13.382690564681 9.641400961479
922 2 -1.200000000000 25.605741026184 14.957124748761 9.641400961479
923 2 -1.200000000000 28.945620290469 14.957124748761 7.713120769183
924 2 -1.200000000000 26.719034114279 16.531558932841 7.713120769183
925 1 2.400000000000 22.265861761899 12.595473472641 7.713120769183
926 1 2.400000000000 21.152568673804 15.744341840801 5.784840576887
927 1 2.400000000000 21.152568673804 15.744341840801 9.641400961479
928 1 2.400000000000 24.492447938089 15.744341840801 7.713120769183
929 2 -1.200000000000 22.265861761899 14.957124748761 7.713120769183
930 2 -1.200000000000 20.039275585709 16.531558932841 7.713120769183
931 2 -1.200000000000 23.379154849994 16.531558932841 5.784840576887
932 2 -1.200000000000 21.152568673804 18.105993116921 5.784840576887
933 2 -1.200000000000 23.379154849994 16.531558932841 9.641400961479
934 2 -1.200000000000 21.152568673804 18.105993116921 9.641400961479
935 2 -1.200000000000 24.492447938089 18.105993116921 7.713120769183
936 2 -1.200000000000 22.265861761899 19.680427301001 7.713120769183
937 1 2.400000000000 17.812689409519 15.744341840801 7.713120769183
938 1 2.400000000000 16.699396321424 18.893210208961 5.784840576887
939 1 2.400000000000 16.699396321424 18.893210208961 9.641400961479
940 1 2.400000000000 20.039275585709 18.893210208961 7.713120769183
941 2 -1.200000000000 17.812689409519 18.105993116921 7.713120769183
942 2 -1.200000000000 15.586103233329 19.680427301001 7.713120769183
943 2 -1.200000000000 18.925982497614 19.680427301001 5.784840576887
944 2 -1.200000000000 16.699396321424 21.254861485081 5.784840576887
945 2 -1.200000000000 18.925982497614 19.680427301001 9.641400961479
946 2 -1.200000000000 16.699396321424 21.254861485081 9.641400961479
947 2 -1.200000000000 20.039275585709 21.254861485081 7.713120769183
948 2 -1.200000000000 17.812689409519 22.829295669162 7.713120769183
949 1 2.400000000000 13.359517057139 18.893210208961 7.713120769183
950 1 2.400000000000 12.246223969044 22.042078577122 5.784840576887
951 1 2.400000000000 12.246223969044 22.042078577122 9.641400961479
952 1 2.400000000000 15.586103233329 22.042078577122 7.713120769183
953 2 -1.200000000000 13.359517057139 21.254861485081 7.713120769183
954 2 -1.200000000000 11.132930880950 22.829295669162 7.713120769183
955 2 -1.200000000000 14.472810145234 22.829295669162 5.784840576887
956 2 -1.200000000000 12.246223969044 24.403729853242 5.784840576887
957 2 -1.200000000000 14.472810145234 22.829295669162 9.641400961479
958 2 -1.200000000000 12.246223969045 24.403729853242 9.641400961479
959 2 -1.200000000000 15.586103233329 24.403729853242 7.713120769183
960 2 -1.200000000000 13.359517057139 25.978164037322 7.713120769183
961 1 2.400000000000 8.906344704760 22.042078577122 7.713120769183
962 1 2.400000000000 7.793051616665 25.190946945282 5.784840576887
963 1 2.400000000000 7.793051616665 25.190946945282 9.641400961479
964 1 2.400000000000 11.132930880950 25.190946945282 7.713120769183
965 2 -1.200000000000 8.906344704760 24.403729853242 7.713120769183
966 2 -1.200000000000 6.679758528570 25.978164037322 7.713120769183
967 2 -1.200000000000 10.019637792855 25.978164037322 5.784840576887
968 2 -1.200000000000 7.793051616665 27.552598221402 5.784840576887
969 2 -1.200000000000 10.019637792855 25.978164037322 9.641400961479
970 2 -1.200000000000 7.793051616665 27.552598221402 9.641400961479
971 2 -1.200000000000 11.132930880950 27.552598221402 7.713120769183
972 2 -1.200000000000 8.906344704760 0.787217092040 7.713120769183
973 1 2.400000000000 4.453172352380 25.190946945282 7.713120769183
974 1 2.400000000000 3.339879264285 0.000000000000 5.784840576887
975 1 2.400000000000 3.339879264285 0.000000000000 9.641400961479
976 1 2.400000000000 6.679758528570 0.000000000000 7.713120769183
977 2 -1.200000000000 4.453172352380 27.552598221402 7.713120769183
978 2 -1.200000000000 2.226586176190 0.787217092040 7.713120769183
979 2 -1.200000000000 5.566465440475 0.787217092040 5.784840576887
980 2 -1.200000000000 3.339879264285 2.361651276120 5.784840576887
981 2 -1.200000000000 5.566465440475 0.787217092040 9.641400961479
982 2 -1.200000000000 3.339879264285 2.361651276120 9.641400961479
983 2 -1.200000000000 6.679758528570 2.361651276120 7.713120769183
984 2 -1.200000000000 4.453172352380 3.936085460200 7.713120769183
985 1 2.400000000000 46.758309699988 0.000000000000 3.856560384591
986 1 2.400000000000 45.645016611893 3.148868368160 1.928280192296
987 1 2.400000000000 45.645016611893 3.148868368160 5.784840576887
988 1 2.400000000000 48.984895876178 3.148868368160 3.856560384591
989 2 -1.200000000000 46.758309699988 2.361651276120 3.856560384591
990 2 -1.200000000000 44.531723523798 3.936085460200 3.856560384591
991 2 -1.200000000000 47.871602788083 3.936085460200 1.928280192296
992 2 -1.200000000000 45.645016611893 5.510519644280 1.928280192296
993 2 -1.200000000000 47.871602788083 3.936085460200 5.784840576887
994 2 -1.200000000000 45.645016611893 5.510519644280 5.784840576887
995 2 -1.200000000000 48.984895876178 5.510519644280 3.856560384591
996 2 -1.200000000000 46.758309699988 7.084953828360 3.856560384591
997 1 2.400000000000 42.305137347608 3.148868368160 3.856560384591
998 1 2.400000000000 41.191844259513 6.297736736320 1.928280192296
999 1 2.400000000000 41.191844259513 6.297736736320 5.784840576887
1000 1 2.400000000000 44.531723523798 6.297736736320 3.856560384591
1001 2 -1.200000000000 42.305137347608 5.510519644280 3.856560384591
1002 2 -1.200000000000 40.078551171418 7.084953828360 3.856560384591
1003 2 -1.200000000000 43.418430435703 7.084953828360 1.928280192296
1004 2 -1.200000000000 41.191844259513 8.659388012441 1.928280192296
1005 2 -1.200000000000 43.418430435703 7.084953828360 5.784840576887
1006 2 -1.200000000000 41.191844259513 8.659388012441 5.784840576887
1007 2 -1.200000000000 44.531723523798 8.659388012441 3.856560384591
1008 2 -1.200000000000 42.305137347608 10.233822196521 3.856560384591
1009 1 2.400000000000 37.851964995228 6.297736736320 3.856560384591
1010 1 2.400000000000 36.738671907134 9.446605104481 1.928280192296
1011 1 2.400000000000 36.738671907134 9.446605104481 5.784840576887
1012 1 2.400000000000 40.078551171418 9.446605104481 3.856560384591
1013 2 -1.200000000000 37.851964995228 8.659388012441 3.856560384591
1014 2 -1.200000000000 35.625378819039 10.233822196521 3.856560384591
1015 2 -1.200000000000 38.965258083323 10.233822196521 1.928280192296
1016 2 -1.200000000000 36.738671907134 11.808256380601 1.928280192296
1017 2 -1.200000000000 38.965258083323 10.233822196521 5.784840576887
1018 2 -1.200000000000 36.738671907134 11.808256380601 5.784840576887
1019 2 -1.200000000000 40.078551171418 11.808256380601 3.856560384591
1020 2 -1.200000000000 37.851964995228 13.382690564681 3.856560384591
1021 1 2.400000000000 33.398792642849 9.446605104481 3.856560384591
1022 1 2.400000000000 32.285499554754 12.595473472641 1.928280192296
1023 1 2.400000000000 32.285499554754 12.595473472641 5.784840576887
1024 1 2.400000000000 35.625378819039 12.595473472641 3.856560384591
1025 2 -1.200000000000 33.398792642849 11.808256380601 3.856560384591
1026 2 -1.200000000000 31.172206466659 13.382690564681 3.856560384591
1027 2 -1.200000000000 34.512085730944 13.382690564681 1.928280192296
1028 2 -1.200000000000 32.285499554754 14.957124748761 1.928280192296
1029 2 -1.200000000000 34.512085730944 13.382690564681 5.784840576887
1030 2 -1.200000000000 32.285499554754 14.957124748761 5.784840576887
1031 2 -1.200000000000 35.625378819039 14.957124748761 3.856560384591
1032 2 -1.200000000000 33.398792642849 16.531558932841 3.856560384591
1033 1 2.400000000000 28.945620290469 12.595473472641 3.856560384591
1034 1 2.400000000000 27.832327202374 15.744341840801 1.928280192296
1035 1 2.400000000000 27.832327202374 15.744341840801 5.784840576887
1036 1 2.400000000000 31.172206466659 15.744341840801 3.856560384591
1037 2 -1.200000000000 28.945620290469 14.957124748761 3.856560384591
1038 2 -1.200000000000 26.719034114279 16.531558932841 3.856560384591
1039 2 -1.200000000000 30.058913378564 16.531558932841 1.928280192296
1040 2 -1.200000000000 27.832327202374 18.105993116921 1.928280192296
1041 2 -1.200000000000 30.058913378564 16.531558932841 5.784840576887
1042 2 -1.200000000000 27.832327202374 18.105993116921 5.784840576887
1043 2 -1.200000000000 31.172206466659 18.105993116921 3.856560384591
1044 2 -1.200000000000 28.945620290469 19.680427301001 3.856560384591
1045 1 2.400000000000 24.492447938089 15.744341840801 3.856560384591
1046 1 2.400000000000 23.379154849994 18.893210208961 1.928280192296
1047 1 2.400000000000 23.379154849994 18.893210208961 5.784840576887
1048 1 2.400000000000 26.719034114279 18.893210208961 3.856560384591
1049 2 -1.200000000000 24.492447938089 18.105993116921 3.856560384591
1050 2 -1.200000000000 22.265861761899 19.680427301001 3.856560384591
1051 2 -1.200000000000 25.605741026184 19.680427301001 1.928280192296
1052 2 -1.200000000000 23.379154849994 21.254861485081 1.928280192296
1053 2 -1.200000000000 25.605741026184 19.680427301001 5.784840576887
1054 2 -1.200000000000 23.379154849994 21.254861485081 5.784840576887
1055 2 -1.200000000000 26.719034114279 21.254861485081 3.856560384591
1056 2 -1.200000000000 24.492447938089 22.829295669162 3.856560384591
1057 1 2.400000000000 20.039275585709 18.893210208961 3.856560384591
1058 1 2.400000000000 18.925982497614 22.042078577122 1.928280192296
1059 1 2.400000000000 18.925982497614 22.042078577122 5.784840576887
1060 1 2.400000000000 22.265861761899 22.042078577122 3.856560384591
1061 2 -1.200000000000 20.039275585709 21.254861485081 3.856560384591
1062 2 -1.200000000000 17.812689409519 22.829295669162 3.856560384591
1063 2 -1.200000000000 21.152568673804 22.829295669162 1.928280192296
1064 2 -1.200000000000 18.925982497614 24.403729853242 1.928280192296
1065 2 -1.200000000000 21.152568673804 22.829295669162 5.784840576887
1066 2 -1.200000000000 18.925982497614 24.403729853242 5.784840576887
1067 2 -1.200000000000 22.265861761899 24.403729853242 3.856560384591
1068 2 -1.200000000000 20.039275585709 25.978164037322 3.856560384591
1069 1 2.400000000000 15.586103233329 22.042078577122 3.856560384591
1070 1 2.400000000000 14.472810145234 25.190946945282 1.928280192296
1071 1 2.400000000000 14.472810145234 25.190946945282 5.784840576887
1072 1 2.400000000000 17.812689409519 25.190946945282 3.856560384591
1073 2 -1.200000000000 15.586103233329 24.403729853242 3.856560384591
1074 2 -1.200000000000 13.359517057139 25.978164037322 3.856560384591
1075 2 -1.200000000000 16.699396321424 25.978164037322 1.928280192296
1076 2 -1.200000000000 14.472810145234 27.552598221402 1.928280192296
1077 2 -1.200000000000 16.699396321424 25.978164037322 5.784840576887
1078 2 -1.200000000000 14.472810145234 27.552598221402 5.784840576887
1079 2 -1.200000000000 17.812689409519 27.552598221402 3.856560384591
1080 2 -1.200000000000 15.586103233329 0.787217092040 3.856560384591
1081 1 2.400000000000 11.132930880950 25.190946945282 3.856560384591
1082 1 2.400000000000 10.019637792855 0.000000000000 1.928280192296
1083 1 2.400000000000 10.019637792855 0.000000000000 5.784840576887
1084 1 2.400000000000 13.359517057139 0.000000000000 3.856560384591
1085 2 -1.200000000000 11.132930880950 27.552598221402 3.856560384591
1086 2 -1.200000000000 8.906344704760 0.787217092040 3.856560384591
1087 2 -1.200000000000 12.246223969044 0.787217092040 1.928280192296
1088 2 -1.200000000000 10.019637792855 2.361651276120 1.928280192296
1089 2 -1.200000000000 12.246223969045 0.787217092040 5.784840576887
1090 2 -1.200000000000 10.019637792855 2.361651276120 5.784840576887
1091 2 -1.200000000000 13.359517057139 2.361651276120 3.856560384591
1092 2 -1.200000000000 11.132930880950 3.936085460200 3.856560384591
1093 1 2.400000000000 53.438068228558 0.000000000000 0.000000000000
1094 1 2.400000000000 52.324775140463 3.148868368160 21.211082115253
1095 1 2.400000000000 52.324775140463 3.148868368160 1.928280192296
1096 1 2.400000000000 55.664654404748 3.148868368160 0.000000000000
1097 2 -1.200000000000 53.438068228558 2.361651276120 0.000000000000
1098 2 -1.200000000000 51.211482052368 3.936085460200 0.000000000000
1099 2 -1.200000000000 54.551361316653 3.936085460200 21.211082115253
1100 2 -1.200000000000 52.324775140463 5.510519644280 21.211082115253
1101 2 -1.200000000000 54.551361316653 3.936085460200 1.928280192296
1102 2 -1.200000000000 52.324775140463 5.510519644280 1.928280192296
1103 2 -1.200000000000 55.664654404748 5.510519644280 0.000000000000
1104 2 -1.200000000000 53.438068228558 7.084953828360 0.000000000000
1105 1 2.400000000000 48.984895876178 3.148868368160 0.000000000000
1106 1 2.400000000000 47.871602788083 6.297736736320 21.211082115253
1107 1 2.400000000000 47.871602788083 6.297736736320 1.928280192296
1108 1 2.400000000000 51.211482052368 6.297736736320 0.000000000000
1109 2 -1.200000000000 48.984895876178 5.510519644280 0.000000000000
1110 2 -1.200000000000 46.758309699988 7.084953828360 0.000000000000
1111 2 -1.200000000000 50.098188964273 7.084953828360 21.211082115253
1112 2 -1.200000000000 47.871602788083 8.659388012441 21.211082115253
1113 2 -1.200000000000 50.098188964273 7.084953828360 1.928280192296
1114 2 -1.200000000000 47.871602788083 8.659388012441 1.928280192296
1115 2 -1.200000000000 51.211482052368 8.659388012441 0.000000000000
1116 2 -1.200000000000 48.984895876178 10.233822196521 0.000000000000
1117 1 2.400000000000 44.531723523798 6.297736736320 0.000000000000
1118 1 2.400000000000 43.418430435703 9.446605104481 21.211082115253
1119 1 2.400000000000 43.418430435703 9.446605104481 1.928280192296
1120 1 2.400000000000 46.758309699988 9.446605104481 0.000000000000
1121 2 -1.200000000000 44.531723523798 8.659388012441 0.000000000000
1122 2 -1.200000000000 42.305137347608 10.233822196521 0.000000000000
1123 2 -1.200000000000 45.645016611893 10.233822196521 21.211082115253
1124 2 -1.200000000000 43.418430435703 11.808256380601 21.211082115253
1125 2 -1.200000000000 45.645016611893 10.233822196521 1.928280192296
1126 2 -1.200000000000 43.418430435703 11.808256380601 1.928280192296
1127 2 -1.200000000000 46.758309699988 11.808256380601 0.000000000000
1128 2 -1.200000000000 44.531723523798 13.382690564681 0.000000000000
1129 1 2.400000000000 40.078551171418 9.446605104481 0.000000000000
1130 1 2.400000000000 38.965258083323 12.595473472641 21.211082115253
1131 1 2.400000000000 38.965258083323 12.595473472641 1.928280192296
1132 1 2.400000000000 42.305137347608 12.595473472641 0.000000000000
1133 2 -1.200000000000 40.078551171418 11.808256380601 0.000000000000
1134 2 -1.200000000000 37.851964995228 13.382690564681 0.000000000000
1135 2 -1.200000000000 41.191844259513 13.382690564681 21.211082115253
1136 2 -1.200000000000 38.965258083323 14.957124748761 21.211082115253
1137 2 -1.200000000000 41.191844259513 13.382690564681 1.928280192296
1138 2 -1.200000000000 38.965258083323 14.957124748761 1.928280192296
1139 2 -1.200000000000 42.305137347608 14.957124748761 0.000000000000
1140 2 -1.200000000000 40.078551171418 16.531558932841 0.000000000000
1141 1 2.400000000000 35.625378819039 12.595473472641 0.000000000000
1142 1 2.400000000000 34.512085730944 15.744341840801 21.211082115253
1143 1 2.400000000000 34.512085730944 15.744341840801 1.928280192296
1144 1 2.400000000000 37.851964995228 15.744341840801 0.000000000000
1145 2 -1.200000000000 35.625378819039 14.957124748761 0.000000000000
1146 2 -1.200000000000 33.398792642849 16.531558932841 0.000000000000
1147 2 -1.200000000000 36.738671907134 16.531558932841 21.211082115253
1148 2 -1.200000000000 34.512085730944 18.105993116921 21.211082115253
1149 2 -1.200000000000 36.738671907134 16.531558932841 1.928280192296
1150 2 -1.200000000000 34.512085730944 18.105993116921 1.928280192296
1151 2 -1.200000000000 37.851964995228 18.105993116921 0.000000000000
1152 2 -1.200000000000 35.625378819039 19.680427301001 0.000000000000
1153 1 2.400000000000 31.172206466659 15.744341840801 0.000000000000
1154 1 2.400000000000 30.058913378564 18.893210208961 21.211082115253
1155 1 2.400000000000 30.058913378564 18.893210208961 1.928280192296
1156 1 2.400000000000 33.398792642849 18.893210208961 0.000000000000
1157 2 -1.200000000000 31.172206466659 18.105993116921 0.000000000000
1158 2 -1.200000000000 28.945620290469 19.680427301001 0.000000000000
1159 2 -1.200000000000 32.285499554754 19.680427301001 21.211082115253
1160 2 -1.200000000000 30.058913378564 21.254861485081 21.211082115253
1161 2 -1.200000000000 32.285499554754 19.680427301001 1.928280192296
1162 2 -1.200000000000 30.058913378564 21.254861485081 1.928280192296
1163 2 -1.200000000000 33.398792642849 21.254861485081 0.000000000000
1164 2 -1.200000000000 31.172206466659 22.829295669162 0.000000000000
1165 1 2.400000000000 26.719034114279 18.893210208961 0.000000000000
1166 1 2.400000000000 25.605741026184 22.042078577122 21.211082115253
1167 1 2.400000000000 25.605741026184 22.042078577122 1.928280192296
1168 1 2.400000000000 28.945620290469 22.042078577122 0.000000000000
1169 2 -1.200000000000 26.719034114279 21.254861485081 0.000000000000
1170 2 -1.200000000000 24.492447938089 22.829295669162 0.000000000000
1171 2 -1.200000000000 27.832327202374 22.829295669162 21.211082115253
1172 2 -1.200000000000 25.605741026184 24.403729853242 21.211082115253
1173 2 -1.200000000000 27.832327202374 22.829295669162 1.928280192296
1174 2 -1.200000000000 25.605741026184 24.403729853242 1.928280192296
1175 2 -1.200000000000 28.945620290469 24.403729853242 0.000000000000
1176 2 -1.200000000000 26.719034114279 25.978164037322 0.000000000000
1177 1 2.400000000000 22.265861761899 22.042078577122 0.000000000000
1178 1 2.400000000000 21.152568673804 25.190946945282 21.211082115253
1179 1 2.400000000000 21.152568673804 25.190946945282 1.928280192296
1180 1 2.400000000000 24.492447938089 25.190946945282 0.000000000000
1181 2 -1.200000000000 22.265861761899 24.403729853242 0.000000000000
1182 2 -1.200000000000 20.039275585709 25.978164037322 0.000000000000
1183 2 -1.200000000000 23.379154849994 25.978164037322 21.211082115253
1184 2 -1.200000000000 21.152568673804 27.552598221402 21.211082115253
1185 2 -1.200000000000 23.379154849994 25.978164037322 1.928280192296
1186 2 -1.200000000000 21.152568673804 27.552598221402 1.928280192296
1187 2 -1.200000000000 24.492447938089 27.552598221402 0.000000000000
1188 2 -1.200000000000 22.265861761899 0.787217092040 0.000000000000
1189 1 2.400000000000 17.812689409519 25.190946945282 0.000000000000
1190 1 2.400000000000 16.699396321424 0.000000000000 21.211082115253
1191 1 2.400000000000 16.699396321424 0.000000000000 1.928280192296
1192 1 2.400000000000 20.039275585709 0.000000000000 0.000000000000
1193 2 -1.200000000000 17.812689409519 27.552598221402 0.000000000000
1194 2 -1.200000000000 15.586103233329 0.787217092040 0.000000000000
1195 2 -1.200000000000 18.925982497614 0.787217092040 21.211082115253
1196 2 -1.200000000000 16.699396321424 2.361651276120 21.211082115253
1197 2 -1.200000000000 18.925982497614 0.787217092040 1.928280192296
1198 2 -1.200000000000 16.699396321424 2.361651276120 1.928280192296
1199 2 -1.200000000000 20.039275585709 2.361651276120 0.000000000000
1200 2 -1.200000000000 17.812689409519 3.936085460200 0.000000000000
1201 1 2.400000000000 33.398792642849 0.000000000000 19.282801922957
1202 1 2.400000000000 32.285499554754 3.148868368160 17.354521730661
1203 1 2.400000000000 32.285499554754 3.148868368160 21.211082115253
1204 1 2.400000000000 35.625378819039 3.148868368160 19.282801922957
1205 2 -1.200000000000 33.398792642849 2.361651276120 19.282801922957
1206 2 -1.200000000000 31.172206466659 3.936085460200 19.282801922957
1207 2 -1.200000000000 34.512085730944 3.936085460200 17.354521730661
1208 2 -1.200000000000 32.285499554754 5.510519644280 17.354521730661
1209 2 -1.200000000000 34.512085730944 3.936085460200 21.211082115253
1210 2 -1.200000000000 32.285499554754 5.510519644280 21.211082115253
1211 2 -1.200000000000 35.625378819039 5.510519644280 19.282801922957
1212 2 -1.200000000000 33.398792642849 7.084953828360 19.282801922957
1213 1 2.400000000000 28.945620290469 3.148868368160 19.282801922957
1214 1 2.400000000000 27.832327202374 6.297736736320 17.354521730661
1215 1 2.400000000000 27.832327202374 6.297736736320 21.211082115253
1216 1 2.400000000000 31.172206466659 6.297736736320 19.282801922957
1217 2 -1.200000000000 28.945620290469 5.510519644280 19.282801922957
1218 2 -1.200000000000 26.719034114279 7.084953828360 19.282801922957
1219 2 -1.200000000000 30.058913378564 7.084953828360 17.354521730661
1220 2 -1.200000000000 27.832327202374 8.659388012441 17.354521730661
1221 2 -1.200000000000 30.058913378564 7.084953828360 21.211082115253
1222 2 -1.200000000000 27.832327202374 8.659388012441 21.211082115253
1223 2 -1.200000000000 31.172206466659 8.659388012441 19.282801922957
1224 2 -1.200000000000 28.945620290469 10.233822196521 19.282801922957
1225 1 2.400000000000 24.492447938089 6.297736736320 19.282801922957
1226 1 2.400000000000 23.379154849994 9.446605104481 17.354521730661
1227 1 2.400000000000 23.379154849994 9.446605104481 21.211082115253
1228 1 2.400000000000 26.719034114279 9.446605104481 19.282801922957
1229 2 -1.200000000000 24.492447938089 8.659388012441 19.282801922957
1230 2 -1.200000000000 22.265861761899 10.233822196521 19.282801922957
1231 2 -1.200000000000 25.605741026184 10.233822196521 17.354521730661
1232 2 -1.200000000000 23.379154849994 11.808256380601 17.354521730661
1233 2 -1.200000000000 25.605741026184 10.233822196521 21.211082115253
1234 2 -1.200000000000 23.379154849994 11.808256380601 21.211082115253
1235 2 -1.200000000000 26.719034114279 11.808256380601 19.282801922957
1236 2 -1.200000000000 24.492447938089 13.382690564681 19.282801922957
1237 1 2.400000000000 20.039275585709 9.446605104481 19.282801922957
1238 1 2.400000000000 18.925982497614 12.595473472641 17.354521730661
1239 1 2.400000000000 18.925982497614 12.595473472641 21.211082115253
1240 1 2.400000000000 22.265861761899 12.595473472641 19.282801922957
1241 2 -1.200000000000 20.039275585709 11.808256380601 19.282801922957
1242 2 -1.200000000000 17.812689409519 13.382690564681 19.282801922957
1243 2 -1.200000000000 21.152568673804 13.382690564681 17.354521730661
1244 2 -1.200000000000 18.925982497614 14.957124748761 17.354521730661
1245 2 -1.200000000000 21.152568673804 13.382690564681 21.211082115253
1246 2 -1.200000000000 18.925982497614 14.957124748761 21.211082115253
1247 2 -1.200000000000 22.265861761899 14.957124748761 19.282801922957
1248 2 -1.200000000000 20.039275585709 16.531558932841 19.282801922957
1249 1 2.400000000000 15.586103233329 12.595473472641 19.282801922957
1250 1 2.400000000000 14.472810145234 15.744341840801 17.354521730661
1251 1 2.400000000000 14.472810145234 15.744341840801 21.211082115253
1252 1 2.400000000000 17.812689409519 15.744341840801 19.282801922957
1253 2 -1.200000000000 15.586103233329 14.957124748761 19.282801922957
1254 2 -1.200000000000 13.359517057139 16.531558932841 19.282801922957
1255 2 -1.200000000000 16.699396321424 16.531558932841 17.354521730661
1256 2 -1.200000000000 14.472810145234 18.105993116921 17.354521730661
1257 2 -1.200000000000 16.699396321424 16.531558932841 21.211082115253
1258 2 -1.200000000000 14.472810145234 18.105993116921 21.211082115253
1259 2 -1.200000000000 17.812689409519 18.105993116921 19.282801922957
1260 2 -1.200000000000 15.586103233329 19.680427301001 19.282801922957
1261 1 2.400000000000 11.132930880950 15.744341840801 19.282801922957
1262 1 2.400000000000 10.019637792855 18.893210208961 17.354521730661
1263 1 2.400000000000 10.019637792855 18.893210208961 21.211082115253
1264 1 2.400000000000 13.359517057139 18.893210208961 19.282801922957
1265 2 -1.200000000000 11.132930880950 18.105993116921 19.282801922957
1266 2 -1.200000000000 8.906344704760 19.680427301001 19.282801922957
1267 2 -1.200000000000 12.246223969045 19.680427301001 17.354521730661
1268 2 -1.200000000000 10.019637792855 21.254861485081 17.354521730661
1269 2 -1.200000000000 12.246223969045 19.680427301001 21.211082115253
1270 2 -1.200000000000 10.019637792855 21.254861485081 21.211082115253
1271 2 -1.200000000000 13.359517057139 21.254861485081 19.282801922957
1272 2 -1.200000000000 11.132930880950 22.829295669162 19.282801922957
1273 1 2.400000000000 6.679758528570 18.893210208961 19.282801922957
1274 1 2.400000000000 5.566465440475 22.042078577122 17.354521730661
1275 1 2.400000000000 5.566465440475 22.042078577122 21.211082115253
1276 1 2.400000000000 8.906344704760 22.042078577122 19.282801922957
1277 2 -1.200000000000 6.679758528570 21.254861485081 19.282801922957
1278 2 -1.200000000000 4.453172352380 22.829295669162 19.282801922957
1279 2 -1.200000000000 7.793051616665 22.829295669162 17.354521730661
1280 2 -1.200000000000 5.566465440475 24.403729853242 17.354521730661
1281 2 -1.200000000000 7.793051616665 22.829295669162 21.211082115253
1282 2 -1.200000000000 5.566465440475 24.403729853242 21.211082115253
1283 2 -1.200000000000 8.906344704760 24.403729853242 19.282801922957
1284 2 -1.200000000000 6.679758528570 25.978164037322 19.282801922957
1285 1 2.400000000000 2.226586176190 22.042078577122 19.282801922957
1286 1 2.400000000000 1.113293088095 25.190946945282 17.354521730661
1287 1 2.400000000000 1.113293088095 25.190946945282 21.211082115253
1288 1 2.400000000000 4.453172352380 25.190946945282 19.282801922957
1289 2 -1.200000000000 2.226586176190 24.403729853242 19.282801922957
1290 2 -1.200000000000 -0.000000000000 25.978164037322 19.282801922957
1291 2 -1.200000000000 3.339879264285 25.978164037322 17.354521730661
1292 2 -1.200000000000 1.113293088095 27.552598221402 17.354521730661
1293 2 -1.200000000000 3.339879264285 25.978164037322 21.211082115253
1294 2 -1.200000000000 1.113293088095 27.552598221402 21.211082115253
1295 2 -1.200000000000 4.453172352380 27.552598221402 19.282801922957
1296 2 -1.200000000000 2.226586176190 0.787217092040 19.282801922957
1297 1 2.400000000000 40.078551171418 0.000000000000 15.426241538366
1298 1 2.400000000000 38.965258083323 3.148868368160 13.497961346070
1299 1 2.400000000000 38.965258083323 3.148868368160 17.354521730661
1300 1 2.400000000000 42.305137347608 3.148868368160 15.426241538366
1301 2 -1.200000000000 40.078551171418 2.361651276120 15.426241538366
1302 2 -1.200000000000 37.851964995228 3.936085460200 15.426241538366
1303 2 -1.200000000000 41.191844259513 3.936085460200 13.497961346070
1304 2 -1.200000000000 38.965258083323 5.510519644280 13.497961346070
1305 2 -1.200000000000 41.191844259513 3.936085460200 17.354521730661
1306 2 -1.200000000000 38.965258083323 5.510519644280 17.354521730661
1307 2 -1.200000000000 42.305137347608 5.510519644280 15.426241538366
1308 2 -1.200000000000 40.078551171418 7.084953828360 15.426241538366
1309 1 2.400000000000 35.625378819039 3.148868368160 15.426241538366
1310 1 2.400000000000 34.512085730944 6.297736736320 13.497961346070
1311 1 2.400000000000 34.512085730944 6.297736736320 17.354521730661
1312 1 2.400000000000 37.851964995228 6.297736736320 15.426241538366
1313 2 -1.200000000000 35.625378819039 5.510519644280 15.426241538366
1314 2 -1.200000000000 33.398792642849 7.084953828360 15.426241538366
1315 2 -1.200000000000 36.738671907134 7.084953828360 13.497961346070
1316 2 -1.200000000000 34.512085730944 8.659388012441 13.497961346070
1317 2 -1.200000000000 36.738671907134 7.084953828360 17.354521730661
1318 2 -1.200000000000 34.512085730944 8.659388012441 17.354521730661
1319 2 -1.200000000000 37.851964995228 8.659388012441 15.426241538366
1320 2 -1.200000000000 35.625378819039 10.233822196521 15.426241538366
1321 1 2.400000000000 31.172206466659 6.297736736320 15.426241538366
1322 1 2.400000000000 30.058913378564 9.446605104481 13.497961346070
1323 1 2.400000000000 30.058913378564 9.446605104481 17.354521730661
1324 1 2.400000000000 33.398792642849 9.446605104481 15.426241538366
1325 2 -1.200000000000 31.172206466659 8.659388012441 15.426241538366
1326 2 -1.200000000000 28.945620290469 10.233822196521 15.426241538366
1327 2 -1.200000000000 32.285499554754 10.233822196521 13.497961346070
1328 2 -1.200000000000 30.058913378564 11.808256380601 13.497961346070
1329 2 -1.200000000000 32.285499554754 10.233822196521 17.354521730661
1330 2 -1.200000000000 30.058913378564 11.808256380601 17.354521730661
1331 2 -1.200000000000 33.398792642849 11.808256380601 15.426241538366
1332 2 -1.200000000000 31.172206466659 13.382690564681 15.426241538366
1333 1 2.400000000000 26.719034114279 9.446605104481 15.426241538366
1334 1 2.400000000000 25.605741026184 12.595473472641 13.497961346070
1335 1 2.400000000000 25.605741026184 12.595473472641 17.354521730661
1336 1 2.400000000000 28.945620290469 12.595473472641 15.426241538366
1337 2 -1.200000000000 26.719034114279 11.808256380601 15.426241538366
1338 2 -1.200000000000 24.492447938089 13.382690564681 15.426241538366
1339 2 -1.200000000000 27.832327202374 13.382690564681 13.497961346070
1340 2 -1.200000000000 25.605741026184 14.957124748761 13.497961346070
1341 2 -1.200000000000 27.832327202374 13.382690564681 17.354521730661
1342 2 -1.200000000000 25.605741026184 14.957124748761 17.354521730661
1343 2 -1.200000000000 28.945620290469 14.957124748761 15.426241538366
1344 2 -1.200000000000 26.719034114279 16.531558932841 15.426241538366
1345 1 2.400000000000 22.265861761899 12.595473472641 15.426241538366
1346 1 2.400000000000 21.152568673804 15.744341840801 13.497961346070
1347 1 2.400000000000 21.152568673804 15.744341840801 17.354521730661
1348 1 2.400000000000 24.492447938089 15.744341840801 15.426241538366
1349 2 -1.200000000000 22.265861761899 14.957124748761 15.426241538366
1350 2 -1.200000000000 20.039275585709 16.531558932841 15.426241538366
1351 2 -1.200000000000 23.379154849994 16.531558932841 13.497961346070
1352 2 -1.200000000000 21.152568673804 18.105993116921 13.497961346070
1353 2 -1.200000000000 23.379154849994 16.531558932841 17.354521730661
1354 2 -1.200000000000 21.152568673804 18.105993116921 17.354521730661
1355 2 -1.200000000000 24.492447938089 18.105993116921 15.426241538366
1356 2 -1.200000000000 22.265861761899 19.680427301001 15.426241538366
1357 1 2.400000000000 17.812689409519 15.744341840801 15.426241538366
1358 1 2.400000000000 16.699396321424 18.893210208961 13.497961346070
1359 1 2.400000000000 16.699396321424 18.893210208961 17.354521730661
1360 1 2.400000000000 20.039275585709 18.893210208961 15.426241538366
1361 2 -1.200000000000 17.812689409519 18.105993116921 15.426241538366
1362 2 -1.200000000000 15.586103233329 19.680427301001 15.426241538366
1363 2 -1.200000000000 18.925982497614 19.680427301001 13.497961346070
1364 2 -1.200000000000 16.699396321424 21.254861485081 13.497961346070
1365 2 -1.200000000000 18.925982497614 19.680427301001 17.354521730661
1366 2 -1.200000000000 16.699396321424 21.254861485081 17.354521730661
1367 2 -1.200000000000 20.039275585709 21.254861485081 15.426241538366
1368 2 -1.200000000000 17.812689409519 22.829295669162 15.426241538366
1369 1 2.400000000000 13.359517057139 18.893210208961 15.426241538366
1370 1 2.400000000000 12.246223969045 22.042078577122 13.497961346070
1371 1 2.400000000000 12.246223969045 22.042078577122 17.354521730661
1372 1 2.400000000000 15.586103233329 22.042078577122 15.426241538366
1373 2 -1.200000000000 13.359517057139 21.254861485081 15.426241538366
1374 2 -1.200000000000 11.132930880950 22.829295669162 15.426241538366
1375 2 -1.200000000000 14.472810145234 22.829295669162 13.497961346070
1376 2 -1.200000000000 12.246223969044 24.403729853242 13.497961346070
1377 2 -1.200000000000 14.472810145234 22.829295669162 17.354521730661
1378 2 -1.200000000000 12.246223969044 24.403729853242 17.354521730661
1379 2 -1.200000000000 15.586103233329 24.403729853242 15.426241538366
1380 2 -1.200000000000 13.359517057139 25.978164037322 15.426241538366
1381 1 2.400000000000 8.906344704760 22.042078577122 15.426241538366
1382 1 2.400000000000 7.793051616665 25.190946945282 13.497961346070
1383 1 2.400000000000 7.793051616665 25.190946945282 17.354521730661
1384 1 2.400000000000 11.132930880950 25.190946945282 15.426241538366
1385 2 -1.200000000000 8.906344704760 24.403729853242 15.426241538366
1386 2 -1.200000000000 6.679758528570 25.978164037322 15.426241538366
1387 2 -1.200000000000 10.019637792855 25.978164037322 13.497961346070
1388 2 -1.200000000000 7.793051616665 27.552598221402 13.497961346070
1389 2 -1.200000000000 10.019637792855 25.978164037322 17.354521730661
1390 2 -1.200000000000 7.793051616665 27.552598221402 17.354521730661
1391 2 -1.200000000000 11.132930880950 27.552598221402 15.426241538366
1392 2 -1.200000000000 8.906344704760 0.787217092040 15.426241538366
1393 1 2.400000000000 4.453172352380 25.190946945282 15.426241538366
1394 1 2.400000000000 3.339879264285 0.000000000000 13.497961346070
1395 1 2.400000000000 3.339879264285 0.000000000000 17.354521730661
1396 1 2.400000000000 6.679758528570 0.000000000000 15.426241538366
1397 2 -1.200000000000 4.453172352380 27.552598221402 15.426241538366
1398 2 -1.200000000000 2.226586176190 0.787217092040 15.426241538366
1399 2 -1.200000000000 5.566465440475 0.787217092040 13.497961346070
1400 2 -1.200000000000 3.339879264285 2.361651276120 13.497961346070
1401 2 -1.200000000000 5.566465440475 0.787217092040 17.354521730661
1402 2 -1.200000000000 3.339879264285 2.361651276120 17.354521730661
1403 2 -1.200000000000 6.679758528570 2.361651276120 15.426241538366
1404 2 -1.200000000000 4.453172352380 3.936085460200 15.426241538366
1405 1 2.400000000000 46.758309699988 0.000000000000 11.569681153774
1406 1 2.400000000000 45.645016611893 3.148868368160 9.641400961479
1407 1 2.400000000000 45.645016611893 3.148868368160 13.497961346070
1408 1 2.400000000000 48.984895876178 3.148868368160 11.569681153774
1409 2 -1.200000000000 46.758309699988 2.361651276120 11.569681153774
1410 2 -1.200000000000 44.531723523798 3.936085460200 11.569681153774
1411 2 -1.200000000000 47.871602788083 3.936085460200 9.641400961479
1412 2 -1.200000000000 45.645016611893 5.510519644280 9.641400961479
1413 2 -1.200000000000 47.871602788083 3.936085460200 13.497961346070
1414 2 -1.200000000000 45.645016611893 5.510519644280 13.497961346070
1415 2 -1.200000000000 48.984895876178 5.510519644280 11.569681153774
1416 2 -1.200000000000 46.758309699988 7.084953828360 11.569681153774
1417 1 2.400000000000 42.305137347608 3.148868368160 11.569681153774
1418 1 2.400000000000 41.191844259513 6.297736736320 9.641400961479
1419 1 2.400000000000 41.191844259513 6.297736736320 13.497961346070
1420 1 2.400000000000 44.531723523798 6.297736736320 11.569681153774
1421 2 -1.200000000000 42.305137347608 5.510519644280 11.569681153774
1422 2 -1.200000000000 40.078551171418 7.084953828360 11.569681153774
1423 2 -1.200000000000 43.418430435703 7.084953828360 9.641400961479
1424 2 -1.200000000000 41.191844259513 8.659388012441 9.641400961479
1425 2 -1.200000000000 43.418430435703 7.084953828360 13.497961346070
1426 2 -1.200000000000 41.191844259513 8.659388012441 13.497961346070
1427 2 -1.200000000000 44.531723523798 8.659388012441 11.569681153774
1428 2 -1.200000000000 42.305137347608 10.233822196521 11.569681153774
1429 1 2.400000000000 37.851964995228 6.297736736320 11.569681153774
1430 1 2.400000000000 36.738671907134 9.446605104481 9.641400961479
1431 1 2.400000000000 36.738671907134 9.446605104481 13.497961346070
1432 1 2.400000000000 40.078551171418 9.446605104481 11.569681153774
1433 2 -1.200000000000 37.851964995228 8.659388012441 11.569681153774
1434 2 -1.200000000000 35.625378819039 10.233822196521 11.569681153774
1435 2 -1.200000000000 38.965258083323 10.233822196521 9.641400961479
1436 2 -1.200000000000 36.738671907134 11.808256380601 9.641400961479
1437 2 -1.200000000000 38.965258083323 10.233822196521 13.497961346070
1438 2 -1.200000000000 36.738671907134 11.808256380601 13.497961346070
1439 2 -1.200000000000 40.078551171418 11.808256380601 11.569681153774
1440 2 -1.200000000000 37.851964995228 13.382690564681 11.569681153774
1441 1 2.400000000000 33.398792642849 9.446605104481 11.569681153774
1442 1 2.400000000000 32.285499554754 12.595473472641 9.641400961479
1443 1 2.400000000000 32.285499554754 12.595473472641 13.497961346070
1444 1 2.400000000000 35.625378819039 12.595473472641 11.569681153774
1445 2 -1.200000000000 33.398792642849 11.808256380601 11.569681153774
1446 2 -1.200000000000 31.172206466659 13.382690564681 11.569681153774
1447 2 -1.200000000000 34.512085730944 13.382690564681 9.641400961479
1448 2 -1.200000000000 32.285499554754 14.957124748761 9.641400961479
1449 2 -1.200000000000 34.512085730944 13.382690564681 13.497961346070
1450 2 -1.200000000000 32.285499554754 14.957124748761 13.497961346070
1451 2 -1.200000000000 35.625378819039 14.957124748761 11.569681153774
1452 2 -1.200000000000 33.398792642849 16.531558932841 11.569681153774
1453 1 2.400000000000 28.945620290469 12.595473472641 11.569681153774
1454 1 2.400000000000 27.832327202374 15.744341840801 9.641400961479
1455 1 2.400000000000 27.832327202374 15.744341840801 13.497961346070
1456 1 2.400000000000 31.172206466659 15.744341840801 11.569681153774
1457 2 -1.200000000000 28.945620290469 14.957124748761 11.569681153774
1458 2 -1.200000000000 26.719034114279 16.531558932841 11.569681153774
1459 2 -1.200000000000 30.058913378564 16.531558932841 9.641400961479
1460 2 -1.200000000000 27.832327202374 18.105993116921 9.641400961479
1461 2 -1.200000000000 30.058913378564 16.531558932841 13.497961346070
1462 2 -1.200000000000 27.832327202374 18.105993116921 13.497961346070
1463 2 -1.200000000000 31.172206466659 18.105993116921 11.569681153774
1464 2 -1.200000000000 28.945620290469 19.680427301001 11.569681153774
1465 1 2.400000000000 24.492447938089 15.744341840801 11.569681153774
1466 1 2.400000000000 23.379154849994 18.893210208961 9.641400961479
1467 1 2.400000000000 23.379154849994 18.893210208961 13.497961346070
1468 1 2.400000000000 26.719034114279 18.893210208961 11.569681153774
1469 2 -1.200000000000 24.492447938089 18.105993116921 11.569681153774
1470 2 -1.200000000000 22.265861761899 19.680427301001 11.569681153774
1471 2 -1.200000000000 25.605741026184 19.680427301001 9.641400961479
1472 2 -1.200000000000 23.379154849994 21.254861485081 9.641400961479
1473 2 -1.200000000000 25.605741026184 19.680427301001 13.497961346070
1474 2 -1.200000000000 23.379154849994 21.254861485081 13.497961346070
1475 2 -1.200000000000 26.719034114279 21.254861485081 11.569681153774
1476 2 -1.200000000000 24.492447938089 22.829295669162 11.569681153774
1477 1 2.400000000000 20.039275585709 18.893210208961 11.569681153774
1478 1 2.400000000000 18.925982497614 22.042078577122 9.641400961479
1479 1 2.400000000000 18.925982497614 22.042078577122 13.497961346070
1480 1 2.400000000000 22.265861761899 22.042078577122 11.569681153774
1481 2 -1.200000000000 20.039275585709 21.254861485081 11.569681153774
1482 2 -1.200000000000 17.812689409519 22.829295669162 11.569681153774
1483 2 -1.200000000000 21.152568673804 22.829295669162 9.641400961479
1484 2 -1.200000000000 18.925982497614 24.403729853242 9.641400961479
1485 2 -1.200000000000 21.152568673804 22.829295669162 13.497961346070
1486 2 -1.200000000000 18.925982497614 24.403729853242 13.497961346070
1487 2 -1.200000000000 22.265861761899 24.403729853242 11.569681153774
1488 2 -1.200000000000 20.039275585709 25.978164037322 11.569681153774
1489 1 2.400000000000 15.586103233329 22.042078577122 11.569681153774
1490 1 2.400000000000 14.472810145234 25.190946945282 9.641400961479
1491 1 2.400000000000 14.472810145234 25.190946945282 13.497961346070
1492 1 2.400000000000 17.812689409519 25.190946945282 11.569681153774
1493 2 -1.200000000000 15.586103233329 24.403729853242 11.569681153774
1494 2 -1.200000000000 13.359517057139 25.978164037322 11.569681153774
1495 2 -1.200000000000 16.699396321424 25.978164037322 9.641400961479
1496 2 -1.200000000000 14.472810145234 27.552598221402 9.641400961479
1497 2 -1.200000000000 16.699396321424 25.978164037322 13.497961346070
1498 2 -1.200000000000 14.472810145234 27.552598221402 13.497961346070
1499 2 -1.200000000000 17.812689409519 27.552598221402 11.569681153774
1500 2 -1.200000000000 15.586103233329 0.787217092040 11.569681153774
1501 1 2.400000000000 11.132930880950 25.190946945282 11.569681153774
1502 1 2.400000000000 10.019637792855 0.000000000000 9.641400961479
1503 1 2.400000000000 10.019637792855 0.000000000000 13.497961346070
1504 1 2.400000000000 13.359517057139 0.000000000000 11.569681153774
1505 2 -1.200000000000 11.132930880950 27.552598221402 11.569681153774
1506 2 -1.200000000000 8.906344704760 0.787217092040 11.569681153774
1507 2 -1.200000000000 12.246223969045 0.787217092040 9.641400961479
1508 2 -1.200000000000 10.019637792855 2.361651276120 9.641400961479
1509 2 -1.200000000000 12.246223969045 0.787217092040 13.497961346070
1510 2 -1.200000000000 10.019637792855 2.361651276120 13.497961346070
1511 2 -1.200000000000 13.359517057139 2.361651276120 11.569681153774
1512 2 -1.200000000000 11.132930880950 3.936085460200 11.569681153774
1513 1 2.400000000000 53.438068228558 0.000000000000 7.713120769183
1514 1 2.400000000000 52.324775140463 3.148868368160 5.784840576887
1515 1 2.400000000000 52.324775140463 3.148868368160 9.641400961479
1516 1 2.400000000000 55.664654404748 3.148868368160 7.713120769183
1517 2 -1.200000000000 53.438068228558 2.361651276120 7.713120769183
1518 2 -1.200000000000 51.211482052368 3.936085460200 7.713120769183
1519 2 -1.200000000000 54.551361316653 3.936085460200 5.784840576887
1520 2 -1.200000000000 52.324775140463 5.510519644280 5.784840576887
1521 2 -1.200000000000 54.551361316653 3.936085460200 9.641400961479
1522 2 -1.200000000000 52.324775140463 5.510519644280 9.641400961479
1523 2 -1.200000000000 55.664654404748 5.510519644280 7.713120769183
1524 2 -1.200000000000 53.438068228558 7.084953828360 7.713120769183
1525 1 2.400000000000 48.984895876178 3.148868368160 7.713120769183
1526 1 2.400000000000 47.871602788083 6.297736736320 5.784840576887
1527 1 2.400000000000 47.871602788083 6.297736736320 9.641400961479
1528 1 2.400000000000 51.211482052368 6.297736736320 7.713120769183
1529 2 -1.200000000000 48.984895876178 5.510519644280 7.713120769183
1530 2 -1.200000000000 46.758309699988 7.084953828360 7.713120769183
1531 2 -1.200000000000 50.098188964273 7.084953828360 5.784840576887
1532 2 -1.200000000000 47.871602788083 8.659388012441 5.784840576887
1533 2 -1.200000000000 50.098188964273 7.084953828360 9.641400961479
1534 2 -1.200000000000 47.871602788083 8.659388012441 9.641400961479
1535 2 -1.200000000000 51.211482052368 8.659388012441 7.713120769183
1536 2 -1.200000000000 48.984895876178 10.233822196521 7.713120769183
1537 1 2.400000000000 44.531723523798 6.297736736320 7.713120769183
1538 1 2.400000000000 43.418430435703 9.446605104481 5.784840576887
1539 1 2.400000000000 43.418430435703 9.446605104481 9.641400961479
1540 1 2.400000000000 46.758309699988 9.446605104481 7.713120769183
1541 2 -1.200000000000 44.531723523798 8.659388012441 7.713120769183
1542 2 -1.200000000000 42.305137347608 10.233822196521 7.713120769183
1543 2 -1.200000000000 45.645016611893 10.233822196521 5.784840576887
1544 2 -1.200000000000 43.418430435703 11.808256380601 5.784840576887
1545 2 -1.200000000000 45.645016611893 10.233822196521 9.641400961479
1546 2 -1.200000000000 43.418430435703 11.808256380601 9.641400961479
1547 2 -1.200000000000 46.758309699988 11.808256380601 7.713120769183
1548 2 -1.200000000000 44.531723523798 13.382690564681 7.713120769183
1549 1 2.400000000000 40.078551171418 9.446605104481 7.713120769183
1550 1 2.400000000000 38.965258083323 12.595473472641 5.784840576887
1551 1 2.400000000000 38.965258083323 12.595473472641 9.641400961479
1552 1 2.400000000000 42.305137347608 12.595473472641 7.713120769183
1553 2 -1.200000000000 40.078551171418 11.808256380601 7.713120769183
1554 2 -1.200000000000 37.851964995228 13.382690564681 7.713120769183
1555 2 -1.200000000000 41.191844259513 13.382690564681 5.784840576887
1556 2 -1.200000000000 38.965258083323 14.957124748761 5.784840576887
1557 2 -1.200000000000 41.191844259513 13.382690564681 9.641400961479
1558 2 -1.200000000000 38.965258083323 14.957124748761 9.641400961479
1559 2 -1.200000000000 42.305137347608 14.957124748761 7.713120769183
1560 2 -1.200000000000 40.078551171418 16.531558932841 7.713120769183
1561 1 2.400000000000 35.625378819039 12.595473472641 7.713120769183
1562 1 2.400000000000 34.512085730944 15.744341840801 5.784840576887
1563 1 2.400000000000 34.512085730944 15.744341840801 9.641400961479
1564 1 2.400000000000 37.851964995228 15.744341840801 7.713120769183
1565 2 -1.200000000000 35.625378819039 14.957124748761 7.713120769183
1566 2 -1.200000000000 33.398792642849 16.531558932841 7.713120769183
1567 2 -1.200000000000 36.738671907134 16.531558932841 5.784840576887
1568 2 -1.200000000000 34.512085730944 18.105993116921 5.784840576887
1569 2 -1.200000000000 36.738671907134 16.531558932841 9.641400961479
1570 2 -1.200000000000 34.512085730944 18.105993116921 9.641400961479
1571 2 -1.200000000000 37.851964995228 18.105993116921 7.713120769183
1572 2 -1.200000000000 35.625378819039 19.680427301001 7.713120769183
1573 1 2.400000000000 31.172206466659 15.744341840801 7.713120769183
1574 1 2.400000000000 30.058913378564 18.893210208961 5.784840576887
1575 1 2.400000000000 30.058913378564 18.893210208961 9.641400961479
1576 1 2.400000000000 33.398792642849 18.893210208961 7.713120769183
1577 2 -1.200000000000 31.172206466659 18.105993116921 7.713120769183
1578 2 -1.200000000000 28.945620290469 19.680427301001 7.713120769183
1579 2 -1.200000000000 32.285499554754 19.680427301001 5.784840576887
1580 2 -1.200000000000 30.058913378564 21.254861485081 5.784840576887
1581 2 -1.200000000000 32.285499554754 19.680427301001 9.641400961479
1582 2 -1.200000000000 30.058913378564 21.254861485081 9.641400961479
1583 2 -1.200000000000 33.398792642849 21.254861485081 7.713120769183
1584 2 -1.200000000000 31.172206466659 22.829295669162 7.713120769183
1585 1 2.400000000000 26.719034114279 18.893210208961 7.713120769183
1586 1 2.400000000000 25.605741026184 22.042078577122 5.784840576887
1587 1 2.400000000000 25.605741026184 22.042078577122 9.641400961479
1588 1 2.400000000000 28.945620290469 22.042078577122 7.713120769183
1589 2 -1.200000000000 26.719034114279 21.254861485081 7.713120769183
1590 2 -1.200000000000 24.492447938089 22.829295669162 7.713120769183
1591 2 -1.200000000000 27.832327202374 22.829295669162 5.784840576887
1592 2 -1.200000000000 25.605741026184 24.403729853242 5.784840576887
1593 2 -1.200000000000 27.832327202374 22.829295669162 9.641400961479
1594 2 -1.200000000000 25.605741026184 24.403729853242 9.641400961479
1595 2 -1.200000000000 28.945620290469 24.403729853242 7.713120769183
1596 2 -1.200000000000 26.719034114279 25.978164037322 7.713120769183
1597 1 2.400000000000 22.265861761899 22.042078577122 7.713120769183
1598 1 2.400000000000 21.152568673804 25.190946945282 5.784840576887
1599 1 2.400000000000 21.152568673804 25.190946945282 9.641400961479
1600 1 2.400000000000 24.492447938089 25.190946945282 7.713120769183
1601 2 -1.200000000000 22.265861761899 24.403729853242 7.713120769183
1602 2 -1.200000000000 20.039275585709 25.978164037322 7.713120769183
1603 2 -1.200000000000 23.379154849994 25.978164037322 5.784840576887
1604 2 -1.200000000000 21.152568673804 27.552598221402 5.784840576887
1605 2 -1.200000000000 23.379154849994 25.978164037322 9.641400961479
1606 2 -1.200000000000 21.152568673804 27.552598221402 9.641400961479
1607 2 -1.200000000000 24.492447938089 27.552598221402 7.713120769183
1608 2 -1.200000000000 22.265861761899 0.787217092040 7.713120769183
1609 1 2.400000000000 17.812689409519 25.190946945282 7.713120769183
1610 1 2.400000000000 16.699396321424 0.000000000000 5.784840576887
1611 1 2.400000000000 16.699396321424 0.000000000000 9.641400961479
1612 1 2.400000000000 20.039275585709 0.000000000000 7.713120769183
1613 2 -1.200000000000 17.812689409519 27.552598221402 7.713120769183
1614 2 -1.200000000000 15.586103233329 0.787217092040 7.713120769183
1615 2 -1.200000000000 18.925982497614 0.787217092040 5.784840576887
1616 2 -1.200000000000 16.699396321424 2.361651276120 5.784840576887
1617 2 -1.200000000000 18.925982497614 0.787217092040 9.641400961479
1618 2 -1.200000000000 16.699396321424 2.361651276120 9.641400961479
1619 2 -1.200000000000 20.039275585709 2.361651276120 7.713120769183
1620 2 -1.200000000000 17.812689409519 3.936085460200 7.713120769183
1621 1 2.400000000000 60.117826757128 0.000000000000 3.856560384591
1622 1 2.400000000000 59.004533669033 3.148868368160 1.928280192296
1623 1 2.400000000000 59.004533669033 3.148868368160 5.784840576887
1624 1 2.400000000000 62.344412933317 3.148868368160 3.856560384591
1625 2 -1.200000000000 60.117826757128 2.361651276120 3.856560384591
1626 2 -1.200000000000 57.891240580938 3.936085460200 3.856560384591
1627 2 -1.200000000000 61.231119845222 3.936085460200 1.928280192296
1628 2 -1.200000000000 59.004533669033 5.510519644280 1.928280192296
1629 2 -1.200000000000 61.231119845222 3.936085460200 5.784840576887
1630 2 -1.200000000000 59.004533669033 5.510519644280 5.784840576887
1631 2 -1.200000000000 62.344412933317 5.510519644280 3.856560384591
1632 2 -1.200000000000 60.117826757128 7.084953828360 3.856560384591
1633 1 2.400000000000 55.664654404748 3.148868368160 3.856560384591
1634 1 2.400000000000 54.551361316653 6.297736736320 1.928280192296
1635 1 2.400000000000 54.551361316653 6.297736736320 5.784840576887
1636 1 2.400000000000 57.891240580938 6.297736736320 3.856560384591
1637 2 -1.200000000000 55.664654404748 5.510519644280 3.856560384591
1638 2 -1.200000000000 53.438068228558 7.084953828360 3.856560384591
1639 2 -1.200000000000 56.777947492843 7.084953828360 1.928280192296
1640 2 -1.200000000000 54.551361316653 8.659388012441 1.928280192296
1641 2 -1.200000000000 56.777947492843 7.084953828360 5.784840576887
1642 2 -1.200000000000 54.551361316653 8.659388012441 5.784840576887
1643 2 -1.200000000000 57.891240580938 8.659388012441 3.856560384591
1644 2 -1.200000000000 55.664654404748 10.233822196521 3.856560384591
1645 1 2.400000000000 51.211482052368 6.297736736320 3.856560384591
1646 1 2.400000000000 50.098188964273 9.446605104481 1.928280192296
1647 1 2.400000000000 50.098188964273 9.446605104481 5.784840576887
1648 1 2.400000000000 53.438068228558 9.446605104481 3.856560384591
1649 2 -1.200000000000 51.211482052368 8.659388012441 3.856560384591
1650 2 -1.200000000000 48.984895876178 10.233822196521 3.856560384591
1651 2 -1.200000000000 52.324775140463 10.233822196521 1.928280192296
1652 2 -1.200000000000 50.098188964273 11.808256380601 1.928280192296
1653 2 -1.200000000000 52.324775140463 10.233822196521 5.784840576887
1654 2 -1.200000000000 50.098188964273 11.808256380601 5.784840576887
1655 2 -1.200000000000 53.438068228558 11.808256380601 3.856560384591
1656 2 -1.200000000000 51.211482052368 13.382690564681 3.856560384591
1657 1 2.400000000000 46.758309699988 9.446605104481 3.856560384591
1658 1 2.400000000000 45.645016611893 12.595473472641 1.928280192296
1659 1 2.400000000000 45.645016611893 12.595473472641 5.784840576887
1660 1 2.400000000000 48.984895876178 12.595473472641 3.856560384591
1661 2 -1.200000000000 46.758309699988 11.808256380601 3.856560384591
1662 2 -1.200000000000 44.531723523798 13.382690564681 3.856560384591
1663 2 -1.200000000000 47.871602788083 13.382690564681 1.928280192296
1664 2 -1.200000000000 45.645016611893 14.957124748761 1.928280192296
1665 2 -1.200000000000 47.871602788083 13.382690564681 5.784840576887
1666 2 -1.200000000000 45.645016611893 14.957124748761 5.784840576887
1667 2 -1.200000000000 48.984895876178 14.957124748761 3.856560384591
1668 2 -1.200000000000 46.758309699988 16.531558932841 3.856560384591
1669 1 2.400000000000 42.305137347608 12.595473472641 3.856560384591
1670 1 2.400000000000 41.191844259513 15.744341840801 1.928280192296
1671 1 2.400000000000 41.191844259513 15.744341840801 5.784840576887
1672 1 2.400000000000 44.531723523798 15.744341840801 3.856560384591
1673 2 -1.200000000000 42.305137347608 14.957124748761 3.856560384591
1674 2 -1.200000000000 40.078551171418 16.531558932841 3.856560384591
1675 2 -1.200000000000 43.418430435703 16.531558932841 1.928280192296
1676 2 -1.200000000000 41.191844259513 18.105993116921 1.928280192296
1677 2 -1.200000000000 43.418430435703 16.531558932841 5.784840576887
1678 2 -1.200000000000 41.191844259513 18.105993116921 5.784840576887
1679 2 -1.200000000000 44.531723523798 18.105993116921 3.856560384591
1680 2 -1.200000000000 42.305137347608 19.680427301001 3.856560384591
1681 1 2.400000000000 37.851964995228 15.744341840801 3.856560384591
1682 1 2.400000000000 36.738671907134 18.893210208961 1.928280192296
1683 1 2.400000000000 36.738671907134 18.893210208961 5.784840576887
1684 1 2.400000000000 40.078551171418 18.893210208961 3.856560384591
1685 2 -1.200000000000 37.851964995228 18.105993116921 3.856560384591
1686 2 -1.200000000000 35.625378819039 19.680427301001 3.856560384591
1687 2 -1.200000000000 38.965258083323 19.680427301001 1.928280192296
1688 2 -1.200000000000 36.738671907134 21.254861485081 1.928280192296
1689 2 -1.200000000000 38.965258083323 19.680427301001 5.784840576887
1690 2 -1.200000000000 36.738671907134 21.254861485081 5.784840576887
1691 2 -1.200000000000 40.078551171418 21.254861485081 3.856560384591
1692 2 -1.200000000000 37.851964995228 22.829295669162 3.856560384591
1693 1 2.400000000000 33.398792642849 18.893210208961 3.856560384591
1694 1 2.400000000000 32.285499554754 22.042078577122 1.928280192296
1695 1 2.400000000000 32.285499554754 22.042078577122 5.784840576887
1696 1 2.400000000000 35.625378819039 22.042078577122 3.856560384591
1697 2 -1.200000000000 33.398792642849 21.254861485081 3.856560384591
1698 2 -1.200000000000 31.172206466659 22.829295669162 3.856560384591
1699 2 -1.200000000000 34.512085730944 22.829295669162 1.928280192296
1700 2 -1.200000000000 32.285499554754 24.403729853242 1.928280192296
1701 2 -1.200000000000 34.512085730944 22.829295669162 5.784840576887
1702 2 -1.200000000000 32.285499554754 24.403729853242 5.784840576887
1703 2 -1.200000000000 35.625378819039 24.403729853242 3.856560384591
1704 2 -1.200000000000 33.398792642849 25.978164037322 3.856560384591
1705 1 2.400000000000 28.945620290469 22.042078577122 3.856560384591
1706 1 2.400000000000 27.832327202374 25.190946945282 1.928280192296
1707 1 2.400000000000 27.832327202374 25.190946945282 5.784840576887
1708 1 2.400000000000 31.172206466659 25.190946945282 3.856560384591
1709 2 -1.200000000000 28.945620290469 24.403729853242 3.856560384591
1710 2 -1.200000000000 26.719034114279 25.978164037322 3.856560384591
1711 2 -1.200000000000 30.058913378564 25.978164037322 1.928280192296
1712 2 -1.200000000000 27.832327202374 27.552598221402 1.928280192296
1713 2 -1.200000000000 30.058913378564 25.978164037322 5.784840576887
1714 2 -1.200000000000 27.832327202374 27.552598221402 5.784840576887
1715 2 -1.200000000000 31.172206466659 27.552598221402 3.856560384591
1716 2 -1.200000000000 28.945620290469 0.787217092040 3.856560384591
1717 1 2.400000000000 24.492447938089 25.190946945282 3.856560384591
1718 1 2.400000000000 23.379154849994 0.000000000000 1.928280192296
1719 1 2.400000000000 23.379154849994 0.000000000000 5.784840576887
1720 1 2.400000000000 26.719034114279 0.000000000000 3.856560384591
1721 2 -1.200000000000 24.492447938089 27.552598221402 3.856560384591
1722 2 -1.200000000000 22.265861761899 0.787217092040 3.856560384591
1723 2 -1.200000000000 25.605741026184 0.787217092040 1.928280192296
1724 2 -1.200000000000 23.379154849994 2.361651276120 1.928280192296
1725 2 -1.200000000000 25.605741026184 0.787217092040 5.784840576887
1726 2 -1.200000000000 23.379154849994 2.361651276120 5.784840576887
1727 2 -1.200000000000 26.719034114279 2.361651276120 3.856560384591
1728 2 -1.200000000000 24.492447938089 3.936085460200 3.856560384591
1729 1 2.400000000000 62.344412933317 3.148868368160 0.000000000000
1730 1 2.400000000000 61.231119845223 6.297736736320 21.211082115253
1731 1 2.400000000000 61.231119845223 6.297736736320 1.928280192296
1732 1 2.400000000000 64.570999109507 6.297736736320 0.000000000000
1733 2 -1.200000000000 62.344412933317 5.510519644280 0.000000000000
1734 2 -1.200000000000 60.117826757128 7.084953828360 0.000000000000
1735 2 -1.200000000000 63.457706021412 7.084953828360 21.211082115253
1736 2 -1.200000000000 61.231119845223 8.659388012441 21.211082115253
1737 2 -1.200000000000 63.457706021412 7.084953828360 1.928280192296
1738 2 -1.200000000000 61.231119845223 8.659388012441 1.928280192296
1739 2 -1.200000000000 64.570999109507 8.659388012441 0.000000000000
1740 2 -1.200000000000 62.344412933317 10.233822196521 0.000000000000
1741 1 2.400000000000 57.891240580938 6.297736736320 0.000000000000
1742 1 2.400000000000 56.777947492843 9.446605104481 21.211082115253
1743 1 2.400000000000 56.777947492843 9.446605104481 1.928280192296
1744 1 2.400000000000 60.117826757128 9.446605104481 0.000000000000
1745 2 -1.200000000000 57.891240580938 8.659388012441 0.000000000000
1746 2 -1.200000000000 55.664654404748 10.233822196521 0.000000000000
1747 2 -1.200000000000 59.004533669033 10.233822196521 21.211082115253
1748 2 -1.200000000000 56.777947492843 11.808256380601 21.211082115253
1749 2 -1.200000000000 59.004533669033 10.233822196521 1.928280192296
1750 2 -1.200000000000 56.777947492843 11.808256380601 1.928280192296
1751 2 -1.200000000000 60.117826757128 11.808256380601 0.000000000000
1752 2 -1.200000000000 57.891240580938 13.382690564681 0.000000000000
1753 1 2.400000000000 53.438068228558 9.446605104481 0.000000000000
1754 1 2.400000000000 52.324775140463 12.595473472641 21.211082115253
1755 1 2.400000000000 52.324775140463 12.595473472641 1.928280192296
1756 1 2.400000000000 55.664654404748 12.595473472641 0.000000000000
1757 2 -1.200000000000 53.438068228558 11.808256380601 0.000000000000
1758 2 -1.200000000000 51.211482052368 13.382690564681 0.000000000000
1759 2 -1.200000000000 54.551361316653 13.382690564681 21.211082115253
1760 2 -1.200000000000 52.324775140463 14.957124748761 21.211082115253
1761 2 -1.200000000000 54.551361316653 13.382690564681 1.928280192296
1762 2 -1.200000000000 52.324775140463 14.957124748761 1.928280192296
1763 2 -1.200000000000 55.664654404748 14.957124748761 0.000000000000
1764 2 -1.200000000000 53.438068228558 16.531558932841 0.000000000000
1765 1 2.400000000000 48.984895876178 12.595473472641 0.000000000000
1766 1 2.400000000000 47.871602788083 15.744341840801 21.211082115253
1767 1 2.400000000000 47.871602788083 15.744341840801 1.928280192296
1768 1 2.400000000000 51.211482052368 15.744341840801 0.000000000000
1769 2 -1.200000000000 48.984895876178 14.957124748761 0.000000000000
1770 2 -1.200000000000 46.758309699988 16.531558932841 0.000000000000
1771 2 -1.200000000000 50.098188964273 16.531558932841 21.211082115253
1772 2 -1.200000000000 47.871602788083 18.105993116921 21.211082115253
1773 2 -1.200000000000 50.098188964273 16.531558932841 1.928280192296
1774 2 -1.200000000000 47.871602788083 18.105993116921 1.928280192296
1775 2 -1.200000000000 51.211482052368 18.105993116921 0.000000000000
1776 2 -1.200000000000 48.984895876178 19.680427301001 0.000000000000
1777 1 2.400000000000 44.531723523798 15.744341840801 0.000000000000
1778 1 2.400000000000 43.418430435703 18.893210208961 21.211082115253
1779 1 2.400000000000 43.418430435703 18.893210208961 1.928280192296
1780 1 2.400000000000 46.758309699988 18.893210208961 0.000000000000
1781 2 -1.200000000000 44.531723523798 18.105993116921 0.000000000000
1782 2 -1.200000000000 42.305137347608 19.680427301001 0.000000000000
1783 2 -1.200000000000 45.645016611893 19.680427301001 21.211082115253
1784 2 -1.200000000000 43.418430435703 21.254861485081 21.211082115253
1785 2 -1.200000000000 45.645016611893 19.680427301001 1.928280192296
1786 2 -1.200000000000 43.418430435703 21.254861485081 1.928280192296
1787 2 -1.200000000000 46.758309699988 21.254861485081 0.000000000000
1788 2 -1.200000000000 44.531723523798 22.829295669162 0.000000000000
1789 1 2.400000000000 40.078551171418 18.893210208961 0.000000000000
1790 1 2.400000000000 38.965258083323 22.042078577122 21.211082115253
1791 1 2.400000000000 38.965258083323 22.042078577122 1.928280192296
1792 1 2.400000000000 42.305137347608 22.042078577122 0.000000000000
1793 2 -1.200000000000 40.078551171418 21.254861485081 0.000000000000
1794 2 -1.200000000000 37.851964995228 22.829295669162 0.000000000000
1795 2 -1.200000000000 41.191844259513 22.829295669162 21.211082115253
1796 2 -1.200000000000 38.965258083323 24.403729853242 21.211082115253
1797 2 -1.200000000000 41.191844259513 22.829295669162 1.928280192296
1798 2 -1.200000000000 38.965258083323 24.403729853242 1.928280192296
1799 2 -1.200000000000 42.305137347608 24.403729853242 0.000000000000
1800 2 -1.200000000000 40.078551171418 25.978164037322 0.000000000000
1801 1 2.400000000000 35.625378819039 22.042078577122 0.000000000000
1802 1 2.400000000000 34.512085730944 25.190946945282 21.211082115253
1803 1 2.400000000000 34.512085730944 25.190946945282 1.928280192296
1804 1 2.400000000000 37.851964995228 25.190946945282 0.000000000000
1805 2 -1.200000000000 35.625378819039 24.403729853242 0.000000000000
1806 2 -1.200000000000 33.398792642849 25.978164037322 0.000000000000
1807 2 -1.200000000000 36.738671907134 25.978164037322 21.211082115253
1808 2 -1.200000000000 34.512085730944 27.552598221402 21.211082115253
1809 2 -1.200000000000 36.738671907134 25.978164037322 1.928280192296
1810 2 -1.200000000000 34.512085730944 27.552598221402 1.928280192296
1811 2 -1.200000000000 37.851964995228 27.552598221402 0.000000000000
1812 2 -1.200000000000 35.625378819039 0.787217092040 0.000000000000
1813 1 2.400000000000 31.172206466659 25.190946945282 0.000000000000
1814 1 2.400000000000 30.058913378564 0.000000000000 21.211082115253
1815 1 2.400000000000 30.058913378564 0.000000000000 1.928280192296
1816 1 2.400000000000 33.398792642849 0.000000000000 0.000000000000
1817 2 -1.200000000000 31.172206466659 27.552598221402 0.000000000000
1818 2 -1.200000000000 28.945620290469 0.787217092040 0.000000000000
1819 2 -1.200000000000 32.285499554754 0.787217092040 21.211082115253
1820 2 -1.200000000000 30.058913378564 2.361651276120 21.211082115253
1821 2 -1.200000000000 32.285499554754 0.787217092040 1.928280192296
1822 2 -1.200000000000 30.058913378564 2.361651276120 1.928280192296
1823 2 -1.200000000000 33.398792642849 2.361651276120 0.000000000000
1824 2 -1.200000000000 31.172206466659 3.936085460200 0.000000000000
1825 1 2.400000000000 46.758309699988 0.000000000000 19.282801922957
1826 1 2.400000000000 45.645016611893 3.148868368160 17.354521730661
1827 1 2.400000000000 45.645016611893 3.148868368160 21.211082115253
1828 1 2.400000000000 48.984895876178 3.148868368160 19.282801922957
1829 2 -1.200000000000 46.758309699988 2.361651276120 19.282801922957
1830 2 -1.200000000000 44.531723523798 3.936085460200 19.282801922957
1831 2 -1.200000000000 47.871602788083 3.936085460200 17.354521730661
1832 2 -1.200000000000 45.645016611893 5.510519644280 17.354521730661
1833 2 -1.200000000000 47.871602788083 3.936085460200 21.211082115253
1834 2 -1.200000000000 45.645016611893 5.510519644280 21.211082115253
1835 2 -1.200000000000 48.984895876178 5.510519644280 19.282801922957
1836 2 -1.200000000000 46.758309699988 7.084953828360 19.282801922957
1837 1 2.400000000000 42.305137347608 3.148868368160 19.282801922957
1838 1 2.400000000000 41.191844259513 6.297736736320 17.354521730661
1839 1 2.400000000000 41.191844259513 6.297736736320 21.211082115253
1840 1 2.400000000000 44.531723523798 6.297736736320 19.282801922957
1841 2 -1.200000000000 42.305137347608 5.510519644280 19.282801922957
1842 2 -1.200000000000 40.078551171418 7.084953828360 19.282801922957
1843 2 -1.200000000000 43.418430435703 7.084953828360 17.354521730661
1844 2 -1.200000000000 41.191844259513 8.659388012441 17.354521730661
1845 2 -1.200000000000 43.418430435703 7.084953828360 21.211082115253
1846 2 -1.200000000000 41.191844259513 8.659388012441 21.211082115253
1847 2 -1.200000000000 44.531723523798 8.659388012441 19.282801922957
1848 2 -1.200000000000 42.305137347608 10.233822196521 19.282801922957
1849 1 2.400000000000 37.851964995228 6.297736736320 19.282801922957
1850 1 2.400000000000 36.738671907134 9.446605104481 17.354521730661
1851 1 2.400000000000 36.738671907134 9.446605104481 21.211082115253
1852 1 2.400000000000 40.078551171418 9.446605104481 19.282801922957
1853 2 -1.200000000000 37.851964995228 8.659388012441 19.282801922957
1854 2 -1.200000000000 35.625378819039 10.233822196521 19.282801922957
1855 2 -1.200000000000 38.965258083323 10.233822196521 17.354521730661
1856 2 -1.200000000000 36.738671907134 11.808256380601 17.354521730661
1857 2 -1.200000000000 38.965258083323 10.233822196521 21.211082115253
1858 2 -1.200000000000 36.738671907134 11.808256380601 21.211082115253
1859 2 -1.200000000000 40.078551171418 11.808256380601 19.282801922957
1860 2 -1.200000000000 37.851964995228 13.382690564681 19.282801922957
1861 1 2.400000000000 33.398792642849 9.446605104481 19.282801922957
1862 1 2.400000000000 32.285499554754 12.595473472641 17.354521730661
1863 1 2.400000000000 32.285499554754 12.595473472641 21.211082115253
1864 1 2.400000000000 35.625378819039 12.595473472641 19.282801922957
1865 2 -1.200000000000 33.398792642849 11.808256380601 19.282801922957
1866 2 -1.200000000000 31.172206466659 13.382690564681 19.282801922957
1867 2 -1.200000000000 34.512085730944 13.382690564681 17.354521730661
1868 2 -1.200000000000 32.285499554754 14.957124748761 17.354521730661
1869 2 -1.200000000000 34.512085730944 13.382690564681 21.211082115253
1870 2 -1.200000000000 32.285499554754 14.957124748761 21.211082115253
1871 2 -1.200000000000 35.625378819039 14.957124748761 19.282801922957
1872 2 -1.200000000000 33.398792642849 16.531558932841 19.282801922957
1873 1 2.400000000000 28.945620290469 12.595473472641 19.282801922957
1874 1 2.400000000000 27.832327202374 15.744341840801 17.354521730661
1875 1 2.400000000000 27.832327202374 15.744341840801 21.211082115253
1876 1 2.400000000000 31.172206466659 15.744341840801 19.282801922957
1877 2 -1.200000000000 28.945620290469 14.957124748761 19.282801922957
1878 2 -1.200000000000 26.719034114279 16.531558932841 19.282801922957
1879 2 -1.200000000000 30.058913378564 16.531558932841 17.354521730661
1880 2 -1.200000000000 27.832327202374 18.105993116921 17.354521730661
1881 2 -1.200000000000 30.058913378564 16.531558932841 21.211082115253
1882 2 -1.200000000000 27.832327202374 18.105993116921 21.211082115253
1883 2 -1.200000000000 31.172206466659 18.105993116921 19.282801922957
1884 2 -1.200000000000 28.945620290469 19.680427301001 19.282801922957
1885 1 2.400000000000 24.492447938089 15.744341840801 19.282801922957
1886 1 2.400000000000 23.379154849994 18.893210208961 17.354521730661
1887 1 2.400000000000 23.379154849994 18.893210208961 21.211082115253
1888 1 2.400000000000 26.719034114279 18.893210208961 19.282801922957
1889 2 -1.200000000000 24.492447938089 18.105993116921 19.282801922957
1890 2 -1.200000000000 22.265861761899 19.680427301001 19.282801922957
1891 2 -1.200000000000 25.605741026184 19.680427301001 17.354521730661
1892 2 -1.200000000000 23.379154849994 21.254861485081 17.354521730661
1893 2 -1.200000000000 25.605741026184 19.680427301001 21.211082115253
1894 2 -1.200000000000 23.379154849994 21.254861485081 21.211082115253
1895 2 -1.200000000000 26.719034114279 21.254861485081 19.282801922957
1896 2 -1.200000000000 24.492447938089 22.829295669162 19.282801922957
1897 1 2.400000000000 20.039275585709 18.893210208961 19.282801922957
1898 1 2.400000000000 18.925982497614 22.042078577122 17.354521730661
1899 1 2.400000000000 18.925982497614 22.042078577122 21.211082115253
1900 1 2.400000000000 22.265861761899 22.042078577122 19.282801922957
1901 2 -1.200000000000 20.039275585709 21.254861485081 19.282801922957
1902 2 -1.200000000000 17.812689409519 22.829295669162 19.282801922957
1903 2 -1.200000000000 21.152568673804 22.829295669162 17.354521730661
1904 2 -1.200000000000 18.925982497614 24.403729853242 17.354521730661
1905 2 -1.200000000000 21.152568673804 22.829295669162 21.211082115253
1906 2 -1.200000000000 18.925982497614 24.403729853242 21.211082115253
1907 2 -1.200000000000 22.265861761899 24.403729853242 19.282801922957
1908 2 -1.200000000000 20.039275585709 25.978164037322 19.282801922957
1909 1 2.400000000000 15.586103233329 22.042078577122 19.282801922957
1910 1 2.400000000000 14.472810145234 25.190946945282 17.354521730661
1911 1 2.400000000000 14.472810145234 25.190946945282 21.211082115253
1912 1 2.400000000000 17.812689409519 25.190946945282 19.282801922957
1913 2 -1.200000000000 15.586103233329 24.403729853242 19.282801922957
1914 2 -1.200000000000 13.359517057139 25.978164037322 19.282801922957
1915 2 -1.200000000000 16.699396321424 25.978164037322 17.354521730661
1916 2 -1.200000000000 14.472810145234 27.552598221402 17.354521730661
1917 2 -1.200000000000 16.699396321424 25.978164037322 21.211082115253
1918 2 -1.200000000000 14.472810145234 27.552598221402 21.211082115253
1919 2 -1.200000000000 17.812689409519 27.552598221402 19.282801922957
1920 2 -1.200000000000 15.586103233329 0.787217092040 19.282801922957
1921 1 2.400000000000 11.132930880950 25.190946945282 19.282801922957
1922 1 2.400000000000 10.019637792855 0.000000000000 17.354521730661
1923 1 2.400000000000 10.019637792855 0.000000000000 21.211082115253
1924 1 2.400000000000 13.359517057139 0.000000000000 19.282801922957
1925 2 -1.200000000000 11.132930880950 27.552598221402 19.282801922957
1926 2 -1.200000000000 8.906344704760 0.787217092040 19.282801922957
1927 2 -1.200000000000 12.246223969045 0.787217092040 17.354521730661
1928 2 -1.200000000000 10.019637792855 2.361651276120 17.354521730661
1929 2 -1.200000000000 12.246223969045 0.787217092040 21.211082115253
1930 2 -1.200000000000 10.019637792855 2.361651276120 21.211082115253
1931 2 -1.200000000000 13.359517057139 2.361651276120 19.282801922957
1932 2 -1.200000000000 11.132930880950 3.936085460200 19.282801922957
1933 1 2.400000000000 53.438068228558 0.000000000000 15.426241538366
1934 1 2.400000000000 52.324775140463 3.148868368160 13.497961346070
1935 1 2.400000000000 52.324775140463 3.148868368160 17.354521730661
1936 1 2.400000000000 55.664654404748 3.148868368160 15.426241538366
1937 2 -1.200000000000 53.438068228558 2.361651276120 15.426241538366
1938 2 -1.200000000000 51.211482052368 3.936085460200 15.426241538366
1939 2 -1.200000000000 54.551361316653 3.936085460200 13.497961346070
1940 2 -1.200000000000 52.324775140463 5.510519644280 13.497961346070
1941 2 -1.200000000000 54.551361316653 3.936085460200 17.354521730661
1942 2 -1.200000000000 52.324775140463 5.510519644280 17.354521730661
1943 2 -1.200000000000 55.664654404748 5.510519644280 15.426241538366
1944 2 -1.200000000000 53.438068228558 7.084953828360 15.426241538366
1945 1 2.400000000000 48.984895876178 3.148868368160 15.426241538366
1946 1 2.400000000000 47.871602788083 6.297736736320 13.497961346070
1947 1 2.400000000000 47.871602788083 6.297736736320 17.354521730661
1948 1 2.400000000000 51.211482052368 6.297736736320 15.426241538366
1949 2 -1.200000000000 48.984895876178 5.510519644280 15.426241538366
1950 2 -1.200000000000 46.758309699988 7.084953828360 15.426241538366
1951 2 -1.200000000000 50.098188964273 7.084953828360 13.497961346070
1952 2 -1.200000000000 47.871602788083 8.659388012441 13.497961346070
1953 2 -1.200000000000 50.098188964273 7.084953828360 17.354521730661
1954 2 -1.200000000000 47.871602788083 8.659388012441 17.354521730661
1955 2 -1.200000000000 51.211482052368 8.659388012441 15.426241538366
1956 2 -1.200000000000 48.984895876178 10.233822196521 15.426241538366
1957 1 2.400000000000 44.531723523798 6.297736736320 15.426241538366
1958 1 2.400000000000 43.418430435703 9.446605104481 13.497961346070
1959 1 2.400000000000 43.418430435703 9.446605104481 17.354521730661
1960 1 2.400000000000 46.758309699988 9.446605104481 15.426241538366
1961 2 -1.200000000000 44.531723523798 8.659388012441 15.426241538366
1962 2 -1.200000000000 42.305137347608 10.233822196521 15.426241538366
1963 2 -1.200000000000 45.645016611893 10.233822196521 13.497961346070
1964 2 -1.200000000000 43.418430435703 11.808256380601 13.497961346070
1965 2 -1.200000000000 45.645016611893 10.233822196521 17.354521730661
1966 2 -1.200000000000 43.418430435703 11.808256380601 17.354521730661
1967 2 -1.200000000000 46.758309699988 11.808256380601 15.426241538366
1968 2 -1.200000000000 44.531723523798 13.382690564681 15.426241538366
1969 1 2.400000000000 40.078551171418 9.446605104481 15.426241538366
1970 1 2.400000000000 38.965258083323 12.595473472641 13.497961346070
1971 1 2.400000000000 38.965258083323 12.595473472641 17.354521730661
1972 1 2.400000000000 42.305137347608 12.595473472641 15.426241538366
1973 2 -1.200000000000 40.078551171418 11.808256380601 15.426241538366
1974 2 -1.200000000000 37.851964995228 13.382690564681 15.426241538366
1975 2 -1.200000000000 41.191844259513 13.382690564681 13.497961346070
1976 2 -1.200000000000 38.965258083323 14.957124748761 13.497961346070
1977 2 -1.200000000000 41.191844259513 13.382690564681 17.354521730661
1978 2 -1.200000000000 38.965258083323 14.957124748761 17.354521730661
1979 2 -1.200000000000 42.305137347608 14.957124748761 15.426241538366
1980 2 -1.200000000000 40.078551171418 16.531558932841 15.426241538366
1981 1 2.400000000000 35.625378819039 12.595473472641 15.426241538366
1982 1 2.400000000000 34.512085730944 15.744341840801 13.497961346070
1983 1 2.400000000000 34.512085730944 15.744341840801 17.354521730661
1984 1 2.400000000000 37.851964995228 15.744341840801 15.426241538366
1985 2 -1.200000000000 35.625378819039 14.957124748761 15.426241538366
1986 2 -1.200000000000 33.398792642849 16.531558932841 15.426241538366
1987 2 -1.200000000000 36.738671907134 16.531558932841 13.497961346070
1988 2 -1.200000000000 34.512085730944 18.105993116921 13.497961346070
1989 2 -1.200000000000 36.738671907134 16.531558932841 17.354521730661
1990 2 -1.200000000000 34.512085730944 18.105993116921 17.354521730661
1991 2 -1.200000000000 37.851964995228 18.105993116921 15.426241538366
1992 2 -1.200000000000 35.625378819039 19.680427301001 15.426241538366
1993 1 2.400000000000 31.172206466659 15.744341840801 15.426241538366
1994 1 2.400000000000 30.058913378564 18.893210208961 13.497961346070
1995 1 2.400000000000 30.058913378564 18.893210208961 17.354521730661
1996 1 2.400000000000 33.398792642849 18.893210208961 15.426241538366
1997 2 -1.200000000000 31.172206466659 18.105993116921 15.426241538366
1998 2 -1.200000000000 28.945620290469 19.680427301001 15.426241538366
1999 2 -1.200000000000 32.285499554754 19.680427301001 13.497961346070
2000 2 -1.200000000000 30.058913378564 21.254861485081 13.497961346070
2001 2 -1.200000000000 32.285499554754 19.680427301001 17.354521730661
2002 2 -1.200000000000 30.058913378564 21.254861485081 17.354521730661
2003 2 -1.200000000000 33.398792642849 21.254861485081 15.426241538366
2004 2 -1.200000000000 31.172206466659 22.829295669162 15.426241538366
2005 1 2.400000000000 26.719034114279 18.893210208961 15.426241538366
2006 1 2.400000000000 25.605741026184 22.042078577122 13.497961346070
2007 1 2.400000000000 25.605741026184 22.042078577122 17.354521730661
2008 1 2.400000000000 28.945620290469 22.042078577122 15.426241538366
2009 2 -1.200000000000 26.719034114279 21.254861485081 15.426241538366
2010 2 -1.200000000000 24.492447938089 22.829295669162 15.426241538366
2011 2 -1.200000000000 27.832327202374 22.829295669162 13.497961346070
2012 2 -1.200000000000 25.605741026184 24.403729853242 13.497961346070
2013 2 -1.200000000000 27.832327202374 22.829295669162 17.354521730661
2014 2 -1.200000000000 25.605741026184 24.403729853242 17.354521730661
2015 2 -1.200000000000 28.945620290469 24.403729853242 15.426241538366
2016 2 -1.200000000000 26.719034114279 25.978164037322 15.426241538366
2017 1 2.400000000000 22.265861761899 22.042078577122 15.426241538366
2018 1 2.400000000000 21.152568673804 25.190946945282 13.497961346070
2019 1 2.400000000000 21.152568673804 25.190946945282 17.354521730661
2020 1 2.400000000000 24.492447938089 25.190946945282 15.426241538366
2021 2 -1.200000000000 22.265861761899 24.403729853242 15.426241538366
2022 2 -1.200000000000 20.039275585709 25.978164037322 15.426241538366
2023 2 -1.200000000000 23.379154849994 25.978164037322 13.497961346070
2024 2 -1.200000000000 21.152568673804 27.552598221402 13.497961346070
2025 2 -1.200000000000 23.379154849994 25.978164037322 17.354521730661
2026 2 -1.200000000000 21.152568673804 27.552598221402 17.354521730661
2027 2 -1.200000000000 24.492447938089 27.552598221402 15.426241538366
2028 2 -1.200000000000 22.265861761899 0.787217092040 15.426241538366
2029 1 2.400000000000 17.812689409519 25.190946945282 15.426241538366
2030 1 2.400000000000 16.699396321424 0.000000000000 13.497961346070
2031 1 2.400000000000 16.699396321424 0.000000000000 17.354521730661
2032 1 2.400000000000 20.039275585709 0.000000000000 15.426241538366
2033 2 -1.200000000000 17.812689409519 27.552598221402 15.426241538366
2034 2 -1.200000000000 15.586103233329 0.787217092040 15.426241538366
2035 2 -1.200000000000 18.925982497614 0.787217092040 13.497961346070
2036 2 -1.200000000000 16.699396321424 2.361651276120 13.497961346070
2037 2 -1.200000000000 18.925982497614 0.787217092040 17.354521730661
2038 2 -1.200000000000 16.699396321424 2.361651276120 17.354521730661
2039 2 -1.200000000000 20.039275585709 2.361651276120 15.426241538366
2040 2 -1.200000000000 17.812689409519 3.936085460200 15.426241538366
2041 1 2.400000000000 60.117826757128 0.000000000000 11.569681153774
2042 1 2.400000000000 59.004533669033 3.148868368160 9.641400961479
2043 1 2.400000000000 59.004533669033 3.148868368160 13.497961346070
2044 1 2.400000000000 62.344412933317 3.148868368160 11.569681153774
2045 2 -1.200000000000 60.117826757128 2.361651276120 11.569681153774
2046 2 -1.200000000000 57.891240580938 3.936085460200 11.569681153774
2047 2 -1.200000000000 61.231119845222 3.936085460200 9.641400961479
2048 2 -1.200000000000 59.004533669033 5.510519644280 9.641400961479
2049 2 -1.200000000000 61.231119845222 3.936085460200 13.497961346070
2050 2 -1.200000000000 59.004533669033 5.510519644280 13.497961346070
2051 2 -1.200000000000 62.344412933317 5.510519644280 11.569681153774
2052 2 -1.200000000000 60.117826757128 7.084953828360 11.569681153774
2053 1 2.400000000000 55.664654404748 3.148868368160 11.569681153774
2054 1 2.400000000000 54.551361316653 6.297736736320 9.641400961479
2055 1 2.400000000000 54.551361316653 6.297736736320 13.497961346070
2056 1 2.400000000000 57.891240580938 6.297736736320 11.569681153774
2057 2 -1.200000000000 55.664654404748 5.510519644280 11.569681153774
2058 2 -1.200000000000 53.438068228558 7.084953828360 11.569681153774
2059 2 -1.200000000000 56.777947492843 7.084953828360 9.641400961479
2060 2 -1.200000000000 54.551361316653 8.659388012441 9.641400961479
2061 2 -1.200000000000 56.777947492843 7.084953828360 13.497961346070
2062 2 -1.200000000000 54.551361316653 8.659388012441 13.497961346070
2063 2 -1.200000000000 57.891240580938 8.659388012441 11.569681153774
2064 2 -1.200000000000 55.664654404748 10.233822196521 11.569681153774
2065 1 2.400000000000 51.211482052368 6.297736736320 11.569681153774
2066 1 2.400000000000 50.098188964273 9.446605104481 9.641400961479
2067 1 2.400000000000 50.098188964273 9.446605104481 13.497961346070
2068 1 2.400000000000 53.438068228558 9.446605104481 11.569681153774
2069 2 -1.200000000000 51.211482052368 8.659388012441 11.569681153774
2070 2 -1.200000000000 48.984895876178 10.233822196521 11.569681153774
2071 2 -1.200000000000 52.324775140463 10.233822196521 9.641400961479
2072 2 -1.200000000000 50.098188964273 11.808256380601 9.641400961479
2073 2 -1.200000000000 52.324775140463 10.233822196521 13.497961346070
2074 2 -1.200000000000 50.098188964273 11.808256380601 13.497961346070
2075 2 -1.200000000000 53.438068228558 11.808256380601 11.569681153774
2076 2 -1.200000000000 51.211482052368 13.382690564681 11.569681153774
2077 1 2.400000000000 46.758309699988 9.446605104481 11.569681153774
2078 1 2.400000000000 45.645016611893 12.595473472641 9.641400961479
2079 1 2.400000000000 45.645016611893 12.595473472641 13.497961346070
2080 1 2.400000000000 48.984895876178 12.595473472641 11.569681153774
2081 2 -1.200000000000 46.758309699988 11.808256380601 11.569681153774
2082 2 -1.200000000000 44.531723523798 13.382690564681 11.569681153774
2083 2 -1.200000000000 47.871602788083 13.382690564681 9.641400961479
2084 2 -1.200000000000 45.645016611893 14.957124748761 9.641400961479
2085 2 -1.200000000000 47.871602788083 13.382690564681 13.497961346070
2086 2 -1.200000000000 45.645016611893 14.957124748761 13.497961346070
2087 2 -1.200000000000 48.984895876178 14.957124748761 11.569681153774
2088 2 -1.200000000000 46.758309699988 16.531558932841 11.569681153774
2089 1 2.400000000000 42.305137347608 12.595473472641 11.569681153774
2090 1 2.400000000000 41.191844259513 15.744341840801 9.641400961479
2091 1 2.400000000000 41.191844259513 15.744341840801 13.497961346070
2092 1 2.400000000000 44.531723523798 15.744341840801 11.569681153774
2093 2 -1.200000000000 42.305137347608 14.957124748761 11.569681153774
2094 2 -1.200000000000 40.078551171418 16.531558932841 11.569681153774
2095 2 -1.200000000000 43.418430435703 16.531558932841 9.641400961479
2096 2 -1.200000000000 41.191844259513 18.105993116921 9.641400961479
2097 2 -1.200000000000 43.418430435703 16.531558932841 13.497961346070
2098 2 -1.200000000000 41.191844259513 18.105993116921 13.497961346070
2099 2 -1.200000000000 44.531723523798 18.105993116921 11.569681153774
2100 2 -1.200000000000 42.305137347608 19.680427301001 11.569681153774
2101 1 2.400000000000 37.851964995228 15.744341840801 11.569681153774
2102 1 2.400000000000 36.738671907134 18.893210208961 9.641400961479
2103 1 2.400000000000 36.738671907133 18.893210208961 13.497961346070
2104 1 2.400000000000 40.078551171418 18.893210208961 11.569681153774
2105 2 -1.200000000000 37.851964995228 18.105993116921 11.569681153774
2106 2 -1.200000000000 35.625378819039 19.680427301001 11.569681153774
2107 2 -1.200000000000 38.965258083323 19.680427301001 9.641400961479
2108 2 -1.200000000000 36.738671907134 21.254861485081 9.641400961479
2109 2 -1.200000000000 38.965258083323 19.680427301001 13.497961346070
2110 2 -1.200000000000 36.738671907134 21.254861485081 13.497961346070
2111 2 -1.200000000000 40.078551171418 21.254861485081 11.569681153774
2112 2 -1.200000000000 37.851964995228 22.829295669162 11.569681153774
2113 1 2.400000000000 33.398792642849 18.893210208961 11.569681153774
2114 1 2.400000000000 32.285499554754 22.042078577122 9.641400961479
2115 1 2.400000000000 32.285499554754 22.042078577122 13.497961346070
2116 1 2.400000000000 35.625378819039 22.042078577122 11.569681153774
2117 2 -1.200000000000 33.398792642849 21.254861485081 11.569681153774
2118 2 -1.200000000000 31.172206466659 22.829295669162 11.569681153774
2119 2 -1.200000000000 34.512085730944 22.829295669162 9.641400961479
2120 2 -1.200000000000 32.285499554754 24.403729853242 9.641400961479
2121 2 -1.200000000000 34.512085730944 22.829295669162 13.497961346070
2122 2 -1.200000000000 32.285499554754 24.403729853242 13.497961346070
2123 2 -1.200000000000 35.625378819039 24.403729853242 11.569681153774
2124 2 -1.200000000000 33.398792642849 25.978164037322 11.569681153774
2125 1 2.400000000000 28.945620290469 22.042078577122 11.569681153774
2126 1 2.400000000000 27.832327202374 25.190946945282 9.641400961479
2127 1 2.400000000000 27.832327202374 25.190946945282 13.497961346070
2128 1 2.400000000000 31.172206466659 25.190946945282 11.569681153774
2129 2 -1.200000000000 28.945620290469 24.403729853242 11.569681153774
2130 2 -1.200000000000 26.719034114279 25.978164037322 11.569681153774
2131 2 -1.200000000000 30.058913378564 25.978164037322 9.641400961479
2132 2 -1.200000000000 27.832327202374 27.552598221402 9.641400961479
2133 2 -1.200000000000 30.058913378564 25.978164037322 13.497961346070
2134 2 -1.200000000000 27.832327202374 27.552598221402 13.497961346070
2135 2 -1.200000000000 31.172206466659 27.552598221402 11.569681153774
2136 2 -1.200000000000 28.945620290469 0.787217092040 11.569681153774
2137 1 2.400000000000 24.492447938089 25.190946945282 11.569681153774
2138 1 2.400000000000 23.379154849994 0.000000000000 9.641400961479
2139 1 2.400000000000 23.379154849994 0.000000000000 13.497961346070
2140 1 2.400000000000 26.719034114279 0.000000000000 11.569681153774
2141 2 -1.200000000000 24.492447938089 27.552598221402 11.569681153774
2142 2 -1.200000000000 22.265861761899 0.787217092040 11.569681153774
2143 2 -1.200000000000 25.605741026184 0.787217092040 9.641400961479
2144 2 -1.200000000000 23.379154849994 2.361651276120 9.641400961479
2145 2 -1.200000000000 25.605741026184 0.787217092040 13.497961346070
2146 2 -1.200000000000 23.379154849994 2.361651276120 13.497961346070
2147 2 -1.200000000000 26.719034114279 2.361651276120 11.569681153774
2148 2 -1.200000000000 24.492447938089 3.936085460200 11.569681153774
2149 1 2.400000000000 62.344412933317 3.148868368160 7.713120769183
2150 1 2.400000000000 61.231119845223 6.297736736320 5.784840576887
2151 1 2.400000000000 61.231119845223 6.297736736320 9.641400961479
2152 1 2.400000000000 64.570999109507 6.297736736320 7.713120769183
2153 2 -1.200000000000 62.344412933317 5.510519644280 7.713120769183
2154 2 -1.200000000000 60.117826757128 7.084953828360 7.713120769183
2155 2 -1.200000000000 63.457706021412 7.084953828360 5.784840576887
2156 2 -1.200000000000 61.231119845223 8.659388012441 5.784840576887
2157 2 -1.200000000000 63.457706021412 7.084953828360 9.641400961479
2158 2 -1.200000000000 61.231119845223 8.659388012441 9.641400961479
2159 2 -1.200000000000 64.570999109507 8.659388012441 7.713120769183
2160 2 -1.200000000000 62.344412933317 10.233822196521 7.713120769183
2161 1 2.400000000000 57.891240580938 6.297736736320 7.713120769183
2162 1 2.400000000000 56.777947492843 9.446605104481 5.784840576887
2163 1 2.400000000000 56.777947492843 9.446605104481 9.641400961479
2164 1 2.400000000000 60.117826757128 9.446605104481 7.713120769183
2165 2 -1.200000000000 57.891240580938 8.659388012441 7.713120769183
2166 2 -1.200000000000 55.664654404748 10.233822196521 7.713120769183
2167 2 -1.200000000000 59.004533669033 10.233822196521 5.784840576887
2168 2 -1.200000000000 56.777947492843 11.808256380601 5.784840576887
2169 2 -1.200000000000 59.004533669033 10.233822196521 9.641400961479
2170 2 -1.200000000000 56.777947492843 11.808256380601 9.641400961479
2171 2 -1.200000000000 60.117826757128 11.808256380601 7.713120769183
2172 2 -1.200000000000 57.891240580938 13.382690564681 7.713120769183
2173 1 2.400000000000 53.438068228558 9.446605104481 7.713120769183
2174 1 2.400000000000 52.324775140463 12.595473472641 5.784840576887
2175 1 2.400000000000 52.324775140463 12.595473472641 9.641400961479
2176 1 2.400000000000 55.664654404748 12.595473472641 7.713120769183
2177 2 -1.200000000000 53.438068228558 11.808256380601 7.713120769183
2178 2 -1.200000000000 51.211482052368 13.382690564681 7.713120769183
2179 2 -1.200000000000 54.551361316653 13.382690564681 5.784840576887
2180 2 -1.200000000000 52.324775140463 14.957124748761 5.784840576887
2181 2 -1.200000000000 54.551361316653 13.382690564681 9.641400961479
2182 2 -1.200000000000 52.324775140463 14.957124748761 9.641400961479
2183 2 -1.200000000000 55.664654404748 14.957124748761 7.713120769183
2184 2 -1.200000000000 53.438068228558 16.531558932841 7.713120769183
2185 1 2.400000000000 48.984895876178 12.595473472641 7.713120769183
2186 1 2.400000000000 47.871602788083 15.744341840801 5.784840576887
2187 1 2.400000000000 47.871602788083 15.744341840801 9.641400961479
2188 1 2.400000000000 51.211482052368 15.744341840801 7.713120769183
2189 2 -1.200000000000 48.984895876178 14.957124748761 7.713120769183
2190 2 -1.200000000000 46.758309699988 16.531558932841 7.713120769183
2191 2 -1.200000000000 50.098188964273 16.531558932841 5.784840576887
2192 2 -1.200000000000 47.871602788083 18.105993116921 5.784840576887
2193 2 -1.200000000000 50.098188964273 16.531558932841 9.641400961479
2194 2 -1.200000000000 47.871602788083 18.105993116921 9.641400961479
2195 2 -1.200000000000 51.211482052368 18.105993116921 7.713120769183
2196 2 -1.200000000000 48.984895876178 19.680427301001 7.713120769183
2197 1 2.400000000000 44.531723523798 15.744341840801 7.713120769183
2198 1 2.400000000000 43.418430435703 18.893210208961 5.784840576887
2199 1 2.400000000000 43.418430435703 18.893210208961 9.641400961479
2200 1 2.400000000000 46.758309699988 18.893210208961 7.713120769183
2201 2 -1.200000000000 44.531723523798 18.105993116921 7.713120769183
2202 2 -1.200000000000 42.305137347608 19.680427301001 7.713120769183
2203 2 -1.200000000000 45.645016611893 19.680427301001 5.784840576887
2204 2 -1.200000000000 43.418430435703 21.254861485081 5.784840576887
2205 2 -1.200000000000 45.645016611893 19.680427301001 9.641400961479
2206 2 -1.200000000000 43.418430435703 21.254861485081 9.641400961479
2207 2 -1.200000000000 46.758309699988 21.254861485081 7.713120769183
2208 2 -1.200000000000 44.531723523798 22.829295669162 7.713120769183
2209 1 2.400000000000 40.078551171418 18.893210208961 7.713120769183
2210 1 2.400000000000 38.965258083323 22.042078577122 5.784840576887
2211 1 2.400000000000 38.965258083323 22.042078577122 9.641400961479
2212 1 2.400000000000 42.305137347608 22.042078577122 7.713120769183
2213 2 -1.200000000000 40.078551171418 21.254861485081 7.713120769183
2214 2 -1.200000000000 37.851964995228 22.829295669162 7.713120769183
2215 2 -1.200000000000 41.191844259513 22.829295669162 5.784840576887
2216 2 -1.200000000000 38.965258083323 24.403729853242 5.784840576887
2217 2 -1.200000000000 41.191844259513 22.829295669162 9.641400961479
2218 2 -1.200000000000 38.965258083323 24.403729853242 9.641400961479
2219 2 -1.200000000000 42.305137347608 24.403729853242 7.713120769183
2220 2 -1.200000000000 40.078551171418 25.978164037322 7.713120769183
2221 1 2.400000000000 35.625378819039 22.042078577122 7.713120769183
2222 1 2.400000000000 34.512085730944 25.190946945282 5.784840576887
2223 1 2.400000000000 34.512085730944 25.190946945282 9.641400961479
2224 1 2.400000000000 37.851964995228 25.190946945282 7.713120769183
2225 2 -1.200000000000 35.625378819039 24.403729853242 7.713120769183
2226 2 -1.200000000000 33.398792642849 25.978164037322 7.713120769183
2227 2 -1.200000000000 36.738671907134 25.978164037322 5.784840576887
2228 2 -1.200000000000 34.512085730944 27.552598221402 5.784840576887
2229 2 -1.200000000000 36.738671907133 25.978164037322 9.641400961479
2230 2 -1.200000000000 34.512085730944 27.552598221402 9.641400961479
2231 2 -1.200000000000 37.851964995228 27.552598221402 7.713120769183
2232 2 -1.200000000000 35.625378819039 0.787217092040 7.713120769183
2233 1 2.400000000000 31.172206466659 25.190946945282 7.713120769183
2234 1 2.400000000000 30.058913378564 0.000000000000 5.784840576887
2235 1 2.400000000000 30.058913378564 0.000000000000 9.641400961479
2236 1 2.400000000000 33.398792642849 0.000000000000 7.713120769183
2237 2 -1.200000000000 31.172206466659 27.552598221402 7.713120769183
2238 2 -1.200000000000 28.945620290469 0.787217092040 7.713120769183
2239 2 -1.200000000000 32.285499554754 0.787217092040 5.784840576887
2240 2 -1.200000000000 30.058913378564 2.361651276120 5.784840576887
2241 2 -1.200000000000 32.285499554754 0.787217092040 9.641400961479
2242 2 -1.200000000000 30.058913378564 2.361651276120 9.641400961479
2243 2 -1.200000000000 33.398792642849 2.361651276120 7.713120769183
2244 2 -1.200000000000 31.172206466659 3.936085460200 7.713120769183
2245 1 2.400000000000 60.117826757128 9.446605104481 3.856560384591
2246 1 2.400000000000 59.004533669033 12.595473472641 1.928280192296
2247 1 2.400000000000 59.004533669033 12.595473472641 5.784840576887
2248 1 2.400000000000 62.344412933317 12.595473472641 3.856560384591
2249 2 -1.200000000000 60.117826757128 11.808256380601 3.856560384591
2250 2 -1.200000000000 57.891240580938 13.382690564681 3.856560384591
2251 2 -1.200000000000 61.231119845223 13.382690564681 1.928280192296
2252 2 -1.200000000000 59.004533669033 14.957124748761 1.928280192296
2253 2 -1.200000000000 61.231119845223 13.382690564681 5.784840576887
2254 2 -1.200000000000 59.004533669033 14.957124748761 5.784840576887
2255 2 -1.200000000000 62.344412933317 14.957124748761 3.856560384591
2256 2 -1.200000000000 60.117826757128 16.531558932841 3.856560384591
2257 1 2.400000000000 55.664654404748 12.595473472641 3.856560384591
2258 1 2.400000000000 54.551361316653 15.744341840801 1.928280192296
2259 1 2.400000000000 54.551361316653 15.744341840801 5.784840576887
2260 1 2.400000000000 57.891240580938 15.744341840801 3.856560384591
2261 2 -1.200000000000 55.664654404748 14.957124748761 3.856560384591
2262 2 -1.200000000000 53.438068228558 16.531558932841 3.856560384591
2263 2 -1.200000000000 56.777947492843 16.531558932841 1.928280192296
2264 2 -1.200000000000 54.551361316653 18.105993116921 1.928280192296
2265 2 -1.200000000000 56.777947492843 16.531558932841 5.784840576887
2266 2 -1.200000000000 54.551361316653 18.105993116921 5.784840576887
2267 2 -1.200000000000 57.891240580938 18.105993116921 3.856560384591
2268 2 -1.200000000000 55.664654404748 19.680427301001 3.856560384591
2269 1 2.400000000000 51.211482052368 15.744341840801 3.856560384591
2270 1 2.400000000000 50.098188964273 18.893210208961 1.928280192296
2271 1 2.400000000000 50.098188964273 18.893210208961 5.784840576887
2272 1 2.400000000000 53.438068228558 18.893210208961 3.856560384591
2273 2 -1.200000000000 51.211482052368 18.105993116921 3.856560384591
2274 2 -1.200000000000 48.984895876178 19.680427301001 3.856560384591
2275 2 -1.200000000000 52.324775140463 19.680427301001 1.928280192296
2276 2 -1.200000000000 50.098188964273 21.254861485081 1.928280192296
2277 2 -1.200000000000 52.324775140463 19.680427301001 5.784840576887
2278 2 -1.200000000000 50.098188964273 21.254861485081 5.784840576887
2279 2 -1.200000000000 53.438068228558 21.254861485081 3.856560384591
2280 2 -1.200000000000 51.211482052368 22.829295669162 3.856560384591
2281 1 2.400000000000 46.758309699988 18.893210208961 3.856560384591
2282 1 2.400000000000 45.645016611893 22.042078577122 1.928280192296
2283 1 2.400000000000 45.645016611893 22.042078577122 5.784840576887
2284 1 2.400000000000 48.984895876178 22.042078577122 3.856560384591
2285 2 -1.200000000000 46.758309699988 21.254861485081 3.856560384591
2286 2 -1.200000000000 44.531723523798 22.829295669162 3.856560384591
2287 2 -1.200000000000 47.871602788083 22.829295669162 1.928280192296
2288 2 -1.200000000000 45.645016611893 24.403729853242 1.928280192296
2289 2 -1.200000000000 47.871602788083 22.829295669162 5.784840576887
2290 2 -1.200000000000 45.645016611893 24.403729853242 5.784840576887
2291 2 -1.200000000000 48.984895876178 24.403729853242 3.856560384591
2292 2 -1.200000000000 46.758309699988 25.978164037322 3.856560384591
2293 1 2.400000000000 42.305137347608 22.042078577122 3.856560384591
2294 1 2.400000000000 41.191844259513 25.190946945282 1.928280192296
2295 1 2.400000000000 41.191844259513 25.190946945282 5.784840576887
2296 1 2.400000000000 44.531723523798 25.190946945282 3.856560384591
2297 2 -1.200000000000 42.305137347608 24.403729853242 3.856560384591
2298 2 -1.200000000000 40.078551171418 25.978164037322 3.856560384591
2299 2 -1.200000000000 43.418430435703 25.978164037322 1.928280192296
2300 2 -1.200000000000 41.191844259513 27.552598221402 1.928280192296
2301 2 -1.200000000000 43.418430435703 25.978164037322 5.784840576887
2302 2 -1.200000000000 41.191844259513 27.552598221402 5.784840576887
2303 2 -1.200000000000 44.531723523798 27.552598221402 3.856560384591
2304 2 -1.200000000000 42.305137347608 0.787217092040 3.856560384591
2305 1 2.400000000000 37.851964995228 25.190946945282 3.856560384591
2306 1 2.400000000000 36.738671907134 0.000000000000 1.928280192296
2307 1 2.400000000000 36.738671907133 0.000000000000 5.784840576887
2308 1 2.400000000000 40.078551171418 0.000000000000 3.856560384591
2309 2 -1.200000000000 37.851964995228 27.552598221402 3.856560384591
2310 2 -1.200000000000 35.625378819039 0.787217092040 3.856560384591
2311 2 -1.200000000000 38.965258083323 0.787217092040 1.928280192296
2312 2 -1.200000000000 36.738671907134 2.361651276120 1.928280192296
2313 2 -1.200000000000 38.965258083323 0.787217092040 5.784840576887
2314 2 -1.200000000000 36.738671907134 2.361651276120 5.784840576887
2315 2 -1.200000000000 40.078551171418 2.361651276120 3.856560384591
2316 2 -1.200000000000 37.851964995228 3.936085460200 3.856560384591
2317 1 2.400000000000 62.344412933317 12.595473472641 0.000000000000
2318 1 2.400000000000 61.231119845223 15.744341840801 21.211082115253
2319 1 2.400000000000 61.231119845223 15.744341840801 1.928280192296
2320 1 2.400000000000 64.570999109507 15.744341840801 0.000000000000
2321 2 -1.200000000000 62.344412933317 14.957124748761 0.000000000000
2322 2 -1.200000000000 60.117826757128 16.531558932841 0.000000000000
2323 2 -1.200000000000 63.457706021412 16.531558932841 21.211082115253
2324 2 -1.200000000000 61.231119845223 18.105993116921 21.211082115253
2325 2 -1.200000000000 63.457706021412 16.531558932841 1.928280192296
2326 2 -1.200000000000 61.231119845223 18.105993116921 1.928280192296
2327 2 -1.200000000000 64.570999109507 18.105993116921 0.000000000000
2328 2 -1.200000000000 62.344412933317 19.680427301001 0.000000000000
2329 1 2.400000000000 57.891240580938 15.744341840801 0.000000000000
2330 1 2.400000000000 56.777947492843 18.893210208961 21.211082115253
2331 1 2.400000000000 56.777947492843 18.893210208961 1.928280192296
2332 1 2.400000000000 60.117826757128 18.893210208961 0.000000000000
2333 2 -1.200000000000 57.891240580938 18.105993116921 0.000000000000
2334 2 -1.200000000000 55.664654404748 19.680427301001 0.000000000000
2335 2 -1.200000000000 59.004533669033 19.680427301001 21.211082115253
2336 2 -1.200000000000 56.777947492843 21.254861485081 21.211082115253
2337 2 -1.200000000000 59.004533669033 19.680427301001 1.928280192296
2338 2 -1.200000000000 56.777947492843 21.254861485081 1.928280192296
2339 2 -1.200000000000 60.117826757128 21.254861485081 0.000000000000
2340 2 -1.200000000000 57.891240580938 22.829295669162 0.000000000000
2341 1 2.400000000000 53.438068228558 18.893210208961 0.000000000000
2342 1 2.400000000000 52.324775140463 22.042078577122 21.211082115253
2343 1 2.400000000000 52.324775140463 22.042078577122 1.928280192296
2344 1 2.400000000000 55.664654404748 22.042078577122 0.000000000000
2345 2 -1.200000000000 53.438068228558 21.254861485081 0.000000000000
2346 2 -1.200000000000 51.211482052368 22.829295669162 0.000000000000
2347 2 -1.200000000000 54.551361316653 22.829295669162 21.211082115253
2348 2 -1.200000000000 52.324775140463 24.403729853242 21.211082115253
2349 2 -1.200000000000 54.551361316653 22.829295669162 1.928280192296
2350 2 -1.200000000000 52.324775140463 24.403729853242 1.928280192296
2351 2 -1.200000000000 55.664654404748 24.403729853242 0.000000000000
2352 2 -1.200000000000 53.438068228558 25.978164037322 0.000000000000
2353 1 2.400000000000 48.984895876178 22.042078577122 0.000000000000
2354 1 2.400000000000 47.871602788083 25.190946945282 21.211082115253
2355 1 2.400000000000 47.871602788083 25.190946945282 1.928280192296
2356 1 2.400000000000 51.211482052368 25.190946945282 0.000000000000
2357 2 -1.200000000000 48.984895876178 24.403729853242 0.000000000000
2358 2 -1.200000000000 46.758309699988 25.978164037322 0.000000000000
2359 2 -1.200000000000 50.098188964273 25.978164037322 21.211082115253
2360 2 -1.200000000000 47.871602788083 27.552598221402 21.211082115253
2361 2 -1.200000000000 50.098188964273 25.978164037322 1.928280192296
2362 2 -1.200000000000 47.871602788083 27.552598221402 1.928280192296
2363 2 -1.200000000000 51.211482052368 27.552598221402 0.000000000000
2364 2 -1.200000000000 48.984895876178 0.787217092040 0.000000000000
2365 1 2.400000000000 44.531723523798 25.190946945282 0.000000000000
2366 1 2.400000000000 43.418430435703 0.000000000000 21.211082115253
2367 1 2.400000000000 43.418430435703 0.000000000000 1.928280192296
2368 1 2.400000000000 46.758309699988 0.000000000000 0.000000000000
2369 2 -1.200000000000 44.531723523798 27.552598221402 0.000000000000
2370 2 -1.200000000000 42.305137347608 0.787217092040 0.000000000000
2371 2 -1.200000000000 45.645016611893 0.787217092040 21.211082115253
2372 2 -1.200000000000 43.418430435703 2.361651276120 21.211082115253
2373 2 -1.200000000000 45.645016611893 0.787217092040 1.928280192296
2374 2 -1.200000000000 43.418430435703 2.361651276120 1.928280192296
2375 2 -1.200000000000 46.758309699988 2.361651276120 0.000000000000
2376 2 -1.200000000000 44.531723523798 3.936085460200 0.000000000000
2377 1 2.400000000000 60.117826757128 0.000000000000 19.282801922957
2378 1 2.400000000000 59.004533669033 3.148868368160 17.354521730661
2379 1 2.400000000000 59.004533669033 3.148868368160 21.211082115253
2380 1 2.400000000000 62.344412933317 3.148868368160 19.282801922957
2381 2 -1.200000000000 60.117826757128 2.361651276120 19.282801922957
2382 2 -1.200000000000 57.891240580938 3.936085460200 19.282801922957
2383 2 -1.200000000000 61.231119845223 3.936085460200 17.354521730661
2384 2 -1.200000000000 59.004533669033 5.510519644280 17.354521730661
2385 2 -1.200000000000 61.231119845222 3.936085460200 21.211082115253
2386 2 -1.200000000000 59.004533669033 5.510519644280 21.211082115253
2387 2 -1.200000000000 62.344412933317 5.510519644280 19.282801922957
2388 2 -1.200000000000 60.117826757128 7.084953828360 19.282801922957
2389 1 2.400000000000 55.664654404748 3.148868368160 19.282801922957
2390 1 2.400000000000 54.551361316653 6.297736736320 17.354521730661
2391 1 2.400000000000 54.551361316653 6.297736736320 21.211082115253
2392 1 2.400000000000 57.891240580938 6.297736736320 19.282801922957
2393 2 -1.200000000000 55.664654404748 5.510519644280 19.282801922957
2394 2 -1.200000000000 53.438068228558 7.084953828360 19.282801922957
2395 2 -1.200000000000 56.777947492843 7.084953828360 17.354521730661
2396 2 -1.200000000000 54.551361316653 8.659388012441 17.354521730661
2397 2 -1.200000000000 56.777947492843 7.084953828360 21.211082115253
2398 2 -1.200000000000 54.551361316653 8.659388012441 21.211082115253
2399 2 -1.200000000000 57.891240580938 8.659388012441 19.282801922957
2400 2 -1.200000000000 55.664654404748 10.233822196521 19.282801922957
2401 1 2.400000000000 51.211482052368 6.297736736320 19.282801922957
2402 1 2.400000000000 50.098188964273 9.446605104481 17.354521730661
2403 1 2.400000000000 50.098188964273 9.446605104481 21.211082115253
2404 1 2.400000000000 53.438068228558 9.446605104481 19.282801922957
2405 2 -1.200000000000 51.211482052368 8.659388012441 19.282801922957
2406 2 -1.200000000000 48.984895876178 10.233822196521 19.282801922957
2407 2 -1.200000000000 52.324775140463 10.233822196521 17.354521730661
2408 2 -1.200000000000 50.098188964273 11.808256380601 17.354521730661
2409 2 -1.200000000000 52.324775140463 10.233822196521 21.211082115253
2410 2 -1.200000000000 50.098188964273 11.808256380601 21.211082115253
2411 2 -1.200000000000 53.438068228558 11.808256380601 19.282801922957
2412 2 -1.200000000000 51.211482052368 13.382690564681 19.282801922957
2413 1 2.400000000000 46.758309699988 9.446605104481 19.282801922957
2414 1 2.400000000000 45.645016611893 12.595473472641 17.354521730661
2415 1 2.400000000000 45.645016611893 12.595473472641 21.211082115253
2416 1 2.400000000000 48.984895876178 12.595473472641 19.282801922957
2417 2 -1.200000000000 46.758309699988 11.808256380601 19.282801922957
2418 2 -1.200000000000 44.531723523798 13.382690564681 19.282801922957
2419 2 -1.200000000000 47.871602788083 13.382690564681 17.354521730661
2420 2 -1.200000000000 45.645016611893 14.957124748761 17.354521730661
2421 2 -1.200000000000 47.871602788083 13.382690564681 21.211082115253
2422 2 -1.200000000000 45.645016611893 14.957124748761 21.211082115253
2423 2 -1.200000000000 48.984895876178 14.957124748761 19.282801922957
2424 2 -1.200000000000 46.758309699988 16.531558932841 19.282801922957
2425 1 2.400000000000 42.305137347608 12.595473472641 19.282801922957
2426 1 2.400000000000 41.191844259513 15.744341840801 17.354521730661
2427 1 2.400000000000 41.191844259513 15.744341840801 21.211082115253
2428 1 2.400000000000 44.531723523798 15.744341840801 19.282801922957
2429 2 -1.200000000000 42.305137347608 14.957124748761 19.282801922957
2430 2 -1.200000000000 40.078551171418 16.531558932841 19.282801922957
2431 2 -1.200000000000 43.418430435703 16.531558932841 17.354521730661
2432 2 -1.200000000000 41.191844259513 18.105993116921 17.354521730661
2433 2 -1.200000000000 43.418430435703 16.531558932841 21.211082115253
2434 2 -1.200000000000 41.191844259513 18.105993116921 21.211082115253
2435 2 -1.200000000000 44.531723523798 18.105993116921 19.282801922957
2436 2 -1.200000000000 42.305137347608 19.680427301001 19.282801922957
2437 1 2.400000000000 37.851964995228 15.744341840801 19.282801922957
2438 1 2.400000000000 36.738671907134 18.893210208961 17.354521730661
2439 1 2.400000000000 36.738671907134 18.893210208961 21.211082115253
2440 1 2.400000000000 40.078551171418 18.893210208961 19.282801922957
2441 2 -1.200000000000 37.851964995228 18.105993116921 19.282801922957
2442 2 -1.200000000000 35.625378819039 19.680427301001 19.282801922957
2443 2 -1.200000000000 38.965258083323 19.680427301001 17.354521730661
2444 2 -1.200000000000 36.738671907134 21.254861485081 17.354521730661
2445 2 -1.200000000000 38.965258083323 19.680427301001 21.211082115253
2446 2 -1.200000000000 36.738671907134 21.254861485081 21.211082115253
2447 2 -1.200000000000 40.078551171418 21.254861485081 19.282801922957
2448 2 -1.200000000000 37.851964995228 22.829295669162 19.282801922957
2449 1 2.400000000000 33.398792642849 18.893210208961 19.282801922957
2450 1 2.400000000000 32.285499554754 22.042078577122 17.354521730661
2451 1 2.400000000000 32.285499554754 22.042078577122 21.211082115253
2452 1 2.400000000000 35.625378819039 22.042078577122 19.282801922957
2453 2 -1.200000000000 33.398792642849 21.254861485081 19.282801922957
2454 2 -1.200000000000 31.172206466659 22.829295669162 19.282801922957
2455 2 -1.200000000000 34.512085730944 22.829295669162 17.354521730661
2456 2 -1.200000000000 32.285499554754 24.403729853242 17.354521730661
2457 2 -1.200000000000 34.512085730944 22.829295669162 21.211082115253
2458 2 -1.200000000000 32.285499554754 24.403729853242 21.211082115253
2459 2 -1.200000000000 35.625378819039 24.403729853242 19.282801922957
2460 2 -1.200000000000 33.398792642849 25.978164037322 19.282801922957
2461 1 2.400000000000 28.945620290469 22.042078577122 19.282801922957
2462 1 2.400000000000 27.832327202374 25.190946945282 17.354521730661
2463 1 2.400000000000 27.832327202374 25.190946945282 21.211082115253
2464 1 2.400000000000 31.172206466659 25.190946945282 19.282801922957
2465 2 -1.200000000000 28.945620290469 24.403729853242 19.282801922957
2466 2 -1.200000000000 26.719034114279 25.978164037322 19.282801922957
2467 2 -1.200000000000 30.058913378564 25.978164037322 17.354521730661
2468 2 -1.200000000000 27.832327202374 27.552598221402 17.354521730661
2469 2 -1.200000000000 30.058913378564 25.978164037322 21.211082115253
2470 2 -1.200000000000 27.832327202374 27.552598221402 21.211082115253
2471 2 -1.200000000000 31.172206466659 27.552598221402 19.282801922957
2472 2 -1.200000000000 28.945620290469 0.787217092040 19.282801922957
2473 1 2.400000000000 24.492447938089 25.190946945282 19.282801922957
2474 1 2.400000000000 23.379154849994 0.000000000000 17.354521730661
2475 1 2.400000000000 23.379154849994 0.000000000000 21.211082115253
2476 1 2.400000000000 26.719034114279 0.000000000000 19.282801922957
2477 2 -1.200000000000 24.492447938089 27.552598221402 19.282801922957
2478 2 -1.200000000000 22.265861761899 0.787217092040 19.282801922957
2479 2 -1.200000000000 25.605741026184 0.787217092040 17.354521730661
2480 2 -1.200000000000 23.379154849994 2.361651276120 17.354521730661
2481 2 -1.200000000000 25.605741026184 0.787217092040 21.211082115253
2482 2 -1.200000000000 23.379154849994 2.361651276120 21.211082115253
2483 2 -1.200000000000 26.719034114279 2.361651276120 19.282801922957
2484 2 -1.200000000000 24.492447938089 3.936085460200 19.282801922957
2485 1 2.400000000000 62.344412933317 3.148868368160 15.426241538366
2486 1 2.400000000000 61.231119845223 6.297736736320 13.497961346070
2487 1 2.400000000000 61.231119845223 6.297736736320 17.354521730661
2488 1 2.400000000000 64.570999109507 6.297736736320 15.426241538366
2489 2 -1.200000000000 62.344412933317 5.510519644280 15.426241538366
2490 2 -1.200000000000 60.117826757128 7.084953828360 15.426241538366
2491 2 -1.200000000000 63.457706021412 7.084953828360 13.497961346070
2492 2 -1.200000000000 61.231119845223 8.659388012441 13.497961346070
2493 2 -1.200000000000 63.457706021412 7.084953828360 17.354521730661
2494 2 -1.200000000000 61.231119845223 8.659388012441 17.354521730661
2495 2 -1.200000000000 64.570999109507 8.659388012441 15.426241538366
2496 2 -1.200000000000 62.344412933317 10.233822196521 15.426241538366
2497 1 2.400000000000 57.891240580938 6.297736736320 15.426241538366
2498 1 2.400000000000 56.777947492843 9.446605104481 13.497961346070
2499 1 2.400000000000 56.777947492843 9.446605104481 17.354521730661
2500 1 2.400000000000 60.117826757128 9.446605104481 15.426241538366
2501 2 -1.200000000000 57.891240580938 8.659388012441 15.426241538366
2502 2 -1.200000000000 55.664654404748 10.233822196521 15.426241538366
2503 2 -1.200000000000 59.004533669033 10.233822196521 13.497961346070
2504 2 -1.200000000000 56.777947492843 11.808256380601 13.497961346070
2505 2 -1.200000000000 59.004533669033 10.233822196521 17.354521730661
2506 2 -1.200000000000 56.777947492843 11.808256380601 17.354521730661
2507 2 -1.200000000000 60.117826757128 11.808256380601 15.426241538366
2508 2 -1.200000000000 57.891240580938 13.382690564681 15.426241538366
2509 1 2.400000000000 53.438068228558 9.446605104481 15.426241538366
2510 1 2.400000000000 52.324775140463 12.595473472641 13.497961346070
2511 1 2.400000000000 52.324775140463 12.595473472641 17.354521730661
2512 1 2.400000000000 55.664654404748 12.595473472641 15.426241538366
2513 2 -1.200000000000 53.438068228558 11.808256380601 15.426241538366
2514 2 -1.200000000000 51.211482052368 13.382690564681 15.426241538366
2515 2 -1.200000000000 54.551361316653 13.382690564681 13.497961346070
2516 2 -1.200000000000 52.324775140463 14.957124748761 13.497961346070
2517 2 -1.200000000000 54.551361316653 13.382690564681 17.354521730661
2518 2 -1.200000000000 52.324775140463 14.957124748761 17.354521730661
2519 2 -1.200000000000 55.664654404748 14.957124748761 15.426241538366
2520 2 -1.200000000000 53.438068228558 16.531558932841 15.426241538366
2521 1 2.400000000000 48.984895876178 12.595473472641 15.426241538366
2522 1 2.400000000000 47.871602788083 15.744341840801 13.497961346070
2523 1 2.400000000000 47.871602788083 15.744341840801 17.354521730661
2524 1 2.400000000000 51.211482052368 15.744341840801 15.426241538366
2525 2 -1.200000000000 48.984895876178 14.957124748761 15.426241538366
2526 2 -1.200000000000 46.758309699988 16.531558932841 15.426241538366
2527 2 -1.200000000000 50.098188964273 16.531558932841 13.497961346070
2528 2 -1.200000000000 47.871602788083 18.105993116921 13.497961346070
2529 2 -1.200000000000 50.098188964273 16.531558932841 17.354521730661
2530 2 -1.200000000000 47.871602788083 18.105993116921 17.354521730661
2531 2 -1.200000000000 51.211482052368 18.105993116921 15.426241538366
2532 2 -1.200000000000 48.984895876178 19.680427301001 15.426241538366
2533 1 2.400000000000 44.531723523798 15.744341840801 15.426241538366
2534 1 2.400000000000 43.418430435703 18.893210208961 13.497961346070
2535 1 2.400000000000 43.418430435703 18.893210208961 17.354521730661
2536 1 2.400000000000 46.758309699988 18.893210208961 15.426241538366
2537 2 -1.200000000000 44.531723523798 18.105993116921 15.426241538366
2538 2 -1.200000000000 42.305137347608 19.680427301001 15.426241538366
2539 2 -1.200000000000 45.645016611893 19.680427301001 13.497961346070
2540 2 -1.200000000000 43.418430435703 21.254861485081 13.497961346070
2541 2 -1.200000000000 45.645016611893 19.680427301001 17.354521730661
2542 2 -1.200000000000 43.418430435703 21.254861485081 17.354521730661
2543 2 -1.200000000000 46.758309699988 21.254861485081 15.426241538366
2544 2 -1.200000000000 44.531723523798 22.829295669162 15.426241538366
2545 1 2.400000000000 40.078551171418 18.893210208961 15.426241538366
2546 1 2.400000000000 38.965258083323 22.042078577122 13.497961346070
2547 1 2.400000000000 38.965258083323 22.042078577122 17.354521730661
2548 1 2.400000000000 42.305137347608 22.042078577122 15.426241538366
2549 2 -1.200000000000 40.078551171418 21.254861485081 15.426241538366
2550 2 -1.200000000000 37.851964995228 22.829295669162 15.426241538366
2551 2 -1.200000000000 41.191844259513 22.829295669162 13.497961346070
2552 2 -1.200000000000 38.965258083323 24.403729853242 13.497961346070
2553 2 -1.200000000000 41.191844259513 22.829295669162 17.354521730661
2554 2 -1.200000000000 38.965258083323 24.403729853242 17.354521730661
2555 2 -1.200000000000 42.305137347608 24.403729853242 15.426241538366
2556 2 -1.200000000000 40.078551171418 25.978164037322 15.426241538366
2557 1 2.400000000000 35.625378819039 22.042078577122 15.426241538366
2558 1 2.400000000000 34.512085730944 25.190946945282 13.497961346070
2559 1 2.400000000000 34.512085730944 25.190946945282 17.354521730661
2560 1 2.400000000000 37.851964995228 25.190946945282 15.426241538366
2561 2 -1.200000000000 35.625378819039 24.403729853242 15.426241538366
2562 2 -1.200000000000 33.398792642849 25.978164037322 15.426241538366
2563 2 -1.200000000000 36.738671907134 25.978164037322 13.497961346070
2564 2 -1.200000000000 34.512085730944 27.552598221402 13.497961346070
2565 2 -1.200000000000 36.738671907133 25.978164037322 17.354521730661
2566 2 -1.200000000000 34.512085730944 27.552598221402 17.354521730661
2567 2 -1.200000000000 37.851964995228 27.552598221402 15.426241538366
2568 2 -1.200000000000 35.625378819039 0.787217092040 15.426241538366
2569 1 2.400000000000 31.172206466659 25.190946945282 15.426241538366
2570 1 2.400000000000 30.058913378564 0.000000000000 13.497961346070
2571 1 2.400000000000 30.058913378564 0.000000000000 17.354521730661
2572 1 2.400000000000 33.398792642849 0.000000000000 15.426241538366
2573 2 -1.200000000000 31.172206466659 27.552598221402 15.426241538366
2574 2 -1.200000000000 28.945620290469 0.787217092040 15.426241538366
2575 2 -1.200000000000 32.285499554754 0.787217092040 13.497961346070
2576 2 -1.200000000000 30.058913378564 2.361651276120 13.497961346070
2577 2 -1.200000000000 32.285499554754 0.787217092040 17.354521730661
2578 2 -1.200000000000 30.058913378564 2.361651276120 17.354521730661
2579 2 -1.200000000000 33.398792642849 2.361651276120 15.426241538366
2580 2 -1.200000000000 31.172206466659 3.936085460200 15.426241538366
2581 1 2.400000000000 60.117826757128 9.446605104481 11.569681153774
2582 1 2.400000000000 59.004533669033 12.595473472641 9.641400961479
2583 1 2.400000000000 59.004533669033 12.595473472641 13.497961346070
2584 1 2.400000000000 62.344412933317 12.595473472641 11.569681153774
2585 2 -1.200000000000 60.117826757128 11.808256380601 11.569681153774
2586 2 -1.200000000000 57.891240580938 13.382690564681 11.569681153774
2587 2 -1.200000000000 61.231119845223 13.382690564681 9.641400961479
2588 2 -1.200000000000 59.004533669033 14.957124748761 9.641400961479
2589 2 -1.200000000000 61.231119845223 13.382690564681 13.497961346070
2590 2 -1.200000000000 59.004533669033 14.957124748761 13.497961346070
2591 2 -1.200000000000 62.344412933317 14.957124748761 11.569681153774
2592 2 -1.200000000000 60.117826757128 16.531558932841 11.569681153774
2593 1 2.400000000000 55.664654404748 12.595473472641 11.569681153774
2594 1 2.400000000000 54.551361316653 15.744341840801 9.641400961479
2595 1 2.400000000000 54.551361316653 15.744341840801 13.497961346070
2596 1 2.400000000000 57.891240580938 15.744341840801 11.569681153774
2597 2 -1.200000000000 55.664654404748 14.957124748761 11.569681153774
2598 2 -1.200000000000 53.438068228558 16.531558932841 11.569681153774
2599 2 -1.200000000000 56.777947492843 16.531558932841 9.641400961479
2600 2 -1.200000000000 54.551361316653 18.105993116921 9.641400961479
2601 2 -1.200000000000 56.777947492843 16.531558932841 13.497961346070
2602 2 -1.200000000000 54.551361316653 18.105993116921 13.497961346070
2603 2 -1.200000000000 57.891240580938 18.105993116921 11.569681153774
2604 2 -1.200000000000 55.664654404748 19.680427301001 11.569681153774
2605 1 2.400000000000 51.211482052368 15.744341840801 11.569681153774
2606 1 2.400000000000 50.098188964273 18.893210208961 9.641400961479
2607 1 2.400000000000 50.098188964273 18.893210208961 13.497961346070
2608 1 2.400000000000 53.438068228558 18.893210208961 11.569681153774
2609 2 -1.200000000000 51.211482052368 18.105993116921 11.569681153774
2610 2 -1.200000000000 48.984895876178 19.680427301001 11.569681153774
2611 2 -1.200000000000 52.324775140463 19.680427301001 9.641400961479
2612 2 -1.200000000000 50.098188964273 21.254861485081 9.641400961479
2613 2 -1.200000000000 52.324775140463 19.680427301001 13.497961346070
2614 2 -1.200000000000 50.098188964273 21.254861485081 13.497961346070
2615 2 -1.200000000000 53.438068228558 21.254861485081 11.569681153774
2616 2 -1.200000000000 51.211482052368 22.829295669162 11.569681153774
2617 1 2.400000000000 46.758309699988 18.893210208961 11.569681153774
2618 1 2.400000000000 45.645016611893 22.042078577122 9.641400961479
2619 1 2.400000000000 45.645016611893 22.042078577122 13.497961346070
2620 1 2.400000000000 48.984895876178 22.042078577122 11.569681153774
2621 2 -1.200000000000 46.758309699988 21.254861485081 11.569681153774
2622 2 -1.200000000000 44.531723523798 22.829295669162 11.569681153774
2623 2 -1.200000000000 47.871602788083 22.829295669162 9.641400961479
2624 2 -1.200000000000 45.645016611893 24.403729853242 9.641400961479
2625 2 -1.200000000000 47.871602788083 22.829295669162 13.497961346070
2626 2 -1.200000000000 45.645016611893 24.403729853242 13.497961346070
2627 2 -1.200000000000 48.984895876178 24.403729853242 11.569681153774
2628 2 -1.200000000000 46.758309699988 25.978164037322 11.569681153774
2629 1 2.400000000000 42.305137347608 22.042078577122 11.569681153774
2630 1 2.400000000000 41.191844259513 25.190946945282 9.641400961479
2631 1 2.400000000000 41.191844259513 25.190946945282 13.497961346070
2632 1 2.400000000000 44.531723523798 25.190946945282 11.569681153774
2633 2 -1.200000000000 42.305137347608 24.403729853242 11.569681153774
2634 2 -1.200000000000 40.078551171418 25.978164037322 11.569681153774
2635 2 -1.200000000000 43.418430435703 25.978164037322 9.641400961479
2636 2 -1.200000000000 41.191844259513 27.552598221402 9.641400961479
2637 2 -1.200000000000 43.418430435703 25.978164037322 13.497961346070
2638 2 -1.200000000000 41.191844259513 27.552598221402 13.497961346070
2639 2 -1.200000000000 44.531723523798 27.552598221402 11.569681153774
2640 2 -1.200000000000 42.305137347608 0.787217092040 11.569681153774
2641 1 2.400000000000 37.851964995228 25.190946945282 11.569681153774
2642 1 2.400000000000 36.738671907133 0.000000000000 9.641400961479
2643 1 2.400000000000 36.738671907133 0.000000000000 13.497961346070
2644 1 2.400000000000 40.078551171418 0.000000000000 11.569681153774
2645 2 -1.200000000000 37.851964995228 27.552598221402 11.569681153774
2646 2 -1.200000000000 35.625378819039 0.787217092040 11.569681153774
2647 2 -1.200000000000 38.965258083323 0.787217092040 9.641400961479
2648 2 -1.200000000000 36.738671907134 2.361651276120 9.641400961479
2649 2 -1.200000000000 38.965258083323 0.787217092040 13.497961346070
2650 2 -1.200000000000 36.738671907134 2.361651276120 13.497961346070
2651 2 -1.200000000000 40.078551171418 2.361651276120 11.569681153774
2652 2 -1.200000000000 37.851964995228 3.936085460200 11.569681153774
2653 1 2.400000000000 62.344412933317 12.595473472641 7.713120769183
2654 1 2.400000000000 61.231119845223 15.744341840801 5.784840576887
2655 1 2.400000000000 61.231119845223 15.744341840801 9.641400961479
2656 1 2.400000000000 64.570999109507 15.744341840801 7.713120769183
2657 2 -1.200000000000 62.344412933317 14.957124748761 7.713120769183
2658 2 -1.200000000000 60.117826757128 16.531558932841 7.713120769183
2659 2 -1.200000000000 63.457706021412 16.531558932841 5.784840576887
2660 2 -1.200000000000 61.231119845223 18.105993116921 5.784840576887
2661 2 -1.200000000000 63.457706021412 16.531558932841 9.641400961479
2662 2 -1.200000000000 61.231119845223 18.105993116921 9.641400961479
2663 2 -1.200000000000 64.570999109507 18.105993116921 7.713120769183
2664 2 -1.200000000000 62.344412933317 19.680427301001 7.713120769183
2665 1 2.400000000000 57.891240580938 15.744341840801 7.713120769183
2666 1 2.400000000000 56.777947492843 18.893210208961 5.784840576887
2667 1 2.400000000000 56.777947492843 18.893210208961 9.641400961479
2668 1 2.400000000000 60.117826757128 18.893210208961 7.713120769183
2669 2 -1.200000000000 57.891240580938 18.105993116921 7.713120769183
2670 2 -1.200000000000 55.664654404748 19.680427301001 7.713120769183
2671 2 -1.200000000000 59.004533669033 19.680427301001 5.784840576887
2672 2 -1.200000000000 56.777947492843 21.254861485081 5.784840576887
2673 2 -1.200000000000 59.004533669033 19.680427301001 9.641400961479
2674 2 -1.200000000000 56.777947492843 21.254861485081 9.641400961479
2675 2 -1.200000000000 60.117826757128 21.254861485081 7.713120769183
2676 2 -1.200000000000 57.891240580938 22.829295669162 7.713120769183
2677 1 2.400000000000 53.438068228558 18.893210208961 7.713120769183
2678 1 2.400000000000 52.324775140463 22.042078577122 5.784840576887
2679 1 2.400000000000 52.324775140463 22.042078577122 9.641400961479
2680 1 2.400000000000 55.664654404748 22.042078577122 7.713120769183
2681 2 -1.200000000000 53.438068228558 21.254861485081 7.713120769183
2682 2 -1.200000000000 51.211482052368 22.829295669162 7.713120769183
2683 2 -1.200000000000 54.551361316653 22.829295669162 5.784840576887
2684 2 -1.200000000000 52.324775140463 24.403729853242 5.784840576887
2685 2 -1.200000000000 54.551361316653 22.829295669162 9.641400961479
2686 2 -1.200000000000 52.324775140463 24.403729853242 9.641400961479
2687 2 -1.200000000000 55.664654404748 24.403729853242 7.713120769183
2688 2 -1.200000000000 53.438068228558 25.978164037322 7.713120769183
2689 1 2.400000000000 48.984895876178 22.042078577122 7.713120769183
2690 1 2.400000000000 47.871602788083 25.190946945282 5.784840576887
2691 1 2.400000000000 47.871602788083 25.190946945282 9.641400961479
2692 1 2.400000000000 51.211482052368 25.190946945282 7.713120769183
2693 2 -1.200000000000 48.984895876178 24.403729853242 7.713120769183
2694 2 -1.200000000000 46.758309699988 25.978164037322 7.713120769183
2695 2 -1.200000000000 50.098188964273 25.978164037322 5.784840576887
2696 2 -1.200000000000 47.871602788083 27.552598221402 5.784840576887
2697 2 -1.200000000000 50.098188964273 25.978164037322 9.641400961479
2698 2 -1.200000000000 47.871602788083 27.552598221402 9.641400961479
2699 2 -1.200000000000 51.211482052368 27.552598221402 7.713120769183
2700 2 -1.200000000000 48.984895876178 0.787217092040 7.713120769183
2701 1 2.400000000000 44.531723523798 25.190946945282 7.713120769183
2702 1 2.400000000000 43.418430435703 0.000000000000 5.784840576887
2703 1 2.400000000000 43.418430435703 0.000000000000 9.641400961479
2704 1 2.400000000000 46.758309699988 0.000000000000 7.713120769183
2705 2 -1.200000000000 44.531723523798 27.552598221402 7.713120769183
2706 2 -1.200000000000 42.305137347608 0.787217092040 7.713120769183
2707 2 -1.200000000000 45.645016611893 0.787217092040 5.784840576887
2708 2 -1.200000000000 43.418430435703 2.361651276120 5.784840576887
2709 2 -1.200000000000 45.645016611893 0.787217092040 9.641400961479
2710 2 -1.200000000000 43.418430435703 2.361651276120 9.641400961479
2711 2 -1.200000000000 46.758309699988 2.361651276120 7.713120769183
2712 2 -1.200000000000 44.531723523798 3.936085460200 7.713120769183
2713 1 2.400000000000 60.117826757128 18.893210208961 3.856560384591
2714 1 2.400000000000 59.004533669033 22.042078577122 1.928280192296
2715 1 2.400000000000 59.004533669033 22.042078577122 5.784840576887
2716 1 2.400000000000 62.344412933317 22.042078577122 3.856560384591
2717 2 -1.200000000000 60.117826757128 21.254861485081 3.856560384591
2718 2 -1.200000000000 57.891240580938 22.829295669162 3.856560384591
2719 2 -1.200000000000 61.231119845223 22.829295669162 1.928280192296
2720 2 -1.200000000000 59.004533669033 24.403729853242 1.928280192296
2721 2 -1.200000000000 61.231119845222 22.829295669162 5.784840576887
2722 2 -1.200000000000 59.004533669033 24.403729853242 5.784840576887
2723 2 -1.200000000000 62.344412933317 24.403729853242 3.856560384591
2724 2 -1.200000000000 60.117826757128 25.978164037322 3.856560384591
2725 1 2.400000000000 55.664654404748 22.042078577122 3.856560384591
2726 1 2.400000000000 54.551361316653 25.190946945282 1.928280192296
2727 1 2.400000000000 54.551361316653 25.190946945282 5.784840576887
2728 1 2.400000000000 57.891240580938 25.190946945282 3.856560384591
2729 2 -1.200000000000 55.664654404748 24.403729853242 3.856560384591
2730 2 -1.200000000000 53.438068228558 25.978164037322 3.856560384591
2731 2 -1.200000000000 56.777947492843 25.978164037322 1.928280192296
2732 2 -1.200000000000 54.551361316653 27.552598221402 1.928280192296
2733 2 -1.200000000000 56.777947492843 25.978164037322 5.784840576887
2734 2 -1.200000000000 54.551361316653 27.552598221402 5.784840576887
2735 2 -1.200000000000 57.891240580938 27.552598221402 3.856560384591
2736 2 -1.200000000000 55.664654404748 0.787217092040 3.856560384591
2737 1 2.400000000000 51.211482052368 25.190946945282 3.856560384591
2738 1 2.400000000000 50.098188964273 0.000000000000 1.928280192296
2739 1 2.400000000000 50.098188964273 0.000000000000 5.784840576887
2740 1 2.400000000000 53.438068228558 0.000000000000 3.856560384591
2741 2 -1.200000000000 51.211482052368 27.552598221402 3.856560384591
2742 2 -1.200000000000 48.984895876178 0.787217092040 3.856560384591
2743 2 -1.200000000000 52.324775140463 0.787217092040 1.928280192296
2744 2 -1.200000000000 50.098188964273 2.361651276120 1.928280192296
2745 2 -1.200000000000 52.324775140463 0.787217092040 5.784840576887
2746 2 -1.200000000000 50.098188964273 2.361651276120 5.784840576887
2747 2 -1.200000000000 53.438068228558 2.361651276120 3.856560384591
2748 2 -1.200000000000 51.211482052368 3.936085460200 3.856560384591
2749 1 2.400000000000 62.344412933317 22.042078577122 0.000000000000
2750 1 2.400000000000 61.231119845222 25.190946945282 21.211082115253
2751 1 2.400000000000 61.231119845222 25.190946945282 1.928280192296
2752 1 2.400000000000 64.570999109507 25.190946945282 0.000000000000
2753 2 -1.200000000000 62.344412933317 24.403729853242 0.000000000000
2754 2 -1.200000000000 60.117826757128 25.978164037322 0.000000000000
2755 2 -1.200000000000 63.457706021412 25.978164037322 21.211082115253
2756 2 -1.200000000000 61.231119845223 27.552598221402 21.211082115253
2757 2 -1.200000000000 63.457706021412 25.978164037322 1.928280192296
2758 2 -1.200000000000 61.231119845222 27.552598221402 1.928280192296
2759 2 -1.200000000000 64.570999109507 27.552598221402 0.000000000000
2760 2 -1.200000000000 62.344412933317 0.787217092040 0.000000000000
2761 1 2.400000000000 57.891240580938 25.190946945282 0.000000000000
2762 1 2.400000000000 56.777947492843 0.000000000000 21.211082115253
2763 1 2.400000000000 56.777947492843 0.000000000000 1.928280192296
2764 1 2.400000000000 60.117826757128 0.000000000000 0.000000000000
2765 2 -1.200000000000 57.891240580938 27.552598221402 0.000000000000
2766 2 -1.200000000000 55.664654404748 0.787217092040 0.000000000000
2767 2 -1.200000000000 59.004533669033 0.787217092040 21.211082115253
2768 2 -1.200000000000 56.777947492843 2.361651276120 21.211082115253
2769 2 -1.200000000000 59.004533669033 0.787217092040 1.928280192296
2770 2 -1.200000000000 56.777947492843 2.361651276120 1.928280192296
2771 2 -1.200000000000 60.117826757128 2.361651276120 0.000000000000
2772 2 -1.200000000000 57.891240580938 3.936085460200 0.000000000000
2773 1 2.400000000000 60.117826757128 9.446605104481 19.282801922957
2774 1 2.400000000000 59.004533669033 12.595473472641 17.354521730661
2775 1 2.400000000000 59.004533669033 12.595473472641 21.211082115253
2776 1 2.400000000000 62.344412933317 12.595473472641 19.282801922957
2777 2 -1.200000000000 60.117826757128 11.808256380601 19.282801922957
2778 2 -1.200000000000 57.891240580938 13.382690564681 19.282801922957
2779 2 -1.200000000000 61.231119845223 13.382690564681 17.354521730661
2780 2 -1.200000000000 59.004533669033 14.957124748761 17.354521730661
2781 2 -1.200000000000 61.231119845222 13.382690564681 21.211082115253
2782 2 -1.200000000000 59.004533669033 14.957124748761 21.211082115253
2783 2 -1.200000000000 62.344412933317 14.957124748761 19.282801922957
2784 2 -1.200000000000 60.117826757128 16.531558932841 19.282801922957
2785 1 2.400000000000 55.664654404748 12.595473472641 19.282801922957
2786 1 2.400000000000 54.551361316653 15.744341840801 17.354521730661
2787 1 2.400000000000 54.551361316653 15.744341840801 21.211082115253
2788 1 2.400000000000 57.891240580938 15.744341840801 19.282801922957
2789 2 -1.200000000000 55.664654404748 14.957124748761 19.282801922957
2790 2 -1.200000000000 53.438068228558 16.531558932841 19.282801922957
2791 2 -1.200000000000 56.777947492843 16.531558932841 17.354521730661
2792 2 -1.200000000000 54.551361316653 18.105993116921 17.354521730661
2793 2 -1.200000000000 56.777947492843 16.531558932841 21.211082115253
2794 2 -1.200000000000 54.551361316653 18.105993116921 21.211082115253
2795 2 -1.200000000000 57.891240580938 18.105993116921 19.282801922957
2796 2 -1.200000000000 55.664654404748 19.680427301001 19.282801922957
2797 1 2.400000000000 51.211482052368 15.744341840801 19.282801922957
2798 1 2.400000000000 50.098188964273 18.893210208961 17.354521730661
2799 1 2.400000000000 50.098188964273 18.893210208961 21.211082115253
2800 1 2.400000000000 53.438068228558 18.893210208961 19.282801922957
2801 2 -1.200000000000 51.211482052368 18.105993116921 19.282801922957
2802 2 -1.200000000000 48.984895876178 19.680427301001 19.282801922957
2803 2 -1.200000000000 52.324775140463 19.680427301001 17.354521730661
2804 2 -1.200000000000 50.098188964273 21.254861485081 17.354521730661
2805 2 -1.200000000000 52.324775140463 19.680427301001 21.211082115253
2806 2 -1.200000000000 50.098188964273 21.254861485081 21.211082115253
2807 2 -1.200000000000 53.438068228558 21.254861485081 19.282801922957
2808 2 -1.200000000000 51.211482052368 22.829295669162 19.282801922957
2809 1 2.400000000000 46.758309699988 18.893210208961 19.282801922957
2810 1 2.400000000000 45.645016611893 22.042078577122 17.354521730661
2811 1 2.400000000000 45.645016611893 22.042078577122 21.211082115253
2812 1 2.400000000000 48.984895876178 22.042078577122 19.282801922957
2813 2 -1.200000000000 46.758309699988 21.254861485081 19.282801922957
2814 2 -1.200000000000 44.531723523798 22.829295669162 19.282801922957
2815 2 -1.200000000000 47.871602788083 22.829295669162 17.354521730661
2816 2 -1.200000000000 45.645016611893 24.403729853242 17.354521730661
2817 2 -1.200000000000 47.871602788083 22.829295669162 21.211082115253
2818 2 -1.200000000000 45.645016611893 24.403729853242 21.211082115253
2819 2 -1.200000000000 48.984895876178 24.403729853242 19.282801922957
2820 2 -1.200000000000 46.758309699988 25.978164037322 19.282801922957
2821 1 2.400000000000 42.305137347608 22.042078577122 19.282801922957
2822 1 2.400000000000 41.191844259513 25.190946945282 17.354521730661
2823 1 2.400000000000 41.191844259513 25.190946945282 21.211082115253
2824 1 2.400000000000 44.531723523798 25.190946945282 19.282801922957
2825 2 -1.200000000000 42.305137347608 24.403729853242 19.282801922957
2826 2 -1.200000000000 40.078551171418 25.978164037322 19.282801922957
2827 2 -1.200000000000 43.418430435703 25.978164037322 17.354521730661
2828 2 -1.200000000000 41.191844259513 27.552598221402 17.354521730661
2829 2 -1.200000000000 43.418430435703 25.978164037322 21.211082115253
2830 2 -1.200000000000 41.191844259513 27.552598221402 21.211082115253
2831 2 -1.200000000000 44.531723523798 27.552598221402 19.282801922957
2832 2 -1.200000000000 42.305137347608 0.787217092040 19.282801922957
2833 1 2.400000000000 37.851964995228 25.190946945282 19.282801922957
2834 1 2.400000000000 36.738671907133 0.000000000000 17.354521730661
2835 1 2.400000000000 36.738671907133 0.000000000000 21.211082115253
2836 1 2.400000000000 40.078551171418 0.000000000000 19.282801922957
2837 2 -1.200000000000 37.851964995228 27.552598221402 19.282801922957
2838 2 -1.200000000000 35.625378819039 0.787217092040 19.282801922957
2839 2 -1.200000000000 38.965258083323 0.787217092040 17.354521730661
2840 2 -1.200000000000 36.738671907134 2.361651276120 17.354521730661
2841 2 -1.200000000000 38.965258083323 0.787217092040 21.211082115253
2842 2 -1.200000000000 36.738671907133 2.361651276120 21.211082115253
2843 2 -1.200000000000 40.078551171418 2.361651276120 19.282801922957
2844 2 -1.200000000000 37.851964995228 3.936085460200 19.282801922957
2845 1 2.400000000000 62.344412933317 12.595473472641 15.426241538366
2846 1 2.400000000000 61.231119845223 15.744341840801 13.497961346070
2847 1 2.400000000000 61.231119845223 15.744341840801 17.354521730661
2848 1 2.400000000000 64.570999109507 15.744341840801 15.426241538366
2849 2 -1.200000000000 62.344412933317 14.957124748761 15.426241538366
2850 2 -1.200000000000 60.117826757128 16.531558932841 15.426241538366
2851 2 -1.200000000000 63.457706021412 16.531558932841 13.497961346070
2852 2 -1.200000000000 61.231119845223 18.105993116921 13.497961346070
2853 2 -1.200000000000 63.457706021412 16.531558932841 17.354521730661
2854 2 -1.200000000000 61.231119845223 18.105993116921 17.354521730661
2855 2 -1.200000000000 64.570999109507 18.105993116921 15.426241538366
2856 2 -1.200000000000 62.344412933317 19.680427301001 15.426241538366
2857 1 2.400000000000 57.891240580938 15.744341840801 15.426241538366
2858 1 2.400000000000 56.777947492843 18.893210208961 13.497961346070
2859 1 2.400000000000 56.777947492843 18.893210208961 17.354521730661
2860 1 2.400000000000 60.117826757128 18.893210208961 15.426241538366
2861 2 -1.200000000000 57.891240580938 18.105993116921 15.426241538366
2862 2 -1.200000000000 55.664654404748 19.680427301001 15.426241538366
2863 2 -1.200000000000 59.004533669033 19.680427301001 13.497961346070
2864 2 -1.200000000000 56.777947492843 21.254861485081 13.497961346070
2865 2 -1.200000000000 59.004533669033 19.680427301001 17.354521730661
2866 2 -1.200000000000 56.777947492843 21.254861485081 17.354521730661
2867 2 -1.200000000000 60.117826757128 21.254861485081 15.426241538366
2868 2 -1.200000000000 57.891240580938 22.829295669162 15.426241538366
2869 1 2.400000000000 53.438068228558 18.893210208961 15.426241538366
2870 1 2.400000000000 52.324775140463 22.042078577122 13.497961346070
2871 1 2.400000000000 52.324775140463 22.042078577122 17.354521730661
2872 1 2.400000000000 55.664654404748 22.042078577122 15.426241538366
2873 2 -1.200000000000 53.438068228558 21.254861485081 15.426241538366
2874 2 -1.200000000000 51.211482052368 22.829295669162 15.426241538366
2875 2 -1.200000000000 54.551361316653 22.829295669162 13.497961346070
2876 2 -1.200000000000 52.324775140463 24.403729853242 13.497961346070
2877 2 -1.200000000000 54.551361316653 22.829295669162 17.354521730661
2878 2 -1.200000000000 52.324775140463 24.403729853242 17.354521730661
2879 2 -1.200000000000 55.664654404748 24.403729853242 15.426241538366
2880 2 -1.200000000000 53.438068228558 25.978164037322 15.426241538366
2881 1 2.400000000000 48.984895876178 22.042078577122 15.426241538366
2882 1 2.400000000000 47.871602788083 25.190946945282 13.497961346070
2883 1 2.400000000000 47.871602788083 25.190946945282 17.354521730661
2884 1 2.400000000000 51.211482052368 25.190946945282 15.426241538366
2885 2 -1.200000000000 48.984895876178 24.403729853242 15.426241538366
2886 2 -1.200000000000 46.758309699988 25.978164037322 15.426241538366
2887 2 -1.200000000000 50.098188964273 25.978164037322 13.497961346070
2888 2 -1.200000000000 47.871602788083 27.552598221402 13.497961346070
2889 2 -1.200000000000 50.098188964273 25.978164037322 17.354521730661
2890 2 -1.200000000000 47.871602788083 27.552598221402 17.354521730661
2891 2 -1.200000000000 51.211482052368 27.552598221402 15.426241538366
2892 2 -1.200000000000 48.984895876178 0.787217092040 15.426241538366
2893 1 2.400000000000 44.531723523798 25.190946945282 15.426241538366
2894 1 2.400000000000 43.418430435703 0.000000000000 13.497961346070
2895 1 2.400000000000 43.418430435703 0.000000000000 17.354521730661
2896 1 2.400000000000 46.758309699988 0.000000000000 15.426241538366
2897 2 -1.200000000000 44.531723523798 27.552598221402 15.426241538366
2898 2 -1.200000000000 42.305137347608 0.787217092040 15.426241538366
2899 2 -1.200000000000 45.645016611893 0.787217092040 13.497961346070
2900 2 -1.200000000000 43.418430435703 2.361651276120 13.497961346070
2901 2 -1.200000000000 45.645016611893 0.787217092040 17.354521730661
2902 2 -1.200000000000 43.418430435703 2.361651276120 17.354521730661
2903 2 -1.200000000000 46.758309699988 2.361651276120 15.426241538366
2904 2 -1.200000000000 44.531723523798 3.936085460200 15.426241538366
2905 1 2.400000000000 60.117826757128 18.893210208961 11.569681153774
2906 1 2.400000000000 59.004533669033 22.042078577122 9.641400961479
2907 1 2.400000000000 59.004533669033 22.042078577122 13.497961346070
2908 1 2.400000000000 62.344412933317 22.042078577122 11.569681153774
2909 2 -1.200000000000 60.117826757128 21.254861485081 11.569681153774
2910 2 -1.200000000000 57.891240580938 22.829295669162 11.569681153774
2911 2 -1.200000000000 61.231119845223 22.829295669162 9.641400961479
2912 2 -1.200000000000 59.004533669033 24.403729853242 9.641400961479
2913 2 -1.200000000000 61.231119845222 22.829295669162 13.497961346070
2914 2 -1.200000000000 59.004533669033 24.403729853242 13.497961346070
2915 2 -1.200000000000 62.344412933317 24.403729853242 11.569681153774
2916 2 -1.200000000000 60.117826757128 25.978164037322 11.569681153774
2917 1 2.400000000000 55.664654404748 22.042078577122 11.569681153774
2918 1 2.400000000000 54.551361316653 25.190946945282 9.641400961479
2919 1 2.400000000000 54.551361316653 25.190946945282 13.497961346070
2920 1 2.400000000000 57.891240580938 25.190946945282 11.569681153774
2921 2 -1.200000000000 55.664654404748 24.403729853242 11.569681153774
2922 2 -1.200000000000 53.438068228558 25.978164037322 11.569681153774
2923 2 -1.200000000000 56.777947492843 25.978164037322 9.641400961479
2924 2 -1.200000000000 54.551361316653 27.552598221402 9.641400961479
2925 2 -1.200000000000 56.777947492843 25.978164037322 13.497961346070
2926 2 -1.200000000000 54.551361316653 27.552598221402 13.497961346070
2927 2 -1.200000000000 57.891240580938 27.552598221402 11.569681153774
2928 2 -1.200000000000 55.664654404748 0.787217092040 11.569681153774
2929 1 2.400000000000 51.211482052368 25.190946945282 11.569681153774
2930 1 2.400000000000 50.098188964273 0.000000000000 9.641400961479
2931 1 2.400000000000 50.098188964273 0.000000000000 13.497961346070
2932 1 2.400000000000 53.438068228558 0.000000000000 11.569681153774
2933 2 -1.200000000000 51.211482052368 27.552598221402 11.569681153774
2934 2 -1.200000000000 48.984895876178 0.787217092040 11.569681153774
2935 2 -1.200000000000 52.324775140463 0.787217092040 9.641400961479
2936 2 -1.200000000000 50.098188964273 2.361651276120 9.641400961479
2937 2 -1.200000000000 52.324775140463 0.787217092040 13.497961346070
2938 2 -1.200000000000 50.098188964273 2.361651276120 13.497961346070
2939 2 -1.200000000000 53.438068228558 2.361651276120 11.569681153774
2940 2 -1.200000000000 51.211482052368 3.936085460200 11.569681153774
2941 1 2.400000000000 62.344412933317 22.042078577122 7.713120769183
2942 1 2.400000000000 61.231119845222 25.190946945282 5.784840576887
2943 1 2.400000000000 61.231119845222 25.190946945282 9.641400961479
2944 1 2.400000000000 64.570999109507 25.190946945282 7.713120769183
2945 2 -1.200000000000 62.344412933317 24.403729853242 7.713120769183
2946 2 -1.200000000000 60.117826757128 25.978164037322 7.713120769183
2947 2 -1.200000000000 63.457706021412 25.978164037322 5.784840576887
2948 2 -1.200000000000 61.231119845222 27.552598221402 5.784840576887
2949 2 -1.200000000000 63.457706021412 25.978164037322 9.641400961479
2950 2 -1.200000000000 61.231119845222 27.552598221402 9.641400961479
2951 2 -1.200000000000 64.570999109507 27.552598221402 7.713120769183
2952 2 -1.200000000000 62.344412933317 0.787217092040 7.713120769183
2953 1 2.400000000000 57.891240580938 25.190946945282 7.713120769183
2954 1 2.400000000000 56.777947492843 0.000000000000 5.784840576887
2955 1 2.400000000000 56.777947492843 0.000000000000 9.641400961479
2956 1 2.400000000000 60.117826757128 0.000000000000 7.713120769183
2957 2 -1.200000000000 57.891240580938 27.552598221402 7.713120769183
2958 2 -1.200000000000 55.664654404748 0.787217092040 7.713120769183
2959 2 -1.200000000000 59.004533669033 0.787217092040 5.784840576887
2960 2 -1.200000000000 56.777947492843 2.361651276120 5.784840576887
2961 2 -1.200000000000 59.004533669033 0.787217092040 9.641400961479
2962 2 -1.200000000000 56.777947492843 2.361651276120 9.641400961479
2963 2 -1.200000000000 60.117826757128 2.361651276120 7.713120769183
2964 2 -1.200000000000 57.891240580938 3.936085460200 7.713120769183
2965 1 2.400000000000 60.117826757128 18.893210208961 19.282801922957
2966 1 2.400000000000 59.004533669033 22.042078577122 17.354521730661
2967 1 2.400000000000 59.004533669033 22.042078577122 21.211082115253
2968 1 2.400000000000 62.344412933317 22.042078577122 19.282801922957
2969 2 -1.200000000000 60.117826757128 21.254861485081 19.282801922957
2970 2 -1.200000000000 57.891240580938 22.829295669162 19.282801922957
2971 2 -1.200000000000 61.231119845222 22.829295669162 17.354521730661
2972 2 -1.200000000000 59.004533669033 24.403729853242 17.354521730661
2973 2 -1.200000000000 61.231119845223 22.829295669162 21.211082115253
2974 2 -1.200000000000 59.004533669033 24.403729853242 21.211082115253
2975 2 -1.200000000000 62.344412933317 24.403729853242 19.282801922957
2976 2 -1.200000000000 60.117826757128 25.978164037322 19.282801922957
2977 1 2.400000000000 55.664654404748 22.042078577122 19.282801922957
2978 1 2.400000000000 54.551361316653 25.190946945282 17.354521730661
2979 1 2.400000000000 54.551361316653 25.190946945282 21.211082115253
2980 1 2.400000000000 57.891240580938 25.190946945282 19.282801922957
2981 2 -1.200000000000 55.664654404748 24.403729853242 19.282801922957
2982 2 -1.200000000000 53.438068228558 25.978164037322 19.282801922957
2983 2 -1.200000000000 56.777947492843 25.978164037322 17.354521730661
2984 2 -1.200000000000 54.551361316653 27.552598221402 17.354521730661
2985 2 -1.200000000000 56.777947492843 25.978164037322 21.211082115253
2986 2 -1.200000000000 54.551361316653 27.552598221402 21.211082115253
2987 2 -1.200000000000 57.891240580938 27.552598221402 19.282801922957
2988 2 -1.200000000000 55.664654404748 0.787217092040 19.282801922957
2989 1 2.400000000000 51.211482052368 25.190946945282 19.282801922957
2990 1 2.400000000000 50.098188964273 0.000000000000 17.354521730661
2991 1 2.400000000000 50.098188964273 0.000000000000 21.211082115253
2992 1 2.400000000000 53.438068228558 0.000000000000 19.282801922957
2993 2 -1.200000000000 51.211482052368 27.552598221402 19.282801922957
2994 2 -1.200000000000 48.984895876178 0.787217092040 19.282801922957
2995 2 -1.200000000000 52.324775140463 0.787217092040 17.354521730661
2996 2 -1.200000000000 50.098188964273 2.361651276120 17.354521730661
2997 2 -1.200000000000 52.324775140463 0.787217092040 21.211082115253
2998 2 -1.200000000000 50.098188964273 2.361651276120 21.211082115253
2999 2 -1.200000000000 53.438068228558 2.361651276120 19.282801922957
3000 2 -1.200000000000 51.211482052368 3.936085460200 19.282801922957
3001 1 2.400000000000 62.344412933317 22.042078577122 15.426241538366
3002 1 2.400000000000 61.231119845223 25.190946945282 13.497961346070
3003 1 2.400000000000 61.231119845223 25.190946945282 17.354521730661
3004 1 2.400000000000 64.570999109507 25.190946945282 15.426241538366
3005 2 -1.200000000000 62.344412933317 24.403729853242 15.426241538366
3006 2 -1.200000000000 60.117826757128 25.978164037322 15.426241538366
3007 2 -1.200000000000 63.457706021412 25.978164037322 13.497961346070
3008 2 -1.200000000000 61.231119845222 27.552598221402 13.497961346070
3009 2 -1.200000000000 63.457706021412 25.978164037322 17.354521730661
3010 2 -1.200000000000 61.231119845223 27.552598221402 17.354521730661
3011 2 -1.200000000000 64.570999109507 27.552598221402 15.426241538366
3012 2 -1.200000000000 62.344412933317 0.787217092040 15.426241538366
3013 1 2.400000000000 57.891240580938 25.190946945282 15.426241538366
3014 1 2.400000000000 56.777947492843 0.000000000000 13.497961346070
3015 1 2.400000000000 56.777947492843 0.000000000000 17.354521730661
3016 1 2.400000000000 60.117826757128 0.000000000000 15.426241538366
3017 2 -1.200000000000 57.891240580938 27.552598221402 15.426241538366
3018 2 -1.200000000000 55.664654404748 0.787217092040 15.426241538366
3019 2 -1.200000000000 59.004533669033 0.787217092040 13.497961346070
3020 2 -1.200000000000 56.777947492843 2.361651276120 13.497961346070
3021 2 -1.200000000000 59.004533669033 0.787217092040 17.354521730661
3022 2 -1.200000000000 56.777947492843 2.361651276120 17.354521730661
3023 2 -1.200000000000 60.117826757128 2.361651276120 15.426241538366
3024 2 -1.200000000000 57.891240580938 3.936085460200 15.426241538366
3025 1 2.400000000000 131.368584395205 3.148868368160 3.856560384591
3026 1 2.400000000000 128.028705130920 3.148868368160 1.928280192296
3027 1 2.400000000000 128.028705130920 3.148868368160 5.784840576887
3028 1 2.400000000000 129.141998219015 6.297736736320 3.856560384591
3029 2 -1.200000000000 129.141998219015 3.936085460200 3.856560384591
3030 2 -1.200000000000 126.915412042825 2.361651276120 3.856560384591
3031 2 -1.200000000000 128.028705130920 5.510519644280 1.928280192296
3032 2 -1.200000000000 125.802118954730 3.936085460200 1.928280192296
3033 2 -1.200000000000 128.028705130920 5.510519644280 5.784840576887
3034 2 -1.200000000000 125.802118954730 3.936085460200 5.784840576887
3035 2 -1.200000000000 126.915412042825 7.084953828360 3.856560384591
3036 2 -1.200000000000 124.688825866635 5.510519644280 3.856560384591
3037 1 2.400000000000 126.915412042825 0.000000000000 3.856560384591
3038 1 2.400000000000 123.575532778540 0.000000000000 1.928280192296
3039 1 2.400000000000 123.575532778540 0.000000000000 5.784840576887
3040 1 2.400000000000 124.688825866635 3.148868368160 3.856560384591
3041 2 -1.200000000000 124.688825866635 0.787217092040 3.856560384591
3042 2 -1.200000000000 122.462239690445 27.552598221402 3.856560384591
3043 2 -1.200000000000 123.575532778540 2.361651276120 1.928280192296
3044 2 -1.200000000000 121.348946602350 0.787217092040 1.928280192296
3045 2 -1.200000000000 123.575532778540 2.361651276120 5.784840576887
3046 2 -1.200000000000 121.348946602350 0.787217092040 5.784840576887
3047 2 -1.200000000000 122.462239690445 3.936085460200 3.856560384591
3048 2 -1.200000000000 120.235653514255 2.361651276120 3.856560384591
3049 1 2.400000000000 129.141998219015 6.297736736320 0.000000000000
3050 1 2.400000000000 125.802118954730 6.297736736320 21.211082115253
3051 1 2.400000000000 125.802118954730 6.297736736320 1.928280192296
3052 1 2.400000000000 126.915412042825 9.446605104481 0.000000000000
3053 2 -1.200000000000 126.915412042825 7.084953828360 0.000000000000
3054 2 -1.200000000000 124.688825866635 5.510519644280 0.000000000000
3055 2 -1.200000000000 125.802118954730 8.659388012441 21.211082115253
3056 2 -1.200000000000 123.575532778540 7.084953828360 21.211082115253
3057 2 -1.200000000000 125.802118954730 8.659388012441 1.928280192296
3058 2 -1.200000000000 123.575532778540 7.084953828360 1.928280192296
3059 2 -1.200000000000 124.688825866635 10.233822196521 0.000000000000
3060 2 -1.200000000000 122.462239690445 8.659388012441 0.000000000000
3061 1 2.400000000000 124.688825866635 3.148868368160 0.000000000000
3062 1 2.400000000000 121.348946602350 3.148868368160 21.211082115253
3063 1 2.400000000000 121.348946602350 3.148868368160 1.928280192296
3064 1 2.400000000000 122.462239690445 6.297736736320 0.000000000000
3065 2 -1.200000000000 122.462239690445 3.936085460200 0.000000000000
3066 2 -1.200000000000 120.235653514255 2.361651276120 0.000000000000
3067 2 -1.200000000000 121.348946602350 5.510519644280 21.211082115253
3068 2 -1.200000000000 119.122360426160 3.936085460200 21.211082115253
3069 2 -1.200000000000 121.348946602350 5.510519644280 1.928280192296
3070 2 -1.200000000000 119.122360426160 3.936085460200 1.928280192296
3071 2 -1.200000000000 120.235653514255 7.084953828360 0.000000000000
3072 2 -1.200000000000 118.009067338065 5.510519644280 0.000000000000
3073 1 2.400000000000 120.235653514255 0.000000000000 0.000000000000
3074 1 2.400000000000 116.895774249970 0.000000000000 21.211082115253
3075 1 2.400000000000 116.895774249970 0.000000000000 1.928280192296
3076 1 2.400000000000 118.009067338065 3.148868368160 0.000000000000
3077 2 -1.200000000000 118.009067338065 0.787217092040 0.000000000000
3078 2 -1.200000000000 115.782481161875 27.552598221402 0.000000000000
3079 2 -1.200000000000 116.895774249970 2.361651276120 21.211082115253
3080 2 -1.200000000000 114.669188073780 0.787217092040 21.211082115253
3081 2 -1.200000000000 116.895774249970 2.361651276120 1.928280192296
3082 2 -1.200000000000 114.669188073780 0.787217092040 1.928280192296
3083 2 -1.200000000000 115.782481161875 3.936085460200 0.000000000000
3084 2 -1.200000000000 113.555894985685 2.361651276120 0.000000000000
3085 1 2.400000000000 131.368584395205 3.148868368160 11.569681153774
3086 1 2.400000000000 128.028705130920 3.148868368160 9.641400961479
3087 1 2.400000000000 128.028705130920 3.148868368160 13.497961346070
3088 1 2.400000000000 129.141998219015 6.297736736320 11.569681153774
3089 2 -1.200000000000 129.141998219015 3.936085460200 11.569681153774
3090 2 -1.200000000000 126.915412042825 2.361651276120 11.569681153774
3091 2 -1.200000000000 128.028705130920 5.510519644280 9.641400961479
3092 2 -1.200000000000 125.802118954730 3.936085460200 9.641400961479
3093 2 -1.200000000000 128.028705130920 5.510519644280 13.497961346070
3094 2 -1.200000000000 125.802118954730 3.936085460200 13.497961346070
3095 2 -1.200000000000 126.915412042825 7.084953828360 11.569681153774
3096 2 -1.200000000000 124.688825866635 5.510519644280 11.569681153774
3097 1 2.400000000000 126.915412042825 0.000000000000 11.569681153774
3098 1 2.400000000000 123.575532778540 0.000000000000 9.641400961479
3099 1 2.400000000000 123.575532778540 0.000000000000 13.497961346070
3100 1 2.400000000000 124.688825866635 3.148868368160 11.569681153774
3101 2 -1.200000000000 124.688825866635 0.787217092040 11.569681153774
3102 2 -1.200000000000 122.462239690445 27.552598221402 11.569681153774
3103 2 -1.200000000000 123.575532778540 2.361651276120 9.641400961479
3104 2 -1.200000000000 121.348946602350 0.787217092040 9.641400961479
3105 2 -1.200000000000 123.575532778540 2.361651276120 13.497961346070
3106 2 -1.200000000000 121.348946602350 0.787217092040 13.497961346070
3107 2 -1.200000000000 122.462239690445 3.936085460200 11.569681153774
3108 2 -1.200000000000 120.235653514255 2.361651276120 11.569681153774
3109 1 2.400000000000 129.141998219015 6.297736736320 7.713120769183
3110 1 2.400000000000 125.802118954730 6.297736736320 5.784840576887
3111 1 2.400000000000 125.802118954730 6.297736736320 9.641400961479
3112 1 2.400000000000 126.915412042825 9.446605104481 7.713120769183
3113 2 -1.200000000000 126.915412042825 7.084953828360 7.713120769183
3114 2 -1.200000000000 124.688825866635 5.510519644280 7.713120769183
3115 2 -1.200000000000 125.802118954730 8.659388012441 5.784840576887
3116 2 -1.200000000000 123.575532778540 7.084953828360 5.784840576887
3117 2 -1.200000000000 125.802118954730 8.659388012441 9.641400961479
3118 2 -1.200000000000 123.575532778540 7.084953828360 9.641400961479
3119 2 -1.200000000000 124.688825866635 10.233822196521 7.713120769183
3120 2 -1.200000000000 122.462239690445 8.659388012441 7.713120769183
3121 1 2.400000000000 124.688825866635 3.148868368160 7.713120769183
3122 1 2.400000000000 121.348946602350 3.148868368160 5.784840576887
3123 1 2.400000000000 121.348946602350 3.148868368160 9.641400961479
3124 1 2.400000000000 122.462239690445 6.297736736320 7.713120769183
3125 2 -1.200000000000 122.462239690445 3.936085460200 7.713120769183
3126 2 -1.200000000000 120.235653514255 2.361651276120 7.713120769183
3127 2 -1.200000000000 121.348946602350 5.510519644280 5.784840576887
3128 2 -1.200000000000 119.122360426160 3.936085460200 5.784840576887
3129 2 -1.200000000000 121.348946602350 5.510519644280 9.641400961479
3130 2 -1.200000000000 119.122360426160 3.936085460200 9.641400961479
3131 2 -1.200000000000 120.235653514255 7.084953828360 7.713120769183
3132 2 -1.200000000000 118.009067338065 5.510519644280 7.713120769183
3133 1 2.400000000000 120.235653514255 0.000000000000 7.713120769183
3134 1 2.400000000000 116.895774249970 0.000000000000 5.784840576887
3135 1 2.400000000000 116.895774249970 0.000000000000 9.641400961479
3136 1 2.400000000000 118.009067338065 3.148868368160 7.713120769183
3137 2 -1.200000000000 118.009067338065 0.787217092040 7.713120769183
3138 2 -1.200000000000 115.782481161875 27.552598221402 7.713120769183
3139 2 -1.200000000000 116.895774249970 2.361651276120 5.784840576887
3140 2 -1.200000000000 114.669188073780 0.787217092040 5.784840576887
3141 2 -1.200000000000 116.895774249970 2.361651276120 9.641400961479
3142 2 -1.200000000000 114.669188073780 0.787217092040 9.641400961479
3143 2 -1.200000000000 115.782481161875 3.936085460200 7.713120769183
3144 2 -1.200000000000 113.555894985685 2.361651276120 7.713120769183
3145 1 2.400000000000 131.368584395205 12.595473472641 3.856560384591
3146 1 2.400000000000 128.028705130920 12.595473472641 1.928280192296
3147 1 2.400000000000 128.028705130920 12.595473472641 5.784840576887
3148 1 2.400000000000 129.141998219015 15.744341840801 3.856560384591
3149 2 -1.200000000000 129.141998219015 13.382690564681 3.856560384591
3150 2 -1.200000000000 126.915412042825 11.808256380601 3.856560384591
3151 2 -1.200000000000 128.028705130920 14.957124748761 1.928280192296
3152 2 -1.200000000000 125.802118954730 13.382690564681 1.928280192296
3153 2 -1.200000000000 128.028705130920 14.957124748761 5.784840576887
3154 2 -1.200000000000 125.802118954730 13.382690564681 5.784840576887
3155 2 -1.200000000000 126.915412042825 16.531558932841 3.856560384591
3156 2 -1.200000000000 124.688825866635 14.957124748761 3.856560384591
3157 1 2.400000000000 126.915412042825 9.446605104481 3.856560384591
3158 1 2.400000000000 123.575532778540 9.446605104481 1.928280192296
3159 1 2.400000000000 123.575532778540 9.446605104481 5.784840576887
3160 1 2.400000000000 124.688825866635 12.595473472641 3.856560384591
3161 2 -1.200000000000 124.688825866635 10.233822196521 3.856560384591
3162 2 -1.200000000000 122.462239690445 8.659388012441 3.856560384591
3163 2 -1.200000000000 123.575532778540 11.808256380601 1.928280192296
3164 2 -1.200000000000 121.348946602350 10.233822196521 1.928280192296
3165 2 -1.200000000000 123.575532778540 11.808256380601 5.784840576887
3166 2 -1.200000000000 121.348946602350 10.233822196521 5.784840576887
3167 2 -1.200000000000 122.462239690445 13.382690564681 3.856560384591
3168 2 -1.200000000000 120.235653514255 11.808256380601 3.856560384591
3169 1 2.400000000000 122.462239690445 6.297736736320 3.856560384591
3170 1 2.400000000000 119.122360426160 6.297736736320 1.928280192296
3171 1 2.400000000000 119.122360426160 6.297736736320 5.784840576887
3172 1 2.400000000000 120.235653514255 9.446605104481 3.856560384591
3173 2 -1.200000000000 120.235653514255 7.084953828360 3.856560384591
3174 2 -1.200000000000 118.009067338065 5.510519644280 3.856560384591
3175 2 -1.200000000000 119.122360426160 8.659388012441 1.928280192296
3176 2 -1.200000000000 116.895774249970 7.084953828360 1.928280192296
3177 2 -1.200000000000 119.122360426160 8.659388012441 5.784840576887
3178 2 -1.200000000000 116.895774249970 7.084953828360 5.784840576887
3179 2 -1.200000000000 118.009067338065 10.233822196521 3.856560384591
3180 2 -1.200000000000 115.782481161875 8.659388012441 3.856560384591
3181 1 2.400000000000 118.009067338065 3.148868368160 3.856560384591
3182 1 2.400000000000 114.669188073780 3.148868368160 1.928280192296
3183 1 2.400000000000 114.669188073780 3.148868368160 5.784840576887
3184 1 2.400000000000 115.782481161875 6.297736736320 3.856560384591
3185 2 -1.200000000000 115.782481161875 3.936085460200 3.856560384591
3186 2 -1.200000000000 113.555894985685 2.361651276120 3.856560384591
3187 2 -1.200000000000 114.669188073780 5.510519644280 1.928280192296
3188 2 -1.200000000000 112.442601897590 3.936085460200 1.928280192296
3189 2 -1.200000000000 114.669188073780 5.510519644280 5.784840576887
3190 2 -1.200000000000 112.442601897590 3.936085460200 5.784840576887
3191 2 -1.200000000000 113.555894985685 7.084953828360 3.856560384591
3192 2 -1.200000000000 111.329308809495 5.510519644280 3.856560384591
3193 1 2.400000000000 113.555894985685 0.000000000000 3.856560384591
3194 1 2.400000000000 110.216015721400 0.000000000000 1.928280192296
3195 1 2.400000000000 110.216015721400 0.000000000000 5.784840576887
3196 1 2.400000000000 111.329308809495 3.148868368160 3.856560384591
3197 2 -1.200000000000 111.329308809495 0.787217092040 3.856560384591
3198 2 -1.200000000000 109.102722633306 27.552598221402 3.856560384591
3199 2 -1.200000000000 110.216015721400 2.361651276120 1.928280192296
3200 2 -1.200000000000 107.989429545211 0.787217092040 1.928280192296
3201 2 -1.200000000000 110.216015721400 2.361651276120 5.784840576887
3202 2 -1.200000000000 107.989429545211 0.787217092040 5.784840576887
3203 2 -1.200000000000 109.102722633306 3.936085460200 3.856560384591
3204 2 -1.200000000000 106.876136457116 2.361651276120 3.856560384591
3205 1 2.400000000000 129.141998219015 15.744341840801 0.000000000000
3206 1 2.400000000000 125.802118954730 15.744341840801 21.211082115253
3207 1 2.400000000000 125.802118954730 15.744341840801 1.928280192296
3208 1 2.400000000000 126.915412042825 18.893210208961 0.000000000000
3209 2 -1.200000000000 126.915412042825 16.531558932841 0.000000000000
3210 2 -1.200000000000 124.688825866635 14.957124748761 0.000000000000
3211 2 -1.200000000000 125.802118954730 18.105993116921 21.211082115253
3212 2 -1.200000000000 123.575532778540 16.531558932841 21.211082115253
3213 2 -1.200000000000 125.802118954730 18.105993116921 1.928280192296
3214 2 -1.200000000000 123.575532778540 16.531558932841 1.928280192296
3215 2 -1.200000000000 124.688825866635 19.680427301001 0.000000000000
3216 2 -1.200000000000 122.462239690445 18.105993116921 0.000000000000
3217 1 2.400000000000 124.688825866635 12.595473472641 0.000000000000
3218 1 2.400000000000 121.348946602350 12.595473472641 21.211082115253
3219 1 2.400000000000 121.348946602350 12.595473472641 1.928280192296
3220 1 2.400000000000 122.462239690445 15.744341840801 0.000000000000
3221 2 -1.200000000000 122.462239690445 13.382690564681 0.000000000000
3222 2 -1.200000000000 120.235653514255 11.808256380601 0.000000000000
3223 2 -1.200000000000 121.348946602350 14.957124748761 21.211082115253
3224 2 -1.200000000000 119.122360426160 13.382690564681 21.211082115253
3225 2 -1.200000000000 121.348946602350 14.957124748761 1.928280192296
3226 2 -1.200000000000 119.122360426160 13.382690564681 1.928280192296
3227 2 -1.200000000000 120.235653514255 16.531558932841 0.000000000000
3228 2 -1.200000000000 118.009067338065 14.957124748761 0.000000000000
3229 1 2.400000000000 120.235653514255 9.446605104481 0.000000000000
3230 1 2.400000000000 116.895774249970 9.446605104481 21.211082115253
3231 1 2.400000000000 116.895774249970 9.446605104481 1.928280192296
3232 1 2.400000000000 118.009067338065 12.595473472641 0.000000000000
3233 2 -1.200000000000 118.009067338065 10.233822196521 0.000000000000
3234 2 -1.200000000000 115.782481161875 8.659388012441 0.000000000000
3235 2 -1.200000000000 116.895774249970 11.808256380601 21.211082115253
3236 2 -1.200000000000 114.669188073780 10.233822196521 21.211082115253
3237 2 -1.200000000000 116.895774249970 11.808256380601 1.928280192296
3238 2 -1.200000000000 114.669188073780 10.233822196521 1.928280192296
3239 2 -1.200000000000 115.782481161875 13.382690564681 0.000000000000
3240 2 -1.200000000000 113.555894985685 11.808256380601 0.000000000000
3241 1 2.400000000000 115.782481161875 6.297736736320 0.000000000000
3242 1 2.400000000000 112.442601897590 6.297736736320 21.211082115253
3243 1 2.400000000000 112.442601897590 6.297736736320 1.928280192296
3244 1 2.400000000000 113.555894985685 9.446605104481 0.000000000000
3245 2 -1.200000000000 113.555894985685 7.084953828360 0.000000000000
3246 2 -1.200000000000 111.329308809495 5.510519644280 0.000000000000
3247 2 -1.200000000000 112.442601897590 8.659388012441 21.211082115253
3248 2 -1.200000000000 110.216015721400 7.084953828360 21.211082115253
3249 2 -1.200000000000 112.442601897590 8.659388012441 1.928280192296
3250 2 -1.200000000000 110.216015721400 7.084953828360 1.928280192296
3251 2 -1.200000000000 111.329308809495 10.233822196521 0.000000000000
3252 2 -1.200000000000 109.102722633306 8.659388012441 0.000000000000
3253 1 2.400000000000 111.329308809495 3.148868368160 0.000000000000
3254 1 2.400000000000 107.989429545211 3.148868368160 21.211082115253
3255 1 2.400000000000 107.989429545211 3.148868368160 1.928280192296
3256 1 2.400000000000 109.102722633306 6.297736736320 0.000000000000
3257 2 -1.200000000000 109.102722633306 3.936085460200 0.000000000000
3258 2 -1.200000000000 106.876136457116 2.361651276120 0.000000000000
3259 2 -1.200000000000 107.989429545211 5.510519644280 21.211082115253
3260 2 -1.200000000000 105.762843369021 3.936085460200 21.211082115253
3261 2 -1.200000000000 107.989429545211 5.510519644280 1.928280192296
3262 2 -1.200000000000 105.762843369021 3.936085460200 1.928280192296
3263 2 -1.200000000000 106.876136457116 7.084953828360 0.000000000000
3264 2 -1.200000000000 104.649550280926 5.510519644280 0.000000000000
3265 1 2.400000000000 106.876136457116 0.000000000000 0.000000000000
3266 1 2.400000000000 103.536257192831 0.000000000000 21.211082115253
3267 1 2.400000000000 103.536257192831 0.000000000000 1.928280192296
3268 1 2.400000000000 104.649550280926 3.148868368160 0.000000000000
3269 2 -1.200000000000 104.649550280926 0.787217092040 0.000000000000
3270 2 -1.200000000000 102.422964104736 27.552598221402 0.000000000000
3271 2 -1.200000000000 103.536257192831 2.361651276120 21.211082115253
3272 2 -1.200000000000 101.309671016641 0.787217092040 21.211082115253
3273 2 -1.200000000000 103.536257192831 2.361651276120 1.928280192296
3274 2 -1.200000000000 101.309671016641 0.787217092040 1.928280192296
3275 2 -1.200000000000 102.422964104736 3.936085460200 0.000000000000
3276 2 -1.200000000000 100.196377928546 2.361651276120 0.000000000000
3277 1 2.400000000000 131.368584395205 3.148868368160 19.282801922957
3278 1 2.400000000000 128.028705130920 3.148868368160 17.354521730661
3279 1 2.400000000000 128.028705130920 3.148868368160 21.211082115253
3280 1 2.400000000000 129.141998219015 6.297736736320 19.282801922957
3281 2 -1.200000000000 129.141998219015 3.936085460200 19.282801922957
3282 2 -1.200000000000 126.915412042825 2.361651276120 19.282801922957
3283 2 -1.200000000000 128.028705130920 5.510519644280 17.354521730661
3284 2 -1.200000000000 125.802118954730 3.936085460200 17.354521730661
3285 2 -1.200000000000 128.028705130920 5.510519644280 21.211082115253
3286 2 -1.200000000000 125.802118954730 3.936085460200 21.211082115253
3287 2 -1.200000000000 126.915412042825 7.084953828360 19.282801922957
3288 2 -1.200000000000 124.688825866635 5.510519644280 19.282801922957
3289 1 2.400000000000 126.915412042825 0.000000000000 19.282801922957
3290 1 2.400000000000 123.575532778540 0.000000000000 17.354521730661
3291 1 2.400000000000 123.575532778540 0.000000000000 21.211082115253
3292 1 2.400000000000 124.688825866635 3.148868368160 19.282801922957
3293 2 -1.200000000000 124.688825866635 0.787217092040 19.282801922957
3294 2 -1.200000000000 122.462239690445 27.552598221402 19.282801922957
3295 2 -1.200000000000 123.575532778540 2.361651276120 17.354521730661
3296 2 -1.200000000000 121.348946602350 0.787217092040 17.354521730661
3297 2 -1.200000000000 123.575532778540 2.361651276120 21.211082115253
3298 2 -1.200000000000 121.348946602350 0.787217092040 21.211082115253
3299 2 -1.200000000000 122.462239690445 3.936085460200 19.282801922957
3300 2 -1.200000000000 120.235653514255 2.361651276120 19.282801922957
3301 1 2.400000000000 129.141998219015 6.297736736320 15.426241538366
3302 1 2.400000000000 125.802118954730 6.297736736320 13.497961346070
3303 1 2.400000000000 125.802118954730 6.297736736320 17.354521730661
3304 1 2.400000000000 126.915412042825 9.446605104481 15.426241538366
3305 2 -1.200000000000 126.915412042825 7.084953828360 15.426241538366
3306 2 -1.200000000000 124.688825866635 5.510519644280 15.426241538366
3307 2 -1.200000000000 125.802118954730 8.659388012441 13.497961346070
3308 2 -1.200000000000 123.575532778540 7.084953828360 13.497961346070
3309 2 -1.200000000000 125.802118954730 8.659388012441 17.354521730661
3310 2 -1.200000000000 123.575532778540 7.084953828360 17.354521730661
3311 2 -1.200000000000 124.688825866635 10.233822196521 15.426241538366
3312 2 -1.200000000000 122.462239690445 8.659388012441 15.426241538366
3313 1 2.400000000000 124.688825866635 3.148868368160 15.426241538366
3314 1 2.400000000000 121.348946602350 3.148868368160 13.497961346070
3315 1 2.400000000000 121.348946602350 3.148868368160 17.354521730661
3316 1 2.400000000000 122.462239690445 6.297736736320 15.426241538366
3317 2 -1.200000000000 122.462239690445 3.936085460200 15.426241538366
3318 2 -1.200000000000 120.235653514255 2.361651276120 15.426241538366
3319 2 -1.200000000000 121.348946602350 5.510519644280 13.497961346070
3320 2 -1.200000000000 119.122360426160 3.936085460200 13.497961346070
3321 2 -1.200000000000 121.348946602350 5.510519644280 17.354521730661
3322 2 -1.200000000000 119.122360426160 3.936085460200 17.354521730661
3323 2 -1.200000000000 120.235653514255 7.084953828360 15.426241538366
3324 2 -1.200000000000 118.009067338065 5.510519644280 15.426241538366
3325 1 2.400000000000 120.235653514255 0.000000000000 15.426241538366
3326 1 2.400000000000 116.895774249970 0.000000000000 13.497961346070
3327 1 2.400000000000 116.895774249970 0.000000000000 17.354521730661
3328 1 2.400000000000 118.009067338065 3.148868368160 15.426241538366
3329 2 -1.200000000000 118.009067338065 0.787217092040 15.426241538366
3330 2 -1.200000000000 115.782481161875 27.552598221402 15.426241538366
3331 2 -1.200000000000 116.895774249970 2.361651276120 13.497961346070
3332 2 -1.200000000000 114.669188073780 0.787217092040 13.497961346070
3333 2 -1.200000000000 116.895774249970 2.361651276120 17.354521730661
3334 2 -1.200000000000 114.669188073780 0.787217092040 17.354521730661
3335 2 -1.200000000000 115.782481161875 3.936085460200 15.426241538366
3336 2 -1.200000000000 113.555894985685 2.361651276120 15.426241538366
3337 1 2.400000000000 131.368584395205 12.595473472641 11.569681153774
3338 1 2.400000000000 128.028705130920 12.595473472641 9.641400961479
3339 1 2.400000000000 128.028705130920 12.595473472641 13.497961346070
3340 1 2.400000000000 129.141998219015 15.744341840801 11.569681153774
3341 2 -1.200000000000 129.141998219015 13.382690564681 11.569681153774
3342 2 -1.200000000000 126.915412042825 11.808256380601 11.569681153774
3343 2 -1.200000000000 128.028705130920 14.957124748761 9.641400961479
3344 2 -1.200000000000 125.802118954730 13.382690564681 9.641400961479
3345 2 -1.200000000000 128.028705130920 14.957124748761 13.497961346070
3346 2 -1.200000000000 125.802118954730 13.382690564681 13.497961346070
3347 2 -1.200000000000 126.915412042825 16.531558932841 11.569681153774
3348 2 -1.200000000000 124.688825866635 14.957124748761 11.569681153774
3349 1 2.400000000000 126.915412042825 9.446605104481 11.569681153774
3350 1 2.400000000000 123.575532778540 9.446605104481 9.641400961479
3351 1 2.400000000000 123.575532778540 9.446605104481 13.497961346070
3352 1 2.400000000000 124.688825866635 12.595473472641 11.569681153774
3353 2 -1.200000000000 124.688825866635 10.233822196521 11.569681153774
3354 2 -1.200000000000 122.462239690445 8.659388012441 11.569681153774
3355 2 -1.200000000000 123.575532778540 11.808256380601 9.641400961479
3356 2 -1.200000000000 121.348946602350 10.233822196521 9.641400961479
3357 2 -1.200000000000 123.575532778540 11.808256380601 13.497961346070
3358 2 -1.200000000000 121.348946602350 10.233822196521 13.497961346070
3359 2 -1.200000000000 122.462239690445 13.382690564681 11.569681153774
3360 2 -1.200000000000 120.235653514255 11.808256380601 11.569681153774
3361 1 2.400000000000 122.462239690445 6.297736736320 11.569681153774
3362 1 2.400000000000 119.122360426160 6.297736736320 9.641400961479
3363 1 2.400000000000 119.122360426160 6.297736736320 13.497961346070
3364 1 2.400000000000 120.235653514255 9.446605104481 11.569681153774
3365 2 -1.200000000000 120.235653514255 7.084953828360 11.569681153774
3366 2 -1.200000000000 118.009067338065 5.510519644280 11.569681153774
3367 2 -1.200000000000 119.122360426160 8.659388012441 9.641400961479
3368 2 -1.200000000000 116.895774249970 7.084953828360 9.641400961479
3369 2 -1.200000000000 119.122360426160 8.659388012441 13.497961346070
3370 2 -1.200000000000 116.895774249970 7.084953828360 13.497961346070
3371 2 -1.200000000000 118.009067338065 10.233822196521 11.569681153774
3372 2 -1.200000000000 115.782481161875 8.659388012441 11.569681153774
3373 1 2.400000000000 118.009067338065 3.148868368160 11.569681153774
3374 1 2.400000000000 114.669188073780 3.148868368160 9.641400961479
3375 1 2.400000000000 114.669188073780 3.148868368160 13.497961346070
3376 1 2.400000000000 115.782481161875 6.297736736320 11.569681153774
3377 2 -1.200000000000 115.782481161875 3.936085460200 11.569681153774
3378 2 -1.200000000000 113.555894985685 2.361651276120 11.569681153774
3379 2 -1.200000000000 114.669188073780 5.510519644280 9.641400961479
3380 2 -1.200000000000 112.442601897590 3.936085460200 9.641400961479
3381 2 -1.200000000000 114.669188073780 5.510519644280 13.497961346070
3382 2 -1.200000000000 112.442601897590 3.936085460200 13.497961346070
3383 2 -1.200000000000 113.555894985685 7.084953828360 11.569681153774
3384 2 -1.200000000000 111.329308809495 5.510519644280 11.569681153774
3385 1 2.400000000000 113.555894985685 0.000000000000 11.569681153774
3386 1 2.400000000000 110.216015721400 0.000000000000 9.641400961479
3387 1 2.400000000000 110.216015721400 0.000000000000 13.497961346070
3388 1 2.400000000000 111.329308809495 3.148868368160 11.569681153774
3389 2 -1.200000000000 111.329308809495 0.787217092040 11.569681153774
3390 2 -1.200000000000 109.102722633306 27.552598221402 11.569681153774
3391 2 -1.200000000000 110.216015721400 2.361651276120 9.641400961479
3392 2 -1.200000000000 107.989429545211 0.787217092040 9.641400961479
3393 2 -1.200000000000 110.216015721400 2.361651276120 13.497961346070
3394 2 -1.200000000000 107.989429545211 0.787217092040 13.497961346070
3395 2 -1.200000000000 109.102722633306 3.936085460200 11.569681153774
3396 2 -1.200000000000 106.876136457116 2.361651276120 11.569681153774
3397 1 2.400000000000 129.141998219015 15.744341840801 7.713120769183
3398 1 2.400000000000 125.802118954730 15.744341840801 5.784840576887
3399 1 2.400000000000 125.802118954730 15.744341840801 9.641400961479
3400 1 2.400000000000 126.915412042825 18.893210208961 7.713120769183
3401 2 -1.200000000000 126.915412042825 16.531558932841 7.713120769183
3402 2 -1.200000000000 124.688825866635 14.957124748761 7.713120769183
3403 2 -1.200000000000 125.802118954730 18.105993116921 5.784840576887
3404 2 -1.200000000000 123.575532778540 16.531558932841 5.784840576887
3405 2 -1.200000000000 125.802118954730 18.105993116921 9.641400961479
3406 2 -1.200000000000 123.575532778540 16.531558932841 9.641400961479
3407 2 -1.200000000000 124.688825866635 19.680427301001 7.713120769183
3408 2 -1.200000000000 122.462239690445 18.105993116921 7.713120769183
3409 1 2.400000000000 124.688825866635 12.595473472641 7.713120769183
3410 1 2.400000000000 121.348946602350 12.595473472641 5.784840576887
3411 1 2.400000000000 121.348946602350 12.595473472641 9.641400961479
3412 1 2.400000000000 122.462239690445 15.744341840801 7.713120769183
3413 2 -1.200000000000 122.462239690445 13.382690564681 7.713120769183
3414 2 -1.200000000000 120.235653514255 11.808256380601 7.713120769183
3415 2 -1.200000000000 121.348946602350 14.957124748761 5.784840576887
3416 2 -1.200000000000 119.122360426160 13.382690564681 5.784840576887
3417 2 -1.200000000000 121.348946602350 14.957124748761 9.641400961479
3418 2 -1.200000000000 119.122360426160 13.382690564681 9.641400961479
3419 2 -1.200000000000 120.235653514255 16.531558932841 7.713120769183
3420 2 -1.200000000000 118.009067338065 14.957124748761 7.713120769183
3421 1 2.400000000000 120.235653514255 9.446605104481 7.713120769183
3422 1 2.400000000000 116.895774249970 9.446605104481 5.784840576887
3423 1 2.400000000000 116.895774249970 9.446605104481 9.641400961479
3424 1 2.400000000000 118.009067338065 12.595473472641 7.713120769183
3425 2 -1.200000000000 118.009067338065 10.233822196521 7.713120769183
3426 2 -1.200000000000 115.782481161875 8.659388012441 7.713120769183
3427 2 -1.200000000000 116.895774249970 11.808256380601 5.784840576887
3428 2 -1.200000000000 114.669188073780 10.233822196521 5.784840576887
3429 2 -1.200000000000 116.895774249970 11.808256380601 9.641400961479
3430 2 -1.200000000000 114.669188073780 10.233822196521 9.641400961479
3431 2 -1.200000000000 115.782481161875 13.382690564681 7.713120769183
3432 2 -1.200000000000 113.555894985685 11.808256380601 7.713120769183
3433 1 2.400000000000 115.782481161875 6.297736736320 7.713120769183
3434 1 2.400000000000 112.442601897590 6.297736736320 5.784840576887
3435 1 2.400000000000 112.442601897590 6.297736736320 9.641400961479
3436 1 2.400000000000 113.555894985685 9.446605104481 7.713120769183
3437 2 -1.200000000000 113.555894985685 7.084953828360 7.713120769183
3438 2 -1.200000000000 111.329308809495 5.510519644280 7.713120769183
3439 2 -1.200000000000 112.442601897590 8.659388012441 5.784840576887
3440 2 -1.200000000000 110.216015721400 7.084953828360 5.784840576887
3441 2 -1.200000000000 112.442601897590 8.659388012441 9.641400961479
3442 2 -1.200000000000 110.216015721400 7.084953828360 9.641400961479
3443 2 -1.200000000000 111.329308809495 10.233822196521 7.713120769183
3444 2 -1.200000000000 109.102722633306 8.659388012441 7.713120769183
3445 1 2.400000000000 111.329308809495 3.148868368160 7.713120769183
3446 1 2.400000000000 107.989429545211 3.148868368160 5.784840576887
3447 1 2.400000000000 107.989429545211 3.148868368160 9.641400961479
3448 1 2.400000000000 109.102722633306 6.297736736320 7.713120769183
3449 2 -1.200000000000 109.102722633306 3.936085460200 7.713120769183
3450 2 -1.200000000000 106.876136457116 2.361651276120 7.713120769183
3451 2 -1.200000000000 107.989429545211 5.510519644280 5.784840576887
3452 2 -1.200000000000 105.762843369021 3.936085460200 5.784840576887
3453 2 -1.200000000000 107.989429545211 5.510519644280 9.641400961479
3454 2 -1.200000000000 105.762843369021 3.936085460200 9.641400961479
3455 2 -1.200000000000 106.876136457116 7.084953828360 7.713120769183
3456 2 -1.200000000000 104.649550280926 5.510519644280 7.713120769183
3457 1 2.400000000000 106.876136457116 0.000000000000 7.713120769183
3458 1 2.400000000000 103.536257192831 0.000000000000 5.784840576887
3459 1 2.400000000000 103.536257192831 0.000000000000 9.641400961479
3460 1 2.400000000000 104.649550280926 3.148868368160 7.713120769183
3461 2 -1.200000000000 104.649550280926 0.787217092040 7.713120769183
3462 2 -1.200000000000 102.422964104736 27.552598221402 7.713120769183
3463 2 -1.200000000000 103.536257192831 2.361651276120 5.784840576887
3464 2 -1.200000000000 101.309671016641 0.787217092040 5.784840576887
3465 2 -1.200000000000 103.536257192831 2.361651276120 9.641400961479
3466 2 -1.200000000000 101.309671016641 0.787217092040 9.641400961479
3467 2 -1.200000000000 102.422964104736 3.936085460200 7.713120769183
3468 2 -1.200000000000 100.196377928546 2.361651276120 7.713120769183
3469 1 2.400000000000 131.368584395205 22.042078577122 3.856560384591
3470 1 2.400000000000 128.028705130920 22.042078577122 1.928280192296
3471 1 2.400000000000 128.028705130920 22.042078577122 5.784840576887
3472 1 2.400000000000 129.141998219015 25.190946945282 3.856560384591
3473 2 -1.200000000000 129.141998219015 22.829295669162 3.856560384591
3474 2 -1.200000000000 126.915412042825 21.254861485081 3.856560384591
3475 2 -1.200000000000 128.028705130920 24.403729853242 1.928280192296
3476 2 -1.200000000000 125.802118954730 22.829295669162 1.928280192296
3477 2 -1.200000000000 128.028705130920 24.403729853242 5.784840576887
3478 2 -1.200000000000 125.802118954730 22.829295669162 5.784840576887
3479 2 -1.200000000000 126.915412042825 25.978164037322 3.856560384591
3480 2 -1.200000000000 124.688825866635 24.403729853242 3.856560384591
3481 1 2.400000000000 126.915412042825 18.893210208961 3.856560384591
3482 1 2.400000000000 123.575532778540 18.893210208961 1.928280192296
3483 1 2.400000000000 123.575532778540 18.893210208961 5.784840576887
3484 1 2.400000000000 124.688825866635 22.042078577122 3.856560384591
3485 2 -1.200000000000 124.688825866635 19.680427301001 3.856560384591
3486 2 -1.200000000000 122.462239690445 18.105993116921 3.856560384591
3487 2 -1.200000000000 123.575532778540 21.254861485081 1.928280192296
3488 2 -1.200000000000 121.348946602350 19.680427301001 1.928280192296
3489 2 -1.200000000000 123.575532778540 21.254861485081 5.784840576887
3490 2 -1.200000000000 121.348946602350 19.680427301001 5.784840576887
3491 2 -1.200000000000 122.462239690445 22.829295669162 3.856560384591
3492 2 -1.200000000000 120.235653514255 21.254861485081 3.856560384591
3493 1 2.400000000000 122.462239690445 15.744341840801 3.856560384591
3494 1 2.400000000000 119.122360426160 15.744341840801 1.928280192296
3495 1 2.400000000000 119.122360426160 15.744341840801 5.784840576887
3496 1 2.400000000000 120.235653514255 18.893210208961 3.856560384591
3497 2 -1.200000000000 120.235653514255 16.531558932841 3.856560384591
3498 2 -1.200000000000 118.009067338065 14.957124748761 3.856560384591
3499 2 -1.200000000000 119.122360426160 18.105993116921 1.928280192296
3500 2 -1.200000000000 116.895774249970 16.531558932841 1.928280192296
3501 2 -1.200000000000 119.122360426160 18.105993116921 5.784840576887
3502 2 -1.200000000000 116.895774249970 16.531558932841 5.784840576887
3503 2 -1.200000000000 118.009067338065 19.680427301001 3.856560384591
3504 2 -1.200000000000 115.782481161875 18.105993116921 3.856560384591
3505 1 2.400000000000 118.009067338065 12.595473472641 3.856560384591
3506 1 2.400000000000 114.669188073780 12.595473472641 1.928280192296
3507 1 2.400000000000 114.669188073780 12.595473472641 5.784840576887
3508 1 2.400000000000 115.782481161875 15.744341840801 3.856560384591
3509 2 -1.200000000000 115.782481161875 13.382690564681 3.856560384591
3510 2 -1.200000000000 113.555894985685 11.808256380601 3.856560384591
3511 2 -1.200000000000 114.669188073780 14.957124748761 1.928280192296
3512 2 -1.200000000000 112.442601897590 13.382690564681 1.928280192296
3513 2 -1.200000000000 114.669188073780 14.957124748761 5.784840576887
3514 2 -1.200000000000 112.442601897590 13.382690564681 5.784840576887
3515 2 -1.200000000000 113.555894985685 16.531558932841 3.856560384591
3516 2 -1.200000000000 111.329308809495 14.957124748761 3.856560384591
3517 1 2.400000000000 113.555894985685 9.446605104481 3.856560384591
3518 1 2.400000000000 110.216015721400 9.446605104481 1.928280192296
3519 1 2.400000000000 110.216015721400 9.446605104481 5.784840576887
3520 1 2.400000000000 111.329308809495 12.595473472641 3.856560384591
3521 2 -1.200000000000 111.329308809495 10.233822196521 3.856560384591
3522 2 -1.200000000000 109.102722633306 8.659388012441 3.856560384591
3523 2 -1.200000000000 110.216015721400 11.808256380601 1.928280192296
3524 2 -1.200000000000 107.989429545211 10.233822196521 1.928280192296
3525 2 -1.200000000000 110.216015721400 11.808256380601 5.784840576887
3526 2 -1.200000000000 107.989429545211 10.233822196521 5.784840576887
3527 2 -1.200000000000 109.102722633306 13.382690564681 3.856560384591
3528 2 -1.200000000000 106.876136457116 11.808256380601 3.856560384591
3529 1 2.400000000000 109.102722633306 6.297736736320 3.856560384591
3530 1 2.400000000000 105.762843369021 6.297736736320 1.928280192296
3531 1 2.400000000000 105.762843369021 6.297736736320 5.784840576887
3532 1 2.400000000000 106.876136457116 9.446605104481 3.856560384591
3533 2 -1.200000000000 106.876136457116 7.084953828360 3.856560384591
3534 2 -1.200000000000 104.649550280926 5.510519644280 3.856560384591
3535 2 -1.200000000000 105.762843369021 8.659388012441 1.928280192296
3536 2 -1.200000000000 103.536257192831 7.084953828360 1.928280192296
3537 2 -1.200000000000 105.762843369021 8.659388012441 5.784840576887
3538 2 -1.200000000000 103.536257192831 7.084953828360 5.784840576887
3539 2 -1.200000000000 104.649550280926 10.233822196521 3.856560384591
3540 2 -1.200000000000 102.422964104736 8.659388012441 3.856560384591
3541 1 2.400000000000 104.649550280926 3.148868368160 3.856560384591
3542 1 2.400000000000 101.309671016641 3.148868368160 1.928280192296
3543 1 2.400000000000 101.309671016641 3.148868368160 5.784840576887
3544 1 2.400000000000 102.422964104736 6.297736736320 3.856560384591
3545 2 -1.200000000000 102.422964104736 3.936085460200 3.856560384591
3546 2 -1.200000000000 100.196377928546 2.361651276120 3.856560384591
3547 2 -1.200000000000 101.309671016641 5.510519644280 1.928280192296
3548 2 -1.200000000000 99.083084840451 3.936085460200 1.928280192296
3549 2 -1.200000000000 101.309671016641 5.510519644280 5.784840576887
3550 2 -1.200000000000 99.083084840451 3.936085460200 5.784840576887
3551 2 -1.200000000000 100.196377928546 7.084953828360 3.856560384591
3552 2 -1.200000000000 97.969791752356 5.510519644280 3.856560384591
3553 1 2.400000000000 100.196377928546 0.000000000000 3.856560384591
3554 1 2.400000000000 96.856498664261 0.000000000000 1.928280192296
3555 1 2.400000000000 96.856498664261 0.000000000000 5.784840576887
3556 1 2.400000000000 97.969791752356 3.148868368160 3.856560384591
3557 2 -1.200000000000 97.969791752356 0.787217092040 3.856560384591
3558 2 -1.200000000000 95.743205576166 27.552598221402 3.856560384591
3559 2 -1.200000000000 96.856498664261 2.361651276120 1.928280192296
3560 2 -1.200000000000 94.629912488071 0.787217092040 1.928280192296
3561 2 -1.200000000000 96.856498664261 2.361651276120 5.784840576887
3562 2 -1.200000000000 94.629912488071 0.787217092040 5.784840576887
3563 2 -1.200000000000 95.743205576166 3.936085460200 3.856560384591
3564 2 -1.200000000000 93.516619399976 2.361651276120 3.856560384591
3565 1 2.400000000000 129.141998219015 25.190946945282 0.000000000000
3566 1 2.400000000000 125.802118954730 25.190946945282 21.211082115253
3567 1 2.400000000000 125.802118954730 25.190946945282 1.928280192296
3568 1 2.400000000000 126.915412042825 0.000000000000 0.000000000000
3569 2 -1.200000000000 126.915412042825 25.978164037322 0.000000000000
3570 2 -1.200000000000 124.688825866635 24.403729853242 0.000000000000
3571 2 -1.200000000000 125.802118954730 27.552598221402 21.211082115253
3572 2 -1.200000000000 123.575532778540 25.978164037322 21.211082115253
3573 2 -1.200000000000 125.802118954730 27.552598221402 1.928280192296
3574 2 -1.200000000000 123.575532778540 25.978164037322 1.928280192296
3575 2 -1.200000000000 124.688825866635 0.787217092040 0.000000000000
3576 2 -1.200000000000 122.462239690445 27.552598221402 0.000000000000
3577 1 2.400000000000 124.688825866635 22.042078577122 0.000000000000
3578 1 2.400000000000 121.348946602350 22.042078577122 21.211082115253
3579 1 2.400000000000 121.348946602350 22.042078577122 1.928280192296
3580 1 2.400000000000 122.462239690445 25.190946945282 0.000000000000
3581 2 -1.200000000000 122.462239690445 22.829295669162 0.000000000000
3582 2 -1.200000000000 120.235653514255 21.254861485081 0.000000000000
3583 2 -1.200000000000 121.348946602350 24.403729853242 21.211082115253
3584 2 -1.200000000000 119.122360426160 22.829295669162 21.211082115253
3585 2 -1.200000000000 121.348946602350 24.403729853242 1.928280192296
3586 2 -1.200000000000 119.122360426160 22.829295669162 1.928280192296
3587 2 -1.200000000000 120.235653514255 25.978164037322 0.000000000000
3588 2 -1.200000000000 118.009067338065 24.403729853242 0.000000000000
3589 1 2.400000000000 120.235653514255 18.893210208961 0.000000000000
3590 1 2.400000000000 116.895774249970 18.893210208961 21.211082115253
3591 1 2.400000000000 116.895774249970 18.893210208961 1.928280192296
3592 1 2.400000000000 118.009067338065 22.042078577122 0.000000000000
3593 2 -1.200000000000 118.009067338065 19.680427301001 0.000000000000
3594 2 -1.200000000000 115.782481161875 18.105993116921 0.000000000000
3595 2 -1.200000000000 116.895774249970 21.254861485081 21.211082115253
3596 2 -1.200000000000 114.669188073780 19.680427301001 21.211082115253
3597 2 -1.200000000000 116.895774249970 21.254861485081 1.928280192296
3598 2 -1.200000000000 114.669188073780 19.680427301001 1.928280192296
3599 2 -1.200000000000 115.782481161875 22.829295669162 0.000000000000
3600 2 -1.200000000000 113.555894985685 21.254861485081 0.000000000000
3601 1 2.400000000000 115.782481161875 15.744341840801 0.000000000000
3602 1 2.400000000000 112.442601897590 15.744341840801 21.211082115253
3603 1 2.400000000000 112.442601897590 15.744341840801 1.928280192296
3604 1 2.400000000000 113.555894985685 18.893210208961 0.000000000000
3605 2 -1.200000000000 113.555894985685 16.531558932841 0.000000000000
3606 2 -1.200000000000 111.329308809495 14.957124748761 0.000000000000
3607 2 -1.200000000000 112.442601897590 18.105993116921 21.211082115253
3608 2 -1.200000000000 110.216015721400 16.531558932841 21.211082115253
3609 2 -1.200000000000 112.442601897590 18.105993116921 1.928280192296
3610 2 -1.200000000000 110.216015721400 16.531558932841 1.928280192296
3611 2 -1.200000000000 111.329308809495 19.680427301001 0.000000000000
3612 2 -1.200000000000 109.102722633306 18.105993116921 0.000000000000
3613 1 2.400000000000 111.329308809495 12.595473472641 0.000000000000
3614 1 2.400000000000 107.989429545211 12.595473472641 21.211082115253
3615 1 2.400000000000 107.989429545211 12.595473472641 1.928280192296
3616 1 2.400000000000 109.102722633306 15.744341840801 0.000000000000
3617 2 -1.200000000000 109.102722633306 13.382690564681 0.000000000000
3618 2 -1.200000000000 106.876136457116 11.808256380601 0.000000000000
3619 2 -1.200000000000 107.989429545211 14.957124748761 21.211082115253
3620 2 -1.200000000000 105.762843369021 13.382690564681 21.211082115253
3621 2 -1.200000000000 107.989429545211 14.957124748761 1.928280192296
3622 2 -1.200000000000 105.762843369021 13.382690564681 1.928280192296
3623 2 -1.200000000000 106.876136457116 16.531558932841 0.000000000000
3624 2 -1.200000000000 104.649550280926 14.957124748761 0.000000000000
3625 1 2.400000000000 106.876136457116 9.446605104481 0.000000000000
3626 1 2.400000000000 103.536257192831 9.446605104481 21.211082115253
3627 1 2.400000000000 103.536257192831 9.446605104481 1.928280192296
3628 1 2.400000000000 104.649550280926 12.595473472641 0.000000000000
3629 2 -1.200000000000 104.649550280926 10.233822196521 0.000000000000
3630 2 -1.200000000000 102.422964104736 8.659388012441 0.000000000000
3631 2 -1.200000000000 103.536257192831 11.808256380601 21.211082115253
3632 2 -1.200000000000 101.309671016641 10.233822196521 21.211082115253
3633 2 -1.200000000000 103.536257192831 11.808256380601 1.928280192296
3634 2 -1.200000000000 101.309671016641 10.233822196521 1.928280192296
3635 2 -1.200000000000 102.422964104736 13.382690564681 0.000000000000
3636 2 -1.200000000000 100.196377928546 11.808256380601 0.000000000000
3637 1 2.400000000000 102.422964104736 6.297736736320 0.000000000000
3638 1 2.400000000000 99.083084840451 6.297736736320 21.211082115253
3639 1 2.400000000000 99.083084840451 6.297736736320 1.928280192296
3640 1 2.400000000000 100.196377928546 9.446605104481 0.000000000000
3641 2 -1.200000000000 100.196377928546 7.084953828360 0.000000000000
3642 2 -1.200000000000 97.969791752356 5.510519644280 0.000000000000
3643 2 -1.200000000000 99.083084840451 8.659388012441 21.211082115253
3644 2 -1.200000000000 96.856498664261 7.084953828360 21.211082115253
3645 2 -1.200000000000 99.083084840451 8.659388012441 1.928280192296
3646 2 -1.200000000000 96.856498664261 7.084953828360 1.928280192296
3647 2 -1.200000000000 97.969791752356 10.233822196521 0.000000000000
3648 2 -1.200000000000 95.743205576166 8.659388012441 0.000000000000
3649 1 2.400000000000 97.969791752356 3.148868368160 0.000000000000
3650 1 2.400000000000 94.629912488071 3.148868368160 21.211082115253
3651 1 2.400000000000 94.629912488071 3.148868368160 1.928280192296
3652 1 2.400000000000 95.743205576166 6.297736736320 0.000000000000
3653 2 -1.200000000000 95.743205576166 3.936085460200 0.000000000000
3654 2 -1.200000000000 93.516619399976 2.361651276120 0.000000000000
3655 2 -1.200000000000 94.629912488071 5.510519644280 21.211082115253
3656 2 -1.200000000000 92.403326311881 3.936085460200 21.211082115253
3657 2 -1.200000000000 94.629912488071 5.510519644280 1.928280192296
3658 2 -1.200000000000 92.403326311881 3.936085460200 1.928280192296
3659 2 -1.200000000000 93.516619399976 7.084953828360 0.000000000000
3660 2 -1.200000000000 91.290033223786 5.510519644280 0.000000000000
3661 1 2.400000000000 93.516619399976 0.000000000000 0.000000000000
3662 1 2.400000000000 90.176740135691 0.000000000000 21.211082115253
3663 1 2.400000000000 90.176740135691 0.000000000000 1.928280192296
3664 1 2.400000000000 91.290033223786 3.148868368160 0.000000000000
3665 2 -1.200000000000 91.290033223786 0.787217092040 0.000000000000
3666 2 -1.200000000000 89.063447047596 27.552598221402 0.000000000000
3667 2 -1.200000000000 90.176740135691 2.361651276120 21.211082115253
3668 2 -1.200000000000 87.950153959501 0.787217092040 21.211082115253
3669 2 -1.200000000000 90.176740135691 2.361651276120 1.928280192296
3670 2 -1.200000000000 87.950153959501 0.787217092040 1.928280192296
3671 2 -1.200000000000 89.063447047596 3.936085460200 0.000000000000
3672 2 -1.200000000000 86.836860871406 2.361651276120 0.000000000000
3673 1 2.400000000000 131.368584395205 12.595473472641 19.282801922957
3674 1 2.400000000000 128.028705130920 12.595473472641 17.354521730661
3675 1 2.400000000000 128.028705130920 12.595473472641 21.211082115253
3676 1 2.400000000000 129.141998219015 15.744341840801 19.282801922957
3677 2 -1.200000000000 129.141998219015 13.382690564681 19.282801922957
3678 2 -1.200000000000 126.915412042825 11.808256380601 19.282801922957
3679 2 -1.200000000000 128.028705130920 14.957124748761 17.354521730661
3680 2 -1.200000000000 125.802118954730 13.382690564681 17.354521730661
3681 2 -1.200000000000 128.028705130920 14.957124748761 21.211082115253
3682 2 -1.200000000000 125.802118954730 13.382690564681 21.211082115253
3683 2 -1.200000000000 126.915412042825 16.531558932841 19.282801922957
3684 2 -1.200000000000 124.688825866635 14.957124748761 19.282801922957
3685 1 2.400000000000 126.915412042825 9.446605104481 19.282801922957
3686 1 2.400000000000 123.575532778540 9.446605104481 17.354521730661
3687 1 2.400000000000 123.575532778540 9.446605104481 21.211082115253
3688 1 2.400000000000 124.688825866635 12.595473472641 19.282801922957
3689 2 -1.200000000000 124.688825866635 10.233822196521 19.282801922957
3690 2 -1.200000000000 122.462239690445 8.659388012441 19.282801922957
3691 2 -1.200000000000 123.575532778540 11.808256380601 17.354521730661
3692 2 -1.200000000000 121.348946602350 10.233822196521 17.354521730661
3693 2 -1.200000000000 123.575532778540 11.808256380601 21.211082115253
3694 2 -1.200000000000 121.348946602350 10.233822196521 21.211082115253
3695 2 -1.200000000000 122.462239690445 13.382690564681 19.282801922957
3696 2 -1.200000000000 120.235653514255 11.808256380601 19.282801922957
3697 1 2.400000000000 122.462239690445 6.297736736320 19.282801922957
3698 1 2.400000000000 119.122360426160 6.297736736320 17.354521730661
3699 1 2.400000000000 119.122360426160 6.297736736320 21.211082115253
3700 1 2.400000000000 120.235653514255 9.446605104481 19.282801922957
3701 2 -1.200000000000 120.235653514255 7.084953828360 19.282801922957
3702 2 -1.200000000000 118.009067338065 5.510519644280 19.282801922957
3703 2 -1.200000000000 119.122360426160 8.659388012441 17.354521730661
3704 2 -1.200000000000 116.895774249970 7.084953828360 17.354521730661
3705 2 -1.200000000000 119.122360426160 8.659388012441 21.211082115253
3706 2 -1.200000000000 116.895774249970 7.084953828360 21.211082115253
3707 2 -1.200000000000 118.009067338065 10.233822196521 19.282801922957
3708 2 -1.200000000000 115.782481161875 8.659388012441 19.282801922957
3709 1 2.400000000000 118.009067338065 3.148868368160 19.282801922957
3710 1 2.400000000000 114.669188073780 3.148868368160 17.354521730661
3711 1 2.400000000000 114.669188073780 3.148868368160 21.211082115253
3712 1 2.400000000000 115.782481161875 6.297736736320 19.282801922957
3713 2 -1.200000000000 115.782481161875 3.936085460200 19.282801922957
3714 2 -1.200000000000 113.555894985685 2.361651276120 19.282801922957
3715 2 -1.200000000000 114.669188073780 5.510519644280 17.354521730661
3716 2 -1.200000000000 112.442601897590 3.936085460200 17.354521730661
3717 2 -1.200000000000 114.669188073780 5.510519644280 21.211082115253
3718 2 -1.200000000000 112.442601897590 3.936085460200 21.211082115253
3719 2 -1.200000000000 113.555894985685 7.084953828360 19.282801922957
3720 2 -1.200000000000 111.329308809495 5.510519644280 19.282801922957
3721 1 2.400000000000 113.555894985685 0.000000000000 19.282801922957
3722 1 2.400000000000 110.216015721400 0.000000000000 17.354521730661
3723 1 2.400000000000 110.216015721400 0.000000000000 21.211082115253
3724 1 2.400000000000 111.329308809495 3.148868368160 19.282801922957
3725 2 -1.200000000000 111.329308809495 0.787217092040 19.282801922957
3726 2 -1.200000000000 109.102722633306 27.552598221402 19.282801922957
3727 2 -1.200000000000 110.216015721400 2.361651276120 17.354521730661
3728 2 -1.200000000000 107.989429545211 0.787217092040 17.354521730661
3729 2 -1.200000000000 110.216015721400 2.361651276120 21.211082115253
3730 2 -1.200000000000 107.989429545211 0.787217092040 21.211082115253
3731 2 -1.200000000000 109.102722633306 3.936085460200 19.282801922957
3732 2 -1.200000000000 106.876136457116 2.361651276120 19.282801922957
3733 1 2.400000000000 129.141998219015 15.744341840801 15.426241538366
3734 1 2.400000000000 125.802118954730 15.744341840801 13.497961346070
3735 1 2.400000000000 125.802118954730 15.744341840801 17.354521730661
3736 1 2.400000000000 126.915412042825 18.893210208961 15.426241538366
3737 2 -1.200000000000 126.915412042825 16.531558932841 15.426241538366
3738 2 -1.200000000000 124.688825866635 14.957124748761 15.426241538366
3739 2 -1.200000000000 125.802118954730 18.105993116921 13.497961346070
3740 2 -1.200000000000 123.575532778540 16.531558932841 13.497961346070
3741 2 -1.200000000000 125.802118954730 18.105993116921 17.354521730661
3742 2 -1.200000000000 123.575532778540 16.531558932841 17.354521730661
3743 2 -1.200000000000 124.688825866635 19.680427301001 15.426241538366
3744 2 -1.200000000000 122.462239690445 18.105993116921 15.426241538366
3745 1 2.400000000000 124.688825866635 12.595473472641 15.426241538366
3746 1 2.400000000000 121.348946602350 12.595473472641 13.497961346070
3747 1 2.400000000000 121.348946602350 12.595473472641 17.354521730661
3748 1 2.400000000000 122.462239690445 15.744341840801 15.426241538366
3749 2 -1.200000000000 122.462239690445 13.382690564681 15.426241538366
3750 2 -1.200000000000 120.235653514255 11.808256380601 15.426241538366
3751 2 -1.200000000000 121.348946602350 14.957124748761 13.497961346070
3752 2 -1.200000000000 119.122360426160 13.382690564681 13.497961346070
3753 2 -1.200000000000 121.348946602350 14.957124748761 17.354521730661
3754 2 -1.200000000000 119.122360426160 13.382690564681 17.354521730661
3755 2 -1.200000000000 120.235653514255 16.531558932841 15.426241538366
3756 2 -1.200000000000 118.009067338065 14.957124748761 15.426241538366
3757 1 2.400000000000 120.235653514255 9.446605104481 15.426241538366
3758 1 2.400000000000 116.895774249970 9.446605104481 13.497961346070
3759 1 2.400000000000 116.895774249970 9.446605104481 17.354521730661
3760 1 2.400000000000 118.009067338065 12.595473472641 15.426241538366
3761 2 -1.200000000000 118.009067338065 10.233822196521 15.426241538366
3762 2 -1.200000000000 115.782481161875 8.659388012441 15.426241538366
3763 2 -1.200000000000 116.895774249970 11.808256380601 13.497961346070
3764 2 -1.200000000000 114.669188073780 10.233822196521 13.497961346070
3765 2 -1.200000000000 116.895774249970 11.808256380601 17.354521730661
3766 2 -1.200000000000 114.669188073780 10.233822196521 17.354521730661
3767 2 -1.200000000000 115.782481161875 13.382690564681 15.426241538366
3768 2 -1.200000000000 113.555894985685 11.808256380601 15.426241538366
3769 1 2.400000000000 115.782481161875 6.297736736320 15.426241538366
3770 1 2.400000000000 112.442601897590 6.297736736320 13.497961346070
3771 1 2.400000000000 112.442601897590 6.297736736320 17.354521730661
3772 1 2.400000000000 113.555894985685 9.446605104481 15.426241538366
3773 2 -1.200000000000 113.555894985685 7.084953828360 15.426241538366
3774 2 -1.200000000000 111.329308809495 5.510519644280 15.426241538366
3775 2 -1.200000000000 112.442601897590 8.659388012441 13.497961346070
3776 2 -1.200000000000 110.216015721400 7.084953828360 13.497961346070
3777 2 -1.200000000000 112.442601897590 8.659388012441 17.354521730661
3778 2 -1.200000000000 110.216015721400 7.084953828360 17.354521730661
3779 2 -1.200000000000 111.329308809495 10.233822196521 15.426241538366
3780 2 -1.200000000000 109.102722633306 8.659388012441 15.426241538366
3781 1 2.400000000000 111.329308809495 3.148868368160 15.426241538366
3782 1 2.400000000000 107.989429545211 3.148868368160 13.497961346070
3783 1 2.400000000000 107.989429545211 3.148868368160 17.354521730661
3784 1 2.400000000000 109.102722633306 6.297736736320 15.426241538366
3785 2 -1.200000000000 109.102722633306 3.936085460200 15.426241538366
3786 2 -1.200000000000 106.876136457116 2.361651276120 15.426241538366
3787 2 -1.200000000000 107.989429545211 5.510519644280 13.497961346070
3788 2 -1.200000000000 105.762843369021 3.936085460200 13.497961346070
3789 2 -1.200000000000 107.989429545211 5.510519644280 17.354521730661
3790 2 -1.200000000000 105.762843369021 3.936085460200 17.354521730661
3791 2 -1.200000000000 106.876136457116 7.084953828360 15.426241538366
3792 2 -1.200000000000 104.649550280926 5.510519644280 15.426241538366
3793 1 2.400000000000 106.876136457116 0.000000000000 15.426241538366
3794 1 2.400000000000 103.536257192831 0.000000000000 13.497961346070
3795 1 2.400000000000 103.536257192831 0.000000000000 17.354521730661
3796 1 2.400000000000 104.649550280926 3.148868368160 15.426241538366
3797 2 -1.200000000000 104.649550280926 0.787217092040 15.426241538366
3798 2 -1.200000000000 102.422964104736 27.552598221402 15.426241538366
3799 2 -1.200000000000 103.536257192831 2.361651276120 13.497961346070
3800 2 -1.200000000000 101.309671016641 0.787217092040 13.497961346070
3801 2 -1.200000000000 103.536257192831 2.361651276120 17.354521730661
3802 2 -1.200000000000 101.309671016641 0.787217092040 17.354521730661
3803 2 -1.200000000000 102.422964104736 3.936085460200 15.426241538366
3804 2 -1.200000000000 100.196377928546 2.361651276120 15.426241538366
3805 1 2.400000000000 131.368584395205 22.042078577122 11.569681153774
3806 1 2.400000000000 128.028705130920 22.042078577122 9.641400961479
3807 1 2.400000000000 128.028705130920 22.042078577122 13.497961346070
3808 1 2.400000000000 129.141998219015 25.190946945282 11.569681153774
3809 2 -1.200000000000 129.141998219015 22.829295669162 11.569681153774
3810 2 -1.200000000000 126.915412042825 21.254861485081 11.569681153774
3811 2 -1.200000000000 128.028705130920 24.403729853242 9.641400961479
3812 2 -1.200000000000 125.802118954730 22.829295669162 9.641400961479
3813 2 -1.200000000000 128.028705130920 24.403729853242 13.497961346070
3814 2 -1.200000000000 125.802118954730 22.829295669162 13.497961346070
3815 2 -1.200000000000 126.915412042825 25.978164037322 11.569681153774
3816 2 -1.200000000000 124.688825866635 24.403729853242 11.569681153774
3817 1 2.400000000000 126.915412042825 18.893210208961 11.569681153774
3818 1 2.400000000000 123.575532778540 18.893210208961 9.641400961479
3819 1 2.400000000000 123.575532778540 18.893210208961 13.497961346070
3820 1 2.400000000000 124.688825866635 22.042078577122 11.569681153774
3821 2 -1.200000000000 124.688825866635 19.680427301001 11.569681153774
3822 2 -1.200000000000 122.462239690445 18.105993116921 11.569681153774
3823 2 -1.200000000000 123.575532778540 21.254861485081 9.641400961479
3824 2 -1.200000000000 121.348946602350 19.680427301001 9.641400961479
3825 2 -1.200000000000 123.575532778540 21.254861485081 13.497961346070
3826 2 -1.200000000000 121.348946602350 19.680427301001 13.497961346070
3827 2 -1.200000000000 122.462239690445 22.829295669162 11.569681153774
3828 2 -1.200000000000 120.235653514255 21.254861485081 11.569681153774
3829 1 2.400000000000 122.462239690445 15.744341840801 11.569681153774
3830 1 2.400000000000 119.122360426160 15.744341840801 9.641400961479
3831 1 2.400000000000 119.122360426160 15.744341840801 13.497961346070
3832 1 2.400000000000 120.235653514255 18.893210208961 11.569681153774
3833 2 -1.200000000000 120.235653514255 16.531558932841 11.569681153774
3834 2 -1.200000000000 118.009067338065 14.957124748761 11.569681153774
3835 2 -1.200000000000 119.122360426160 18.105993116921 9.641400961479
3836 2 -1.200000000000 116.895774249970 16.531558932841 9.641400961479
3837 2 -1.200000000000 119.122360426160 18.105993116921 13.497961346070
3838 2 -1.200000000000 116.895774249970 16.531558932841 13.497961346070
3839 2 -1.200000000000 118.009067338065 19.680427301001 11.569681153774
3840 2 -1.200000000000 115.782481161875 18.105993116921 11.569681153774
3841 1 2.400000000000 118.009067338065 12.595473472641 11.569681153774
3842 1 2.400000000000 114.669188073780 12.595473472641 9.641400961479
3843 1 2.400000000000 114.669188073780 12.595473472641 13.497961346070
3844 1 2.400000000000 115.782481161875 15.744341840801 11.569681153774
3845 2 -1.200000000000 115.782481161875 13.382690564681 11.569681153774
3846 2 -1.200000000000 113.555894985685 11.808256380601 11.569681153774
3847 2 -1.200000000000 114.669188073780 14.957124748761 9.641400961479
3848 2 -1.200000000000 112.442601897590 13.382690564681 9.641400961479
3849 2 -1.200000000000 114.669188073780 14.957124748761 13.497961346070
3850 2 -1.200000000000 112.442601897590 13.382690564681 13.497961346070
3851 2 -1.200000000000 113.555894985685 16.531558932841 11.569681153774
3852 2 -1.200000000000 111.329308809495 14.957124748761 11.569681153774
3853 1 2.400000000000 113.555894985685 9.446605104481 11.569681153774
3854 1 2.400000000000 110.216015721400 9.446605104481 9.641400961479
3855 1 2.400000000000 110.216015721400 9.446605104481 13.497961346070
3856 1 2.400000000000 111.329308809495 12.595473472641 11.569681153774
3857 2 -1.200000000000 111.329308809495 10.233822196521 11.569681153774
3858 2 -1.200000000000 109.102722633306 8.659388012441 11.569681153774
3859 2 -1.200000000000 110.216015721400 11.808256380601 9.641400961479
3860 2 -1.200000000000 107.989429545211 10.233822196521 9.641400961479
3861 2 -1.200000000000 110.216015721400 11.808256380601 13.497961346070
3862 2 -1.200000000000 107.989429545211 10.233822196521 13.497961346070
3863 2 -1.200000000000 109.102722633306 13.382690564681 11.569681153774
3864 2 -1.200000000000 106.876136457116 11.808256380601 11.569681153774
3865 1 2.400000000000 109.102722633306 6.297736736320 11.569681153774
3866 1 2.400000000000 105.762843369021 6.297736736320 9.641400961479
3867 1 2.400000000000 105.762843369021 6.297736736320 13.497961346070
3868 1 2.400000000000 106.876136457116 9.446605104481 11.569681153774
3869 2 -1.200000000000 106.876136457116 7.084953828360 11.569681153774
3870 2 -1.200000000000 104.649550280926 5.510519644280 11.569681153774
3871 2 -1.200000000000 105.762843369021 8.659388012441 9.641400961479
3872 2 -1.200000000000 103.536257192831 7.084953828360 9.641400961479
3873 2 -1.200000000000 105.762843369021 8.659388012441 13.497961346070
3874 2 -1.200000000000 103.536257192831 7.084953828360 13.497961346070
3875 2 -1.200000000000 104.649550280926 10.233822196521 11.569681153774
3876 2 -1.200000000000 102.422964104736 8.659388012441 11.569681153774
3877 1 2.400000000000 104.649550280926 3.148868368160 11.569681153774
3878 1 2.400000000000 101.309671016641 3.148868368160 9.641400961479
3879 1 2.400000000000 101.309671016641 3.148868368160 13.497961346070
3880 1 2.400000000000 102.422964104736 6.297736736320 11.569681153774
3881 2 -1.200000000000 102.422964104736 3.936085460200 11.569681153774
3882 2 -1.200000000000 100.196377928546 2.361651276120 11.569681153774
3883 2 -1.200000000000 101.309671016641 5.510519644280 9.641400961479
3884 2 -1.200000000000 99.083084840451 3.936085460200 9.641400961479
3885 2 -1.200000000000 101.309671016641 5.510519644280 13.497961346070
3886 2 -1.200000000000 99.083084840451 3.936085460200 13.497961346070
3887 2 -1.200000000000 100.196377928546 7.084953828360 11.569681153774
3888 2 -1.200000000000 97.969791752356 5.510519644280 11.569681153774
3889 1 2.400000000000 100.196377928546 0.000000000000 11.569681153774
3890 1 2.400000000000 96.856498664261 0.000000000000 9.641400961479
3891 1 2.400000000000 96.856498664261 0.000000000000 13.497961346070
3892 1 2.400000000000 97.969791752356 3.148868368160 11.569681153774
3893 2 -1.200000000000 97.969791752356 0.787217092040 11.569681153774
3894 2 -1.200000000000 95.743205576166 27.552598221402 11.569681153774
3895 2 -1.200000000000 96.856498664261 2.361651276120 9.641400961479
3896 2 -1.200000000000 94.629912488071 0.787217092040 9.641400961479
3897 2 -1.200000000000 96.856498664261 2.361651276120 13.497961346070
3898 2 -1.200000000000 94.629912488071 0.787217092040 13.497961346070
3899 2 -1.200000000000 95.743205576166 3.936085460200 11.569681153774
3900 2 -1.200000000000 93.516619399976 2.361651276120 11.569681153774
3901 1 2.400000000000 129.141998219015 25.190946945282 7.713120769183
3902 1 2.400000000000 125.802118954730 25.190946945282 5.784840576887
3903 1 2.400000000000 125.802118954730 25.190946945282 9.641400961479
3904 1 2.400000000000 126.915412042825 0.000000000000 7.713120769183
3905 2 -1.200000000000 126.915412042825 25.978164037322 7.713120769183
3906 2 -1.200000000000 124.688825866635 24.403729853242 7.713120769183
3907 2 -1.200000000000 125.802118954730 27.552598221402 5.784840576887
3908 2 -1.200000000000 123.575532778540 25.978164037322 5.784840576887
3909 2 -1.200000000000 125.802118954730 27.552598221402 9.641400961479
3910 2 -1.200000000000 123.575532778540 25.978164037322 9.641400961479
3911 2 -1.200000000000 124.688825866635 0.787217092040 7.713120769183
3912 2 -1.200000000000 122.462239690445 27.552598221402 7.713120769183
3913 1 2.400000000000 124.688825866635 22.042078577122 7.713120769183
3914 1 2.400000000000 121.348946602350 22.042078577122 5.784840576887
3915 1 2.400000000000 121.348946602350 22.042078577122 9.641400961479
3916 1 2.400000000000 122.462239690445 25.190946945282 7.713120769183
3917 2 -1.200000000000 122.462239690445 22.829295669162 7.713120769183
3918 2 -1.200000000000 120.235653514255 21.254861485081 7.713120769183
3919 2 -1.200000000000 121.348946602350 24.403729853242 5.784840576887
3920 2 -1.200000000000 119.122360426160 22.829295669162 5.784840576887
3921 2 -1.200000000000 121.348946602350 24.403729853242 9.641400961479
3922 2 -1.200000000000 119.122360426160 22.829295669162 9.641400961479
3923 2 -1.200000000000 120.235653514255 25.978164037322 7.713120769183
3924 2 -1.200000000000 118.009067338065 24.403729853242 7.713120769183
3925 1 2.400000000000 120.235653514255 18.893210208961 7.713120769183
3926 1 2.400000000000 116.895774249970 18.893210208961 5.784840576887
3927 1 2.400000000000 116.895774249970 18.893210208961 9.641400961479
3928 1 2.400000000000 118.009067338065 22.042078577122 7.713120769183
3929 2 -1.200000000000 118.009067338065 19.680427301001 7.713120769183
3930 2 -1.200000000000 115.782481161875 18.105993116921 7.713120769183
3931 2 -1.200000000000 116.895774249970 21.254861485081 5.784840576887
3932 2 -1.200000000000 114.669188073780 19.680427301001 5.784840576887
3933 2 -1.200000000000 116.895774249970 21.254861485081 9.641400961479
3934 2 -1.200000000000 114.669188073780 19.680427301001 9.641400961479
3935 2 -1.200000000000 115.782481161875 22.829295669162 7.713120769183
3936 2 -1.200000000000 113.555894985685 21.254861485081 7.713120769183
3937 1 2.400000000000 115.782481161875 15.744341840801 7.713120769183
3938 1 2.400000000000 112.442601897590 15.744341840801 5.784840576887
3939 1 2.400000000000 112.442601897590 15.744341840801 9.641400961479
3940 1 2.400000000000 113.555894985685 18.893210208961 7.713120769183
3941 2 -1.200000000000 113.555894985685 16.531558932841 7.713120769183
3942 2 -1.200000000000 111.329308809495 14.957124748761 7.713120769183
3943 2 -1.200000000000 112.442601897590 18.105993116921 5.784840576887
3944 2 -1.200000000000 110.216015721400 16.531558932841 5.784840576887
3945 2 -1.200000000000 112.442601897590 18.105993116921 9.641400961479
3946 2 -1.200000000000 110.216015721400 16.531558932841 9.641400961479
3947 2 -1.200000000000 111.329308809495 19.680427301001 7.713120769183
3948 2 -1.200000000000 109.102722633306 18.105993116921 7.713120769183
3949 1 2.400000000000 111.329308809495 12.595473472641 7.713120769183
3950 1 2.400000000000 107.989429545211 12.595473472641 5.784840576887
3951 1 2.400000000000 107.989429545211 12.595473472641 9.641400961479
3952 1 2.400000000000 109.102722633306 15.744341840801 7.713120769183
3953 2 -1.200000000000 109.102722633306 13.382690564681 7.713120769183
3954 2 -1.200000000000 106.876136457116 11.808256380601 7.713120769183
3955 2 -1.200000000000 107.989429545211 14.957124748761 5.784840576887
3956 2 -1.200000000000 105.762843369021 13.382690564681 5.784840576887
3957 2 -1.200000000000 107.989429545211 14.957124748761 9.641400961479
3958 2 -1.200000000000 105.762843369021 13.382690564681 9.641400961479
3959 2 -1.200000000000 106.876136457116 16.531558932841 7.713120769183
3960 2 -1.200000000000 104.649550280926 14.957124748761 7.713120769183
3961 1 2.400000000000 106.876136457116 9.446605104481 7.713120769183
3962 1 2.400000000000 103.536257192831 9.446605104481 5.784840576887
3963 1 2.400000000000 103.536257192831 9.446605104481 9.641400961479
3964 1 2.400000000000 104.649550280926 12.595473472641 7.713120769183
3965 2 -1.200000000000 104.649550280926 10.233822196521 7.713120769183
3966 2 -1.200000000000 102.422964104736 8.659388012441 7.713120769183
3967 2 -1.200000000000 103.536257192831 11.808256380601 5.784840576887
3968 2 -1.200000000000 101.309671016641 10.233822196521 5.784840576887
3969 2 -1.200000000000 103.536257192831 11.808256380601 9.641400961479
3970 2 -1.200000000000 101.309671016641 10.233822196521 9.641400961479
3971 2 -1.200000000000 102.422964104736 13.382690564681 7.713120769183
3972 2 -1.200000000000 100.196377928546 11.808256380601 7.713120769183
3973 1 2.400000000000 102.422964104736 6.297736736320 7.713120769183
3974 1 2.400000000000 99.083084840451 6.297736736320 5.784840576887
3975 1 2.400000000000 99.083084840451 6.297736736320 9.641400961479
3976 1 2.400000000000 100.196377928546 9.446605104481 7.713120769183
3977 2 -1.200000000000 100.196377928546 7.084953828360 7.713120769183
3978 2 -1.200000000000 97.969791752356 5.510519644280 7.713120769183
3979 2 -1.200000000000 99.083084840451 8.659388012441 5.784840576887
3980 2 -1.200000000000 96.856498664261 7.084953828360 5.784840576887
3981 2 -1.200000000000 99.083084840451 8.659388012441 9.641400961479
3982 2 -1.200000000000 96.856498664261 7.084953828360 9.641400961479
3983 2 -1.200000000000 97.969791752356 10.233822196521 7.713120769183
3984 2 -1.200000000000 95.743205576166 8.659388012441 7.713120769183
3985 1 2.400000000000 97.969791752356 3.148868368160 7.713120769183
3986 1 2.400000000000 94.629912488071 3.148868368160 5.784840576887
3987 1 2.400000000000 94.629912488071 3.148868368160 9.641400961479
3988 1 2.400000000000 95.743205576166 6.297736736320 7.713120769183
3989 2 -1.200000000000 95.743205576166 3.936085460200 7.713120769183
3990 2 -1.200000000000 93.516619399976 2.361651276120 7.713120769183
3991 2 -1.200000000000 94.629912488071 5.510519644280 5.784840576887
3992 2 -1.200000000000 92.403326311881 3.936085460200 5.784840576887
3993 2 -1.200000000000 94.629912488071 5.510519644280 9.641400961479
3994 2 -1.200000000000 92.403326311881 3.936085460200 9.641400961479
3995 2 -1.200000000000 93.516619399976 7.084953828360 7.713120769183
3996 2 -1.200000000000 91.290033223786 5.510519644280 7.713120769183
3997 1 2.400000000000 93.516619399976 0.000000000000 7.713120769183
3998 1 2.400000000000 90.176740135691 0.000000000000 5.784840576887
3999 1 2.400000000000 90.176740135691 0.000000000000 9.641400961479
4000 1 2.400000000000 91.290033223786 3.148868368160 7.713120769183
4001 2 -1.200000000000 91.290033223786 0.787217092040 7.713120769183
4002 2 -1.200000000000 89.063447047596 27.552598221402 7.713120769183
4003 2 -1.200000000000 90.176740135691 2.361651276120 5.784840576887
4004 2 -1.200000000000 87.950153959501 0.787217092040 5.784840576887
4005 2 -1.200000000000 90.176740135691 2.361651276120 9.641400961479
4006 2 -1.200000000000 87.950153959501 0.787217092040 9.641400961479
4007 2 -1.200000000000 89.063447047596 3.936085460200 7.713120769183
4008 2 -1.200000000000 86.836860871406 2.361651276120 7.713120769183
4009 1 2.400000000000 122.462239690445 25.190946945282 3.856560384591
4010 1 2.400000000000 119.122360426160 25.190946945282 1.928280192296
4011 1 2.400000000000 119.122360426160 25.190946945282 5.784840576887
4012 1 2.400000000000 120.235653514255 0.000000000000 3.856560384591
4013 2 -1.200000000000 120.235653514255 25.978164037322 3.856560384591
4014 2 -1.200000000000 118.009067338065 24.403729853242 3.856560384591
4015 2 -1.200000000000 119.122360426160 27.552598221402 1.928280192296
4016 2 -1.200000000000 116.895774249970 25.978164037322 1.928280192296
4017 2 -1.200000000000 119.122360426160 27.552598221402 5.784840576887
4018 2 -1.200000000000 116.895774249970 25.978164037322 5.784840576887
4019 2 -1.200000000000 118.009067338065 0.787217092040 3.856560384591
4020 2 -1.200000000000 115.782481161875 27.552598221402 3.856560384591
4021 1 2.400000000000 118.009067338065 22.042078577122 3.856560384591
4022 1 2.400000000000 114.669188073780 22.042078577122 1.928280192296
4023 1 2.400000000000 114.669188073780 22.042078577122 5.784840576887
4024 1 2.400000000000 115.782481161875 25.190946945282 3.856560384591
4025 2 -1.200000000000 115.782481161875 22.829295669162 3.856560384591
4026 2 -1.200000000000 113.555894985685 21.254861485081 3.856560384591
4027 2 -1.200000000000 114.669188073780 24.403729853242 1.928280192296
4028 2 -1.200000000000 112.442601897590 22.829295669162 1.928280192296
4029 2 -1.200000000000 114.669188073780 24.403729853242 5.784840576887
4030 2 -1.200000000000 112.442601897590 22.829295669162 5.784840576887
4031 2 -1.200000000000 113.555894985685 25.978164037322 3.856560384591
4032 2 -1.200000000000 111.329308809495 24.403729853242 3.856560384591
4033 1 2.400000000000 113.555894985685 18.893210208961 3.856560384591
4034 1 2.400000000000 110.216015721400 18.893210208961 1.928280192296
4035 1 2.400000000000 110.216015721400 18.893210208961 5.784840576887
4036 1 2.400000000000 111.329308809495 22.042078577122 3.856560384591
4037 2 -1.200000000000 111.329308809495 19.680427301001 3.856560384591
4038 2 -1.200000000000 109.102722633306 18.105993116921 3.856560384591
4039 2 -1.200000000000 110.216015721400 21.254861485081 1.928280192296
4040 2 -1.200000000000 107.989429545211 19.680427301001 1.928280192296
4041 2 -1.200000000000 110.216015721400 21.254861485081 5.784840576887
4042 2 -1.200000000000 107.989429545211 19.680427301001 5.784840576887
4043 2 -1.200000000000 109.102722633306 22.829295669162 3.856560384591
4044 2 -1.200000000000 106.876136457116 21.254861485081 3.856560384591
4045 1 2.400000000000 109.102722633306 15.744341840801 3.856560384591
4046 1 2.400000000000 105.762843369021 15.744341840801 1.928280192296
4047 1 2.400000000000 105.762843369021 15.744341840801 5.784840576887
4048 1 2.400000000000 106.876136457116 18.893210208961 3.856560384591
4049 2 -1.200000000000 106.876136457116 16.531558932841 3.856560384591
4050 2 -1.200000000000 104.649550280926 14.957124748761 3.856560384591
4051 2 -1.200000000000 105.762843369021 18.105993116921 1.928280192296
4052 2 -1.200000000000 103.536257192831 16.531558932841 1.928280192296
4053 2 -1.200000000000 105.762843369021 18.105993116921 5.784840576887
4054 2 -1.200000000000 103.536257192831 16.531558932841 5.784840576887
4055 2 -1.200000000000 104.649550280926 19.680427301001 3.856560384591
4056 2 -1.200000000000 102.422964104736 18.105993116921 3.856560384591
4057 1 2.400000000000 104.649550280926 12.595473472641 3.856560384591
4058 1 2.400000000000 101.309671016641 12.595473472641 1.928280192296
4059 1 2.400000000000 101.309671016641 12.595473472641 5.784840576887
4060 1 2.400000000000 102.422964104736 15.744341840801 3.856560384591
4061 2 -1.200000000000 102.422964104736 13.382690564681 3.856560384591
4062 2 -1.200000000000 100.196377928546 11.808256380601 3.856560384591
4063 2 -1.200000000000 101.309671016641 14.957124748761 1.928280192296
4064 2 -1.200000000000 99.083084840451 13.382690564681 1.928280192296
4065 2 -1.200000000000 101.309671016641 14.957124748761 5.784840576887
4066 2 -1.200000000000 99.083084840451 13.382690564681 5.784840576887
4067 2 -1.200000000000 100.196377928546 16.531558932841 3.856560384591
4068 2 -1.200000000000 97.969791752356 14.957124748761 3.856560384591
4069 1 2.400000000000 100.196377928546 9.446605104481 3.856560384591
4070 1 2.400000000000 96.856498664261 9.446605104481 1.928280192296
4071 1 2.400000000000 96.856498664261 9.446605104481 5.784840576887
4072 1 2.400000000000 97.969791752356 12.595473472641 3.856560384591
4073 2 -1.200000000000 97.969791752356 10.233822196521 3.856560384591
4074 2 -1.200000000000 95.743205576166 8.659388012441 3.856560384591
4075 2 -1.200000000000 96.856498664261 11.808256380601 1.928280192296
4076 2 -1.200000000000 94.629912488071 10.233822196521 1.928280192296
4077 2 -1.200000000000 96.856498664261 11.808256380601 5.784840576887
4078 2 -1.200000000000 94.629912488071 10.233822196521 5.784840576887
4079 2 -1.200000000000 95.743205576166 13.382690564681 3.856560384591
4080 2 -1.200000000000 93.516619399976 11.808256380601 3.856560384591
4081 1 2.400000000000 95.743205576166 6.297736736320 3.856560384591
4082 1 2.400000000000 92.403326311881 6.297736736320 1.928280192296
4083 1 2.400000000000 92.403326311881 6.297736736320 5.784840576887
4084 1 2.400000000000 93.516619399976 9.446605104481 3.856560384591
4085 2 -1.200000000000 93.516619399976 7.084953828360 3.856560384591
4086 2 -1.200000000000 91.290033223786 5.510519644280 3.856560384591
4087 2 -1.200000000000 92.403326311881 8.659388012441 1.928280192296
4088 2 -1.200000000000 90.176740135691 7.084953828360 1.928280192296
4089 2 -1.200000000000 92.403326311881 8.659388012441 5.784840576887
4090 2 -1.200000000000 90.176740135691 7.084953828360 5.784840576887
4091 2 -1.200000000000 91.290033223786 10.233822196521 3.856560384591
4092 2 -1.200000000000 89.063447047596 8.659388012441 3.856560384591
4093 1 2.400000000000 91.290033223786 3.148868368160 3.856560384591
4094 1 2.400000000000 87.950153959501 3.148868368160 1.928280192296
4095 1 2.400000000000 87.950153959501 3.148868368160 5.784840576887
4096 1 2.400000000000 89.063447047596 6.297736736320 3.856560384591
4097 2 -1.200000000000 89.063447047596 3.936085460200 3.856560384591
4098 2 -1.200000000000 86.836860871406 2.361651276120 3.856560384591
4099 2 -1.200000000000 87.950153959501 5.510519644280 1.928280192296
4100 2 -1.200000000000 85.723567783311 3.936085460200 1.928280192296
4101 2 -1.200000000000 87.950153959501 5.510519644280 5.784840576887
4102 2 -1.200000000000 85.723567783311 3.936085460200 5.784840576887
4103 2 -1.200000000000 86.836860871406 7.084953828360 3.856560384591
4104 2 -1.200000000000 84.610274695217 5.510519644280 3.856560384591
4105 1 2.400000000000 86.836860871406 0.000000000000 3.856560384591
4106 1 2.400000000000 83.496981607122 0.000000000000 1.928280192296
4107 1 2.400000000000 83.496981607122 0.000000000000 5.784840576887
4108 1 2.400000000000 84.610274695217 3.148868368160 3.856560384591
4109 2 -1.200000000000 84.610274695217 0.787217092040 3.856560384591
4110 2 -1.200000000000 82.383688519027 27.552598221402 3.856560384591
4111 2 -1.200000000000 83.496981607122 2.361651276120 1.928280192296
4112 2 -1.200000000000 81.270395430932 0.787217092040 1.928280192296
4113 2 -1.200000000000 83.496981607122 2.361651276120 5.784840576887
4114 2 -1.200000000000 81.270395430932 0.787217092040 5.784840576887
4115 2 -1.200000000000 82.383688519027 3.936085460200 3.856560384591
4116 2 -1.200000000000 80.157102342837 2.361651276120 3.856560384591
4117 1 2.400000000000 115.782481161875 25.190946945282 0.000000000000
4118 1 2.400000000000 112.442601897590 25.190946945282 21.211082115253
4119 1 2.400000000000 112.442601897590 25.190946945282 1.928280192296
4120 1 2.400000000000 113.555894985685 0.000000000000 0.000000000000
4121 2 -1.200000000000 113.555894985685 25.978164037322 0.000000000000
4122 2 -1.200000000000 111.329308809495 24.403729853242 0.000000000000
4123 2 -1.200000000000 112.442601897590 27.552598221402 21.211082115253
4124 2 -1.200000000000 110.216015721400 25.978164037322 21.211082115253
4125 2 -1.200000000000 112.442601897590 27.552598221402 1.928280192296
4126 2 -1.200000000000 110.216015721400 25.978164037322 1.928280192296
4127 2 -1.200000000000 111.329308809495 0.787217092040 0.000000000000
4128 2 -1.200000000000 109.102722633306 27.552598221402 0.000000000000
4129 1 2.400000000000 111.329308809495 22.042078577122 0.000000000000
4130 1 2.400000000000 107.989429545211 22.042078577122 21.211082115253
4131 1 2.400000000000 107.989429545211 22.042078577122 1.928280192296
4132 1 2.400000000000 109.102722633306 25.190946945282 0.000000000000
4133 2 -1.200000000000 109.102722633306 22.829295669162 0.000000000000
4134 2 -1.200000000000 106.876136457116 21.254861485081 0.000000000000
4135 2 -1.200000000000 107.989429545211 24.403729853242 21.211082115253
4136 2 -1.200000000000 105.762843369021 22.829295669162 21.211082115253
4137 2 -1.200000000000 107.989429545211 24.403729853242 1.928280192296
4138 2 -1.200000000000 105.762843369021 22.829295669162 1.928280192296
4139 2 -1.200000000000 106.876136457116 25.978164037322 0.000000000000
4140 2 -1.200000000000 104.649550280926 24.403729853242 0.000000000000
4141 1 2.400000000000 106.876136457116 18.893210208961 0.000000000000
4142 1 2.400000000000 103.536257192831 18.893210208961 21.211082115253
4143 1 2.400000000000 103.536257192831 18.893210208961 1.928280192296
4144 1 2.400000000000 104.649550280926 22.042078577122 0.000000000000
4145 2 -1.200000000000 104.649550280926 19.680427301001 0.000000000000
4146 2 -1.200000000000 102.422964104736 18.105993116921 0.000000000000
4147 2 -1.200000000000 103.536257192831 21.254861485081 21.211082115253
4148 2 -1.200000000000 101.309671016641 19.680427301001 21.211082115253
4149 2 -1.200000000000 103.536257192831 21.254861485081 1.928280192296
4150 2 -1.200000000000 101.309671016641 19.680427301001 1.928280192296
4151 2 -1.200000000000 102.422964104736 22.829295669162 0.000000000000
4152 2 -1.200000000000 100.196377928546 21.254861485081 0.000000000000
4153 1 2.400000000000 102.422964104736 15.744341840801 0.000000000000
4154 1 2.400000000000 99.083084840451 15.744341840801 21.211082115253
4155 1 2.400000000000 99.083084840451 15.744341840801 1.928280192296
4156 1 2.400000000000 100.196377928546 18.893210208961 0.000000000000
4157 2 -1.200000000000 100.196377928546 16.531558932841 0.000000000000
4158 2 -1.200000000000 97.969791752356 14.957124748761 0.000000000000
4159 2 -1.200000000000 99.083084840451 18.105993116921 21.211082115253
4160 2 -1.200000000000 96.856498664261 16.531558932841 21.211082115253
4161 2 -1.200000000000 99.083084840451 18.105993116921 1.928280192296
4162 2 -1.200000000000 96.856498664261 16.531558932841 1.928280192296
4163 2 -1.200000000000 97.969791752356 19.680427301001 0.000000000000
4164 2 -1.200000000000 95.743205576166 18.105993116921 0.000000000000
4165 1 2.400000000000 97.969791752356 12.595473472641 0.000000000000
4166 1 2.400000000000 94.629912488071 12.595473472641 21.211082115253
4167 1 2.400000000000 94.629912488071 12.595473472641 1.928280192296
4168 1 2.400000000000 95.743205576166 15.744341840801 0.000000000000
4169 2 -1.200000000000 95.743205576166 13.382690564681 0.000000000000
4170 2 -1.200000000000 93.516619399976 11.808256380601 0.000000000000
4171 2 -1.200000000000 94.629912488071 14.957124748761 21.211082115253
4172 2 -1.200000000000 92.403326311881 13.382690564681 21.211082115253
4173 2 -1.200000000000 94.629912488071 14.957124748761 1.928280192296
4174 2 -1.200000000000 92.403326311881 13.382690564681 1.928280192296
4175 2 -1.200000000000 93.516619399976 16.531558932841 0.000000000000
4176 2 -1.200000000000 91.290033223786 14.957124748761 0.000000000000
4177 1 2.400000000000 93.516619399976 9.446605104481 0.000000000000
4178 1 2.400000000000 90.176740135691 9.446605104481 21.211082115253
4179 1 2.400000000000 90.176740135691 9.446605104481 1.928280192296
4180 1 2.400000000000 91.290033223786 12.595473472641 0.000000000000
4181 2 -1.200000000000 91.290033223786 10.233822196521 0.000000000000
4182 2 -1.200000000000 89.063447047596 8.659388012441 0.000000000000
4183 2 -1.200000000000 90.176740135691 11.808256380601 21.211082115253
4184 2 -1.200000000000 87.950153959501 10.233822196521 21.211082115253
4185 2 -1.200000000000 90.176740135691 11.808256380601 1.928280192296
4186 2 -1.200000000000 87.950153959501 10.233822196521 1.928280192296
4187 2 -1.200000000000 89.063447047596 13.382690564681 0.000000000000
4188 2 -1.200000000000 86.836860871406 11.808256380601 0.000000000000
4189 1 2.400000000000 89.063447047596 6.297736736320 0.000000000000
4190 1 2.400000000000 85.723567783311 6.297736736320 21.211082115253
4191 1 2.400000000000 85.723567783311 6.297736736320 1.928280192296
4192 1 2.400000000000 86.836860871406 9.446605104481 0.000000000000
4193 2 -1.200000000000 86.836860871406 7.084953828360 0.000000000000
4194 2 -1.200000000000 84.610274695217 5.510519644280 0.000000000000
4195 2 -1.200000000000 85.723567783311 8.659388012441 21.211082115253
4196 2 -1.200000000000 83.496981607122 7.084953828360 21.211082115253
4197 2 -1.200000000000 85.723567783311 8.659388012441 1.928280192296
4198 2 -1.200000000000 83.496981607122 7.084953828360 1.928280192296
4199 2 -1.200000000000 84.610274695217 10.233822196521 0.000000000000
4200 2 -1.200000000000 82.383688519027 8.659388012441 0.000000000000
4201 1 2.400000000000 84.610274695217 3.148868368160 0.000000000000
4202 1 2.400000000000 81.270395430932 3.148868368160 21.211082115253
4203 1 2.400000000000 81.270395430932 3.148868368160 1.928280192296
4204 1 2.400000000000 82.383688519027 6.297736736320 0.000000000000
4205 2 -1.200000000000 82.383688519027 3.936085460200 0.000000000000
4206 2 -1.200000000000 80.157102342837 2.361651276120 0.000000000000
4207 2 -1.200000000000 81.270395430932 5.510519644280 21.211082115253
4208 2 -1.200000000000 79.043809254742 3.936085460200 21.211082115253
4209 2 -1.200000000000 81.270395430932 5.510519644280 1.928280192296
4210 2 -1.200000000000 79.043809254742 3.936085460200 1.928280192296
4211 2 -1.200000000000 80.157102342837 7.084953828360 0.000000000000
4212 2 -1.200000000000 77.930516166647 5.510519644280 0.000000000000
4213 1 2.400000000000 80.157102342837 0.000000000000 0.000000000000
4214 1 2.400000000000 76.817223078552 0.000000000000 21.211082115253
4215 1 2.400000000000 76.817223078552 0.000000000000 1.928280192296
4216 1 2.400000000000 77.930516166647 3.148868368160 0.000000000000
4217 2 -1.200000000000 77.930516166647 0.787217092040 0.000000000000
4218 2 -1.200000000000 75.703929990457 27.552598221402 0.000000000000
4219 2 -1.200000000000 76.817223078552 2.361651276120 21.211082115253
4220 2 -1.200000000000 74.590636902362 0.787217092040 21.211082115253
4221 2 -1.200000000000 76.817223078552 2.361651276120 1.928280192296
4222 2 -1.200000000000 74.590636902362 0.787217092040 1.928280192296
4223 2 -1.200000000000 75.703929990457 3.936085460200 0.000000000000
4224 2 -1.200000000000 73.477343814267 2.361651276120 0.000000000000
4225 1 2.400000000000 131.368584395205 22.042078577122 19.282801922957
4226 1 2.400000000000 128.028705130920 22.042078577122 17.354521730661
4227 1 2.400000000000 128.028705130920 22.042078577122 21.211082115253
4228 1 2.400000000000 129.141998219015 25.190946945282 19.282801922957
4229 2 -1.200000000000 129.141998219015 22.829295669162 19.282801922957
4230 2 -1.200000000000 126.915412042825 21.254861485081 19.282801922957
4231 2 -1.200000000000 128.028705130920 24.403729853242 17.354521730661
4232 2 -1.200000000000 125.802118954730 22.829295669162 17.354521730661
4233 2 -1.200000000000 128.028705130920 24.403729853242 21.211082115253
4234 2 -1.200000000000 125.802118954730 22.829295669162 21.211082115253
4235 2 -1.200000000000 126.915412042825 25.978164037322 19.282801922957
4236 2 -1.200000000000 124.688825866635 24.403729853242 19.282801922957
4237 1 2.400000000000 126.915412042825 18.893210208961 19.282801922957
4238 1 2.400000000000 123.575532778540 18.893210208961 17.354521730661
4239 1 2.400000000000 123.575532778540 18.893210208961 21.211082115253
4240 1 2.400000000000 124.688825866635 22.042078577122 19.282801922957
4241 2 -1.200000000000 124.688825866635 19.680427301001 19.282801922957
4242 2 -1.200000000000 122.462239690445 18.105993116921 19.282801922957
4243 2 -1.200000000000 123.575532778540 21.254861485081 17.354521730661
4244 2 -1.200000000000 121.348946602350 19.680427301001 17.354521730661
4245 2 -1.200000000000 123.575532778540 21.254861485081 21.211082115253
4246 2 -1.200000000000 121.348946602350 19.680427301001 21.211082115253
4247 2 -1.200000000000 122.462239690445 22.829295669162 19.282801922957
4248 2 -1.200000000000 120.235653514255 21.254861485081 19.282801922957
4249 1 2.400000000000 122.462239690445 15.744341840801 19.282801922957
4250 1 2.400000000000 119.122360426160 15.744341840801 17.354521730661
4251 1 2.400000000000 119.122360426160 15.744341840801 21.211082115253
4252 1 2.400000000000 120.235653514255 18.893210208961 19.282801922957
4253 2 -1.200000000000 120.235653514255 16.531558932841 19.282801922957
4254 2 -1.200000000000 118.009067338065 14.957124748761 19.282801922957
4255 2 -1.200000000000 119.122360426160 18.105993116921 17.354521730661
4256 2 -1.200000000000 116.895774249970 16.531558932841 17.354521730661
4257 2 -1.200000000000 119.122360426160 18.105993116921 21.211082115253
4258 2 -1.200000000000 116.895774249970 16.531558932841 21.211082115253
4259 2 -1.200000000000 118.009067338065 19.680427301001 19.282801922957
4260 2 -1.200000000000 115.782481161875 18.105993116921 19.282801922957
4261 1 2.400000000000 118.009067338065 12.595473472641 19.282801922957
4262 1 2.400000000000 114.669188073780 12.595473472641 17.354521730661
4263 1 2.400000000000 114.669188073780 12.595473472641 21.211082115253
4264 1 2.400000000000 115.782481161875 15.744341840801 19.282801922957
4265 2 -1.200000000000 115.782481161875 13.382690564681 19.282801922957
4266 2 -1.200000000000 113.555894985685 11.808256380601 19.282801922957
4267 2 -1.200000000000 114.669188073780 14.957124748761 17.354521730661
4268 2 -1.200000000000 112.442601897590 13.382690564681 17.354521730661
4269 2 -1.200000000000 114.669188073780 14.957124748761 21.211082115253
4270 2 -1.200000000000 112.442601897590 13.382690564681 21.211082115253
4271 2 -1.200000000000 113.555894985685 16.531558932841 19.282801922957
4272 2 -1.200000000000 111.329308809495 14.957124748761 19.282801922957
4273 1 2.400000000000 113.555894985685 9.446605104481 19.282801922957
4274 1 2.400000000000 110.216015721400 9.446605104481 17.354521730661
4275 1 2.400000000000 110.216015721400 9.446605104481 21.211082115253
4276 1 2.400000000000 111.329308809495 12.595473472641 19.282801922957
4277 2 -1.200000000000 111.329308809495 10.233822196521 19.282801922957
4278 2 -1.200000000000 109.102722633306 8.659388012441 19.282801922957
4279 2 -1.200000000000 110.216015721400 11.808256380601 17.354521730661
4280 2 -1.200000000000 107.989429545211 10.233822196521 17.354521730661
4281 2 -1.200000000000 110.216015721400 11.808256380601 21.211082115253
4282 2 -1.200000000000 107.989429545211 10.233822196521 21.211082115253
4283 2 -1.200000000000 109.102722633306 13.382690564681 19.282801922957
4284 2 -1.200000000000 106.876136457116 11.808256380601 19.282801922957
4285 1 2.400000000000 109.102722633306 6.297736736320 19.282801922957
4286 1 2.400000000000 105.762843369021 6.297736736320 17.354521730661
4287 1 2.400000000000 105.762843369021 6.297736736320 21.211082115253
4288 1 2.400000000000 106.876136457116 9.446605104481 19.282801922957
4289 2 -1.200000000000 106.876136457116 7.084953828360 19.282801922957
4290 2 -1.200000000000 104.649550280926 5.510519644280 19.282801922957
4291 2 -1.200000000000 105.762843369021 8.659388012441 17.354521730661
4292 2 -1.200000000000 103.536257192831 7.084953828360 17.354521730661
4293 2 -1.200000000000 105.762843369021 8.659388012441 21.211082115253
4294 2 -1.200000000000 103.536257192831 7.084953828360 21.211082115253
4295 2 -1.200000000000 104.649550280926 10.233822196521 19.282801922957
4296 2 -1.200000000000 102.422964104736 8.659388012441 19.282801922957
4297 1 2.400000000000 104.649550280926 3.148868368160 19.282801922957
4298 1 2.400000000000 101.309671016641 3.148868368160 17.354521730661
4299 1 2.400000000000 101.309671016641 3.148868368160 21.211082115253
4300 1 2.400000000000 102.422964104736 6.297736736320 19.282801922957
4301 2 -1.200000000000 102.422964104736 3.936085460200 19.282801922957
4302 2 -1.200000000000 100.196377928546 2.361651276120 19.282801922957
4303 2 -1.200000000000 101.309671016641 5.510519644280 17.354521730661
4304 2 -1.200000000000 99.083084840451 3.936085460200 17.354521730661
4305 2 -1.200000000000 101.309671016641 5.510519644280 21.211082115253
4306 2 -1.200000000000 99.083084840451 3.936085460200 21.211082115253
4307 2 -1.200000000000 100.196377928546 7.084953828360 19.282801922957
4308 2 -1.200000000000 97.969791752356 5.510519644280 19.282801922957
4309 1 2.400000000000 100.196377928546 0.000000000000 19.282801922957
4310 1 2.400000000000 96.856498664261 0.000000000000 17.354521730661
4311 1 2.400000000000 96.856498664261 0.000000000000 21.211082115253
4312 1 2.400000000000 97.969791752356 3.148868368160 19.282801922957
4313 2 -1.200000000000 97.969791752356 0.787217092040 19.282801922957
4314 2 -1.200000000000 95.743205576166 27.552598221402 19.282801922957
4315 2 -1.200000000000 96.856498664261 2.361651276120 17.354521730661
4316 2 -1.200000000000 94.629912488071 0.787217092040 17.354521730661
4317 2 -1.200000000000 96.856498664261 2.361651276120 21.211082115253
4318 2 -1.200000000000 94.629912488071 0.787217092040 21.211082115253
4319 2 -1.200000000000 95.743205576166 3.936085460200 19.282801922957
4320 2 -1.200000000000 93.516619399976 2.361651276120 19.282801922957
4321 1 2.400000000000 129.141998219015 25.190946945282 15.426241538366
4322 1 2.400000000000 125.802118954730 25.190946945282 13.497961346070
4323 1 2.400000000000 125.802118954730 25.190946945282 17.354521730661
4324 1 2.400000000000 126.915412042825 0.000000000000 15.426241538366
4325 2 -1.200000000000 126.915412042825 25.978164037322 15.426241538366
4326 2 -1.200000000000 124.688825866635 24.403729853242 15.426241538366
4327 2 -1.200000000000 125.802118954730 27.552598221402 13.497961346070
4328 2 -1.200000000000 123.575532778540 25.978164037322 13.497961346070
4329 2 -1.200000000000 125.802118954730 27.552598221402 17.354521730661
4330 2 -1.200000000000 123.575532778540 25.978164037322 17.354521730661
4331 2 -1.200000000000 124.688825866635 0.787217092040 15.426241538366
4332 2 -1.200000000000 122.462239690445 27.552598221402 15.426241538366
4333 1 2.400000000000 124.688825866635 22.042078577122 15.426241538366
4334 1 2.400000000000 121.348946602350 22.042078577122 13.497961346070
4335 1 2.400000000000 121.348946602350 22.042078577122 17.354521730661
4336 1 2.400000000000 122.462239690445 25.190946945282 15.426241538366
4337 2 -1.200000000000 122.462239690445 22.829295669162 15.426241538366
4338 2 -1.200000000000 120.235653514255 21.254861485081 15.426241538366
4339 2 -1.200000000000 121.348946602350 24.403729853242 13.497961346070
4340 2 -1.200000000000 119.122360426160 22.829295669162 13.497961346070
4341 2 -1.200000000000 121.348946602350 24.403729853242 17.354521730661
4342 2 -1.200000000000 119.122360426160 22.829295669162 17.354521730661
4343 2 -1.200000000000 120.235653514255 25.978164037322 15.426241538366
4344 2 -1.200000000000 118.009067338065 24.403729853242 15.426241538366
4345 1 2.400000000000 120.235653514255 18.893210208961 15.426241538366
4346 1 2.400000000000 116.895774249970 18.893210208961 13.497961346070
4347 1 2.400000000000 116.895774249970 18.893210208961 17.354521730661
4348 1 2.400000000000 118.009067338065 22.042078577122 15.426241538366
4349 2 -1.200000000000 118.009067338065 19.680427301001 15.426241538366
4350 2 -1.200000000000 115.782481161875 18.105993116921 15.426241538366
4351 2 -1.200000000000 116.895774249970 21.254861485081 13.497961346070
4352 2 -1.200000000000 114.669188073780 19.680427301001 13.497961346070
4353 2 -1.200000000000 116.895774249970 21.254861485081 17.354521730661
4354 2 -1.200000000000 114.669188073780 19.680427301001 17.354521730661
4355 2 -1.200000000000 115.782481161875 22.829295669162 15.426241538366
4356 2 -1.200000000000 113.555894985685 21.254861485081 15.426241538366
4357 1 2.400000000000 115.782481161875 15.744341840801 15.426241538366
4358 1 2.400000000000 112.442601897590 15.744341840801 13.497961346070
4359 1 2.400000000000 112.442601897590 15.744341840801 17.354521730661
4360 1 2.400000000000 113.555894985685 18.893210208961 15.426241538366
4361 2 -1.200000000000 113.555894985685 16.531558932841 15.426241538366
4362 2 -1.200000000000 111.329308809495 14.957124748761 15.426241538366
4363 2 -1.200000000000 112.442601897590 18.105993116921 13.497961346070
4364 2 -1.200000000000 110.216015721400 16.531558932841 13.497961346070
4365 2 -1.200000000000 112.442601897590 18.105993116921 17.354521730661
4366 2 -1.200000000000 110.216015721400 16.531558932841 17.354521730661
4367 2 -1.200000000000 111.329308809495 19.680427301001 15.426241538366
4368 2 -1.200000000000 109.102722633306 18.105993116921 15.426241538366
4369 1 2.400000000000 111.329308809495 12.595473472641 15.426241538366
4370 1 2.400000000000 107.989429545211 12.595473472641 13.497961346070
4371 1 2.400000000000 107.989429545211 12.595473472641 17.354521730661
4372 1 2.400000000000 109.102722633306 15.744341840801 15.426241538366
4373 2 -1.200000000000 109.102722633306 13.382690564681 15.426241538366
4374 2 -1.200000000000 106.876136457116 11.808256380601 15.426241538366
4375 2 -1.200000000000 107.989429545211 14.957124748761 13.497961346070
4376 2 -1.200000000000 105.762843369021 13.382690564681 13.497961346070
4377 2 -1.200000000000 107.989429545211 14.957124748761 17.354521730661
4378 2 -1.200000000000 105.762843369021 13.382690564681 17.354521730661
4379 2 -1.200000000000 106.876136457116 16.531558932841 15.426241538366
4380 2 -1.200000000000 104.649550280926 14.957124748761 15.426241538366
4381 1 2.400000000000 106.876136457116 9.446605104481 15.426241538366
4382 1 2.400000000000 103.536257192831 9.446605104481 13.497961346070
4383 1 2.400000000000 103.536257192831 9.446605104481 17.354521730661
4384 1 2.400000000000 104.649550280926 12.595473472641 15.426241538366
4385 2 -1.200000000000 104.649550280926 10.233822196521 15.426241538366
4386 2 -1.200000000000 102.422964104736 8.659388012441 15.426241538366
4387 2 -1.200000000000 103.536257192831 11.808256380601 13.497961346070
4388 2 -1.200000000000 101.309671016641 10.233822196521 13.497961346070
4389 2 -1.200000000000 103.536257192831 11.808256380601 17.354521730661
4390 2 -1.200000000000 101.309671016641 10.233822196521 17.354521730661
4391 2 -1.200000000000 102.422964104736 13.382690564681 15.426241538366
4392 2 -1.200000000000 100.196377928546 11.808256380601 15.426241538366
4393 1 2.400000000000 102.422964104736 6.297736736320 15.426241538366
4394 1 2.400000000000 99.083084840451 6.297736736320 13.497961346070
4395 1 2.400000000000 99.083084840451 6.297736736320 17.354521730661
4396 1 2.400000000000 100.196377928546 9.446605104481 15.426241538366
4397 2 -1.200000000000 100.196377928546 7.084953828360 15.426241538366
4398 2 -1.200000000000 97.969791752356 5.510519644280 15.426241538366
4399 2 -1.200000000000 99.083084840451 8.659388012441 13.497961346070
4400 2 -1.200000000000 96.856498664261 7.084953828360 13.497961346070
4401 2 -1.200000000000 99.083084840451 8.659388012441 17.354521730661
4402 2 -1.200000000000 96.856498664261 7.084953828360 17.354521730661
4403 2 -1.200000000000 97.969791752356 10.233822196521 15.426241538366
4404 2 -1.200000000000 95.743205576166 8.659388012441 15.426241538366
4405 1 2.400000000000 97.969791752356 3.148868368160 15.426241538366
4406 1 2.400000000000 94.629912488071 3.148868368160 13.497961346070
4407 1 2.400000000000 94.629912488071 3.148868368160 17.354521730661
4408 1 2.400000000000 95.743205576166 6.297736736320 15.426241538366
4409 2 -1.200000000000 95.743205576166 3.936085460200 15.426241538366
4410 2 -1.200000000000 93.516619399976 2.361651276120 15.426241538366
4411 2 -1.200000000000 94.629912488071 5.510519644280 13.497961346070
4412 2 -1.200000000000 92.403326311881 3.936085460200 13.497961346070
4413 2 -1.200000000000 94.629912488071 5.510519644280 17.354521730661
4414 2 -1.200000000000 92.403326311881 3.936085460200 17.354521730661
4415 2 -1.200000000000 93.516619399976 7.084953828360 15.426241538366
4416 2 -1.200000000000 91.290033223786 5.510519644280 15.426241538366
4417 1 2.400000000000 93.516619399976 0.000000000000 15.426241538366
4418 1 2.400000000000 90.176740135691 0.000000000000 13.497961346070
4419 1 2.400000000000 90.176740135691 0.000000000000 17.354521730661
4420 1 2.400000000000 91.290033223786 3.148868368160 15.426241538366
4421 2 -1.200000000000 91.290033223786 0.787217092040 15.426241538366
4422 2 -1.200000000000 89.063447047596 27.552598221402 15.426241538366
4423 2 -1.200000000000 90.176740135691 2.361651276120 13.497961346070
4424 2 -1.200000000000 87.950153959501 0.787217092040 13.497961346070
4425 2 -1.200000000000 90.176740135691 2.361651276120 17.354521730661
4426 2 -1.200000000000 87.950153959501 0.787217092040 17.354521730661
4427 2 -1.200000000000 89.063447047596 3.936085460200 15.426241538366
4428 2 -1.200000000000 86.836860871406 2.361651276120 15.426241538366
4429 1 2.400000000000 122.462239690445 25.190946945282 11.569681153774
4430 1 2.400000000000 119.122360426160 25.190946945282 9.641400961479
4431 1 2.400000000000 119.122360426160 25.190946945282 13.497961346070
4432 1 2.400000000000 120.235653514255 0.000000000000 11.569681153774
4433 2 -1.200000000000 120.235653514255 25.978164037322 11.569681153774
4434 2 -1.200000000000 118.009067338065 24.403729853242 11.569681153774
4435 2 -1.200000000000 119.122360426160 27.552598221402 9.641400961479
4436 2 -1.200000000000 116.895774249970 25.978164037322 9.641400961479
4437 2 -1.200000000000 119.122360426160 27.552598221402 13.497961346070
4438 2 -1.200000000000 116.895774249970 25.978164037322 13.497961346070
4439 2 -1.200000000000 118.009067338065 0.787217092040 11.569681153774
4440 2 -1.200000000000 115.782481161875 27.552598221402 11.569681153774
4441 1 2.400000000000 118.009067338065 22.042078577122 11.569681153774
4442 1 2.400000000000 114.669188073780 22.042078577122 9.641400961479
4443 1 2.400000000000 114.669188073780 22.042078577122 13.497961346070
4444 1 2.400000000000 115.782481161875 25.190946945282 11.569681153774
4445 2 -1.200000000000 115.782481161875 22.829295669162 11.569681153774
4446 2 -1.200000000000 113.555894985685 21.254861485081 11.569681153774
4447 2 -1.200000000000 114.669188073780 24.403729853242 9.641400961479
4448 2 -1.200000000000 112.442601897590 22.829295669162 9.641400961479
4449 2 -1.200000000000 114.669188073780 24.403729853242 13.497961346070
4450 2 -1.200000000000 112.442601897590 22.829295669162 13.497961346070
4451 2 -1.200000000000 113.555894985685 25.978164037322 11.569681153774
4452 2 -1.200000000000 111.329308809495 24.403729853242 11.569681153774
4453 1 2.400000000000 113.555894985685 18.893210208961 11.569681153774
4454 1 2.400000000000 110.216015721400 18.893210208961 9.641400961479
4455 1 2.400000000000 110.216015721400 18.893210208961 13.497961346070
4456 1 2.400000000000 111.329308809495 22.042078577122 11.569681153774
4457 2 -1.200000000000 111.329308809495 19.680427301001 11.569681153774
4458 2 -1.200000000000 109.102722633306 18.105993116921 11.569681153774
4459 2 -1.200000000000 110.216015721400 21.254861485081 9.641400961479
4460 2 -1.200000000000 107.989429545211 19.680427301001 9.641400961479
4461 2 -1.200000000000 110.216015721400 21.254861485081 13.497961346070
4462 2 -1.200000000000 107.989429545211 19.680427301001 13.497961346070
4463 2 -1.200000000000 109.102722633306 22.829295669162 11.569681153774
4464 2 -1.200000000000 106.876136457116 21.254861485081 11.569681153774
4465 1 2.400000000000 109.102722633306 15.744341840801 11.569681153774
4466 1 2.400000000000 105.762843369021 15.744341840801 9.641400961479
4467 1 2.400000000000 105.762843369021 15.744341840801 13.497961346070
4468 1 2.400000000000 106.876136457116 18.893210208961 11.569681153774
4469 2 -1.200000000000 106.876136457116 16.531558932841 11.569681153774
4470 2 -1.200000000000 104.649550280926 14.957124748761 11.569681153774
4471 2 -1.200000000000 105.762843369021 18.105993116921 9.641400961479
4472 2 -1.200000000000 103.536257192831 16.531558932841 9.641400961479
4473 2 -1.200000000000 105.762843369021 18.105993116921 13.497961346070
4474 2 -1.200000000000 103.536257192831 16.531558932841 13.497961346070
4475 2 -1.200000000000 104.649550280926 19.680427301001 11.569681153774
4476 2 -1.200000000000 102.422964104736 18.105993116921 11.569681153774
4477 1 2.400000000000 104.649550280926 12.595473472641 11.569681153774
4478 1 2.400000000000 101.309671016641 12.595473472641 9.641400961479
4479 1 2.400000000000 101.309671016641 12.595473472641 13.497961346070
4480 1 2.400000000000 102.422964104736 15.744341840801 11.569681153774
4481 2 -1.200000000000 102.422964104736 13.382690564681 11.569681153774
4482 2 -1.200000000000 100.196377928546 11.808256380601 11.569681153774
4483 2 -1.200000000000 101.309671016641 14.957124748761 9.641400961479
4484 2 -1.200000000000 99.083084840451 13.382690564681 9.641400961479
4485 2 -1.200000000000 101.309671016641 14.957124748761 13.497961346070
4486 2 -1.200000000000 99.083084840451 13.382690564681 13.497961346070
4487 2 -1.200000000000 100.196377928546 16.531558932841 11.569681153774
4488 2 -1.200000000000 97.969791752356 14.957124748761 11.569681153774
4489 1 2.400000000000 100.196377928546 9.446605104481 11.569681153774
4490 1 2.400000000000 96.856498664261 9.446605104481 9.641400961479
4491 1 2.400000000000 96.856498664261 9.446605104481 13.497961346070
4492 1 2.400000000000 97.969791752356 12.595473472641 11.569681153774
4493 2 -1.200000000000 97.969791752356 10.233822196521 11.569681153774
4494 2 -1.200000000000 95.743205576166 8.659388012441 11.569681153774
4495 2 -1.200000000000 96.856498664261 11.808256380601 9.641400961479
4496 2 -1.200000000000 94.629912488071 10.233822196521 9.641400961479
4497 2 -1.200000000000 96.856498664261 11.808256380601 13.497961346070
4498 2 -1.200000000000 94.629912488071 10.233822196521 13.497961346070
4499 2 -1.200000000000 95.743205576166 13.382690564681 11.569681153774
4500 2 -1.200000000000 93.516619399976 11.808256380601 11.569681153774
4501 1 2.400000000000 95.743205576166 6.297736736320 11.569681153774
4502 1 2.400000000000 92.403326311881 6.297736736320 9.641400961479
4503 1 2.400000000000 92.403326311881 6.297736736320 13.497961346070
4504 1 2.400000000000 93.516619399976 9.446605104481 11.569681153774
4505 2 -1.200000000000 93.516619399976 7.084953828360 11.569681153774
4506 2 -1.200000000000 91.290033223786 5.510519644280 11.569681153774
4507 2 -1.200000000000 92.403326311881 8.659388012441 9.641400961479
4508 2 -1.200000000000 90.176740135691 7.084953828360 9.641400961479
4509 2 -1.200000000000 92.403326311881 8.659388012441 13.497961346070
4510 2 -1.200000000000 90.176740135691 7.084953828360 13.497961346070
4511 2 -1.200000000000 91.290033223786 10.233822196521 11.569681153774
4512 2 -1.200000000000 89.063447047596 8.659388012441 11.569681153774
4513 1 2.400000000000 91.290033223786 3.148868368160 11.569681153774
4514 1 2.400000000000 87.950153959501 3.148868368160 9.641400961479
4515 1 2.400000000000 87.950153959501 3.148868368160 13.497961346070
4516 1 2.400000000000 89.063447047596 6.297736736320 11.569681153774
4517 2 -1.200000000000 89.063447047596 3.936085460200 11.569681153774
4518 2 -1.200000000000 86.836860871406 2.361651276120 11.569681153774
4519 2 -1.200000000000 87.950153959501 5.510519644280 9.641400961479
4520 2 -1.200000000000 85.723567783311 3.936085460200 9.641400961479
4521 2 -1.200000000000 87.950153959501 5.510519644280 13.497961346070
4522 2 -1.200000000000 85.723567783311 3.936085460200 13.497961346070
4523 2 -1.200000000000 86.836860871406 7.084953828360 11.569681153774
4524 2 -1.200000000000 84.610274695217 5.510519644280 11.569681153774
4525 1 2.400000000000 86.836860871406 0.000000000000 11.569681153774
4526 1 2.400000000000 83.496981607122 0.000000000000 9.641400961479
4527 1 2.400000000000 83.496981607122 0.000000000000 13.497961346070
4528 1 2.400000000000 84.610274695217 3.148868368160 11.569681153774
4529 2 -1.200000000000 84.610274695217 0.787217092040 11.569681153774
4530 2 -1.200000000000 82.383688519027 27.552598221402 11.569681153774
4531 2 -1.200000000000 83.496981607122 2.361651276120 9.641400961479
4532 2 -1.200000000000 81.270395430932 0.787217092040 9.641400961479
4533 2 -1.200000000000 83.496981607122 2.361651276120 13.497961346070
4534 2 -1.200000000000 81.270395430932 0.787217092040 13.497961346070
4535 2 -1.200000000000 82.383688519027 3.936085460200 11.569681153774
4536 2 -1.200000000000 80.157102342837 2.361651276120 11.569681153774
4537 1 2.400000000000 115.782481161875 25.190946945282 7.713120769183
4538 1 2.400000000000 112.442601897590 25.190946945282 5.784840576887
4539 1 2.400000000000 112.442601897590 25.190946945282 9.641400961479
4540 1 2.400000000000 113.555894985685 0.000000000000 7.713120769183
4541 2 -1.200000000000 113.555894985685 25.978164037322 7.713120769183
4542 2 -1.200000000000 111.329308809495 24.403729853242 7.713120769183
4543 2 -1.200000000000 112.442601897590 27.552598221402 5.784840576887
4544 2 -1.200000000000 110.216015721400 25.978164037322 5.784840576887
4545 2 -1.200000000000 112.442601897590 27.552598221402 9.641400961479
4546 2 -1.200000000000 110.216015721400 25.978164037322 9.641400961479
4547 2 -1.200000000000 111.329308809495 0.787217092040 7.713120769183
4548 2 -1.200000000000 109.102722633306 27.552598221402 7.713120769183
4549 1 2.400000000000 111.329308809495 22.042078577122 7.713120769183
4550 1 2.400000000000 107.989429545211 22.042078577122 5.784840576887
4551 1 2.400000000000 107.989429545211 22.042078577122 9.641400961479
4552 1 2.400000000000 109.102722633306 25.190946945282 7.713120769183
4553 2 -1.200000000000 109.102722633306 22.829295669162 7.713120769183
4554 2 -1.200000000000 106.876136457116 21.254861485081 7.713120769183
4555 2 -1.200000000000 107.989429545211 24.403729853242 5.784840576887
4556 2 -1.200000000000 105.762843369021 22.829295669162 5.784840576887
4557 2 -1.200000000000 107.989429545211 24.403729853242 9.641400961479
4558 2 -1.200000000000 105.762843369021 22.829295669162 9.641400961479
4559 2 -1.200000000000 106.876136457116 25.978164037322 7.713120769183
4560 2 -1.200000000000 104.649550280926 24.403729853242 7.713120769183
4561 1 2.400000000000 106.876136457116 18.893210208961 7.713120769183
4562 1 2.400000000000 103.536257192831 18.893210208961 5.784840576887
4563 1 2.400000000000 103.536257192831 18.893210208961 9.641400961479
4564 1 2.400000000000 104.649550280926 22.042078577122 7.713120769183
4565 2 -1.200000000000 104.649550280926 19.680427301001 7.713120769183
4566 2 -1.200000000000 102.422964104736 18.105993116921 7.713120769183
4567 2 -1.200000000000 103.536257192831 21.254861485081 5.784840576887
4568 2 -1.200000000000 101.309671016641 19.680427301001 5.784840576887
4569 2 -1.200000000000 103.536257192831 21.254861485081 9.641400961479
4570 2 -1.200000000000 101.309671016641 19.680427301001 9.641400961479
4571 2 -1.200000000000 102.422964104736 22.829295669162 7.713120769183
4572 2 -1.200000000000 100.196377928546 21.254861485081 7.713120769183
4573 1 2.400000000000 102.422964104736 15.744341840801 7.713120769183
4574 1 2.400000000000 99.083084840451 15.744341840801 5.784840576887
4575 1 2.400000000000 99.083084840451 15.744341840801 9.641400961479
4576 1 2.400000000000 100.196377928546 18.893210208961 7.713120769183
4577 2 -1.200000000000 100.196377928546 16.531558932841 7.713120769183
4578 2 -1.200000000000 97.969791752356 14.957124748761 7.713120769183
4579 2 -1.200000000000 99.083084840451 18.105993116921 5.784840576887
4580 2 -1.200000000000 96.856498664261 16.531558932841 5.784840576887
4581 2 -1.200000000000 99.083084840451 18.105993116921 9.641400961479
4582 2 -1.200000000000 96.856498664261 16.531558932841 9.641400961479
4583 2 -1.200000000000 97.969791752356 19.680427301001 7.713120769183
4584 2 -1.200000000000 95.743205576166 18.105993116921 7.713120769183
4585 1 2.400000000000 97.969791752356 12.595473472641 7.713120769183
4586 1 2.400000000000 94.629912488071 12.595473472641 5.784840576887
4587 1 2.400000000000 94.629912488071 12.595473472641 9.641400961479
4588 1 2.400000000000 95.743205576166 15.744341840801 7.713120769183
4589 2 -1.200000000000 95.743205576166 13.382690564681 7.713120769183
4590 2 -1.200000000000 93.516619399976 11.808256380601 7.713120769183
4591 2 -1.200000000000 94.629912488071 14.957124748761 5.784840576887
4592 2 -1.200000000000 92.403326311881 13.382690564681 5.784840576887
4593 2 -1.200000000000 94.629912488071 14.957124748761 9.641400961479
4594 2 -1.200000000000 92.403326311881 13.382690564681 9.641400961479
4595 2 -1.200000000000 93.516619399976 16.531558932841 7.713120769183
4596 2 -1.200000000000 91.290033223786 14.957124748761 7.713120769183
4597 1 2.400000000000 93.516619399976 9.446605104481 7.713120769183
4598 1 2.400000000000 90.176740135691 9.446605104481 5.784840576887
4599 1 2.400000000000 90.176740135691 9.446605104481 9.641400961479
4600 1 2.400000000000 91.290033223786 12.595473472641 7.713120769183
4601 2 -1.200000000000 91.290033223786 10.233822196521 7.713120769183
4602 2 -1.200000000000 89.063447047596 8.659388012441 7.713120769183
4603 2 -1.200000000000 90.176740135691 11.808256380601 5.784840576887
4604 2 -1.200000000000 87.950153959501 10.233822196521 5.784840576887
4605 2 -1.200000000000 90.176740135691 11.808256380601 9.641400961479
4606 2 -1.200000000000 87.950153959501 10.233822196521 9.641400961479
4607 2 -1.200000000000 89.063447047596 13.382690564681 7.713120769183
4608 2 -1.200000000000 86.836860871406 11.808256380601 7.713120769183
4609 1 2.400000000000 89.063447047596 6.297736736320 7.713120769183
4610 1 2.400000000000 85.723567783311 6.297736736320 5.784840576887
4611 1 2.400000000000 85.723567783311 6.297736736320 9.641400961479
4612 1 2.400000000000 86.836860871406 9.446605104481 7.713120769183
4613 2 -1.200000000000 86.836860871406 7.084953828360 7.713120769183
4614 2 -1.200000000000 84.610274695217 5.510519644280 7.713120769183
4615 2 -1.200000000000 85.723567783311 8.659388012441 5.784840576887
4616 2 -1.200000000000 83.496981607122 7.084953828360 5.784840576887
4617 2 -1.200000000000 85.723567783311 8.659388012441 9.641400961479
4618 2 -1.200000000000 83.496981607122 7.084953828360 9.641400961479
4619 2 -1.200000000000 84.610274695217 10.233822196521 7.713120769183
4620 2 -1.200000000000 82.383688519027 8.659388012441 7.713120769183
4621 1 2.400000000000 84.610274695217 3.148868368160 7.713120769183
4622 1 2.400000000000 81.270395430932 3.148868368160 5.784840576887
4623 1 2.400000000000 81.270395430932 3.148868368160 9.641400961479
4624 1 2.400000000000 82.383688519027 6.297736736320 7.713120769183
4625 2 -1.200000000000 82.383688519027 3.936085460200 7.713120769183
4626 2 -1.200000000000 80.157102342837 2.361651276120 7.713120769183
4627 2 -1.200000000000 81.270395430932 5.510519644280 5.784840576887
4628 2 -1.200000000000 79.043809254742 3.936085460200 5.784840576887
4629 2 -1.200000000000 81.270395430932 5.510519644280 9.641400961479
4630 2 -1.200000000000 79.043809254742 3.936085460200 9.641400961479
4631 2 -1.200000000000 80.157102342837 7.084953828360 7.713120769183
4632 2 -1.200000000000 77.930516166647 5.510519644280 7.713120769183
4633 1 2.400000000000 80.157102342837 0.000000000000 7.713120769183
4634 1 2.400000000000 76.817223078552 0.000000000000 5.784840576887
4635 1 2.400000000000 76.817223078552 0.000000000000 9.641400961479
4636 1 2.400000000000 77.930516166647 3.148868368160 7.713120769183
4637 2 -1.200000000000 77.930516166647 0.787217092040 7.713120769183
4638 2 -1.200000000000 75.703929990457 27.552598221402 7.713120769183
4639 2 -1.200000000000 76.817223078552 2.361651276120 5.784840576887
4640 2 -1.200000000000 74.590636902362 0.787217092040 5.784840576887
4641 2 -1.200000000000 76.817223078552 2.361651276120 9.641400961479
4642 2 -1.200000000000 74.590636902362 0.787217092040 9.641400961479
4643 2 -1.200000000000 75.703929990457 3.936085460200 7.713120769183
4644 2 -1.200000000000 73.477343814267 2.361651276120 7.713120769183
4645 1 2.400000000000 109.102722633306 25.190946945282 3.856560384591
4646 1 2.400000000000 105.762843369021 25.190946945282 1.928280192296
4647 1 2.400000000000 105.762843369021 25.190946945282 5.784840576887
4648 1 2.400000000000 106.876136457116 0.000000000000 3.856560384591
4649 2 -1.200000000000 106.876136457116 25.978164037322 3.856560384591
4650 2 -1.200000000000 104.649550280926 24.403729853242 3.856560384591
4651 2 -1.200000000000 105.762843369021 27.552598221402 1.928280192296
4652 2 -1.200000000000 103.536257192831 25.978164037322 1.928280192296
4653 2 -1.200000000000 105.762843369021 27.552598221402 5.784840576887
4654 2 -1.200000000000 103.536257192831 25.978164037322 5.784840576887
4655 2 -1.200000000000 104.649550280926 0.787217092040 3.856560384591
4656 2 -1.200000000000 102.422964104736 27.552598221402 3.856560384591
4657 1 2.400000000000 104.649550280926 22.042078577122 3.856560384591
4658 1 2.400000000000 101.309671016641 22.042078577122 1.928280192296
4659 1 2.400000000000 101.309671016641 22.042078577122 5.784840576887
4660 1 2.400000000000 102.422964104736 25.190946945282 3.856560384591
4661 2 -1.200000000000 102.422964104736 22.829295669162 3.856560384591
4662 2 -1.200000000000 100.196377928546 21.254861485081 3.856560384591
4663 2 -1.200000000000 101.309671016641 24.403729853242 1.928280192296
4664 2 -1.200000000000 99.083084840451 22.829295669162 1.928280192296
4665 2 -1.200000000000 101.309671016641 24.403729853242 5.784840576887
4666 2 -1.200000000000 99.083084840451 22.829295669162 5.784840576887
4667 2 -1.200000000000 100.196377928546 25.978164037322 3.856560384591
4668 2 -1.200000000000 97.969791752356 24.403729853242 3.856560384591
4669 1 2.400000000000 100.196377928546 18.893210208961 3.856560384591
4670 1 2.400000000000 96.856498664261 18.893210208961 1.928280192296
4671 1 2.400000000000 96.856498664261 18.893210208961 5.784840576887
4672 1 2.400000000000 97.969791752356 22.042078577122 3.856560384591
4673 2 -1.200000000000 97.969791752356 19.680427301001 3.856560384591
4674 2 -1.200000000000 95.743205576166 18.105993116921 3.856560384591
4675 2 -1.200000000000 96.856498664261 21.254861485081 1.928280192296
4676 2 -1.200000000000 94.629912488071 19.680427301001 1.928280192296
4677 2 -1.200000000000 96.856498664261 21.254861485081 5.784840576887
4678 2 -1.200000000000 94.629912488071 19.680427301001 5.784840576887
4679 2 -1.200000000000 95.743205576166 22.829295669162 3.856560384591
4680 2 -1.200000000000 93.516619399976 21.254861485081 3.856560384591
4681 1 2.400000000000 95.743205576166 15.744341840801 3.856560384591
4682 1 2.400000000000 92.403326311881 15.744341840801 1.928280192296
4683 1 2.400000000000 92.403326311881 15.744341840801 5.784840576887
4684 1 2.400000000000 93.516619399976 18.893210208961 3.856560384591
4685 2 -1.200000000000 93.516619399976 16.531558932841 3.856560384591
4686 2 -1.200000000000 91.290033223786 14.957124748761 3.856560384591
4687 2 -1.200000000000 92.403326311881 18.105993116921 1.928280192296
4688 2 -1.200000000000 90.176740135691 16.531558932841 1.928280192296
4689 2 -1.200000000000 92.403326311881 18.105993116921 5.784840576887
4690 2 -1.200000000000 90.176740135691 16.531558932841 5.784840576887
4691 2 -1.200000000000 91.290033223786 19.680427301001 3.856560384591
4692 2 -1.200000000000 89.063447047596 18.105993116921 3.856560384591
4693 1 2.400000000000 91.290033223786 12.595473472641 3.856560384591
4694 1 2.400000000000 87.950153959501 12.595473472641 1.928280192296
4695 1 2.400000000000 87.950153959501 12.595473472641 5.784840576887
4696 1 2.400000000000 89.063447047596 15.744341840801 3.856560384591
4697 2 -1.200000000000 89.063447047596 13.382690564681 3.856560384591
4698 2 -1.200000000000 86.836860871406 11.808256380601 3.856560384591
4699 2 -1.200000000000 87.950153959501 14.957124748761 1.928280192296
4700 2 -1.200000000000 85.723567783311 13.382690564681 1.928280192296
4701 2 -1.200000000000 87.950153959501 14.957124748761 5.784840576887
4702 2 -1.200000000000 85.723567783311 13.382690564681 5.784840576887
4703 2 -1.200000000000 86.836860871406 16.531558932841 3.856560384591
4704 2 -1.200000000000 84.610274695217 14.957124748761 3.856560384591
4705 1 2.400000000000 86.836860871406 9.446605104481 3.856560384591
4706 1 2.400000000000 83.496981607122 9.446605104481 1.928280192296
4707 1 2.400000000000 83.496981607122 9.446605104481 5.784840576887
4708 1 2.400000000000 84.610274695217 12.595473472641 3.856560384591
4709 2 -1.200000000000 84.610274695217 10.233822196521 3.856560384591
4710 2 -1.200000000000 82.383688519027 8.659388012441 3.856560384591
4711 2 -1.200000000000 83.496981607122 11.808256380601 1.928280192296
4712 2 -1.200000000000 81.270395430932 10.233822196521 1.928280192296
4713 2 -1.200000000000 83.496981607122 11.808256380601 5.784840576887
4714 2 -1.200000000000 81.270395430932 10.233822196521 5.784840576887
4715 2 -1.200000000000 82.383688519027 13.382690564681 3.856560384591
4716 2 -1.200000000000 80.157102342837 11.808256380601 3.856560384591
4717 1 2.400000000000 82.383688519027 6.297736736320 3.856560384591
4718 1 2.400000000000 79.043809254742 6.297736736320 1.928280192296
4719 1 2.400000000000 79.043809254742 6.297736736320 5.784840576887
4720 1 2.400000000000 80.157102342837 9.446605104481 3.856560384591
4721 2 -1.200000000000 80.157102342837 7.084953828360 3.856560384591
4722 2 -1.200000000000 77.930516166647 5.510519644280 3.856560384591
4723 2 -1.200000000000 79.043809254742 8.659388012441 1.928280192296
4724 2 -1.200000000000 76.817223078552 7.084953828360 1.928280192296
4725 2 -1.200000000000 79.043809254742 8.659388012441 5.784840576887
4726 2 -1.200000000000 76.817223078552 7.084953828360 5.784840576887
4727 2 -1.200000000000 77.930516166647 10.233822196521 3.856560384591
4728 2 -1.200000000000 75.703929990457 8.659388012441 3.856560384591
4729 1 2.400000000000 77.930516166647 3.148868368160 3.856560384591
4730 1 2.400000000000 74.590636902362 3.148868368160 1.928280192296
4731 1 2.400000000000 74.590636902362 3.148868368160 5.784840576887
4732 1 2.400000000000 75.703929990457 6.297736736320 3.856560384591
4733 2 -1.200000000000 75.703929990457 3.936085460200 3.856560384591
4734 2 -1.200000000000 73.477343814267 2.361651276120 3.856560384591
4735 2 -1.200000000000 74.590636902362 5.510519644280 1.928280192296
4736 2 -1.200000000000 72.364050726172 3.936085460200 1.928280192296
4737 2 -1.200000000000 74.590636902362 5.510519644280 5.784840576887
4738 2 -1.200000000000 72.364050726172 3.936085460200 5.784840576887
4739 2 -1.200000000000 73.477343814267 7.084953828360 3.856560384591
4740 2 -1.200000000000 71.250757638077 5.510519644280 3.856560384591
4741 1 2.400000000000 73.477343814267 0.000000000000 3.856560384591
4742 1 2.400000000000 70.137464549982 0.000000000000 1.928280192296
4743 1 2.400000000000 70.137464549982 0.000000000000 5.784840576887
4744 1 2.400000000000 71.250757638077 3.148868368160 3.856560384591
4745 2 -1.200000000000 71.250757638077 0.787217092040 3.856560384591
4746 2 -1.200000000000 69.024171461887 27.552598221402 3.856560384591
4747 2 -1.200000000000 70.137464549982 2.361651276120 1.928280192296
4748 2 -1.200000000000 67.910878373792 0.787217092040 1.928280192296
4749 2 -1.200000000000 70.137464549982 2.361651276120 5.784840576887
4750 2 -1.200000000000 67.910878373792 0.787217092040 5.784840576887
4751 2 -1.200000000000 69.024171461887 3.936085460200 3.856560384591
4752 2 -1.200000000000 66.797585285697 2.361651276120 3.856560384591
4753 1 2.400000000000 102.422964104736 25.190946945282 0.000000000000
4754 1 2.400000000000 99.083084840451 25.190946945282 21.211082115253
4755 1 2.400000000000 99.083084840451 25.190946945282 1.928280192296
4756 1 2.400000000000 100.196377928546 0.000000000000 0.000000000000
4757 2 -1.200000000000 100.196377928546 25.978164037322 0.000000000000
4758 2 -1.200000000000 97.969791752356 24.403729853242 0.000000000000
4759 2 -1.200000000000 99.083084840451 27.552598221402 21.211082115253
4760 2 -1.200000000000 96.856498664261 25.978164037322 21.211082115253
4761 2 -1.200000000000 99.083084840451 27.552598221402 1.928280192296
4762 2 -1.200000000000 96.856498664261 25.978164037322 1.928280192296
4763 2 -1.200000000000 97.969791752356 0.787217092040 0.000000000000
4764 2 -1.200000000000 95.743205576166 27.552598221402 0.000000000000
4765 1 2.400000000000 97.969791752356 22.042078577122 0.000000000000
4766 1 2.400000000000 94.629912488071 22.042078577122 21.211082115253
4767 1 2.400000000000 94.629912488071 22.042078577122 1.928280192296
4768 1 2.400000000000 95.743205576166 25.190946945282 0.000000000000
4769 2 -1.200000000000 95.743205576166 22.829295669162 0.000000000000
4770 2 -1.200000000000 93.516619399976 21.254861485081 0.000000000000
4771 2 -1.200000000000 94.629912488071 24.403729853242 21.211082115253
4772 2 -1.200000000000 92.403326311881 22.829295669162 21.211082115253
4773 2 -1.200000000000 94.629912488071 24.403729853242 1.928280192296
4774 2 -1.200000000000 92.403326311881 22.829295669162 1.928280192296
4775 2 -1.200000000000 93.516619399976 25.978164037322 0.000000000000
4776 2 -1.200000000000 91.290033223786 24.403729853242 0.000000000000
4777 1 2.400000000000 93.516619399976 18.893210208961 0.000000000000
4778 1 2.400000000000 90.176740135691 18.893210208961 21.211082115253
4779 1 2.400000000000 90.176740135691 18.893210208961 1.928280192296
4780 1 2.400000000000 91.290033223786 22.042078577122 0.000000000000
4781 2 -1.200000000000 91.290033223786 19.680427301001 0.000000000000
4782 2 -1.200000000000 89.063447047596 18.105993116921 0.000000000000
4783 2 -1.200000000000 90.176740135691 21.254861485081 21.211082115253
4784 2 -1.200000000000 87.950153959501 19.680427301001 21.211082115253
4785 2 -1.200000000000 90.176740135691 21.254861485081 1.928280192296
4786 2 -1.200000000000 87.950153959501 19.680427301001 1.928280192296
4787 2 -1.200000000000 89.063447047596 22.829295669162 0.000000000000
4788 2 -1.200000000000 86.836860871406 21.254861485081 0.000000000000
4789 1 2.400000000000 89.063447047596 15.744341840801 0.000000000000
4790 1 2.400000000000 85.723567783311 15.744341840801 21.211082115253
4791 1 2.400000000000 85.723567783311 15.744341840801 1.928280192296
4792 1 2.400000000000 86.836860871406 18.893210208961 0.000000000000
4793 2 -1.200000000000 86.836860871406 16.531558932841 0.000000000000
4794 2 -1.200000000000 84.610274695217 14.957124748761 0.000000000000
4795 2 -1.200000000000 85.723567783311 18.105993116921 21.211082115253
4796 2 -1.200000000000 83.496981607122 16.531558932841 21.211082115253
4797 2 -1.200000000000 85.723567783311 18.105993116921 1.928280192296
4798 2 -1.200000000000 83.496981607122 16.531558932841 1.928280192296
4799 2 -1.200000000000 84.610274695217 19.680427301001 0.000000000000
4800 2 -1.200000000000 82.383688519027 18.105993116921 0.000000000000
4801 1 2.400000000000 84.610274695217 12.595473472641 0.000000000000
4802 1 2.400000000000 81.270395430932 12.595473472641 21.211082115253
4803 1 2.400000000000 81.270395430932 12.595473472641 1.928280192296
4804 1 2.400000000000 82.383688519027 15.744341840801 0.000000000000
4805 2 -1.200000000000 82.383688519027 13.382690564681 0.000000000000
4806 2 -1.200000000000 80.157102342837 11.808256380601 0.000000000000
4807 2 -1.200000000000 81.270395430932 14.957124748761 21.211082115253
4808 2 -1.200000000000 79.043809254742 13.382690564681 21.211082115253
4809 2 -1.200000000000 81.270395430932 14.957124748761 1.928280192296
4810 2 -1.200000000000 79.043809254742 13.382690564681 1.928280192296
4811 2 -1.200000000000 80.157102342837 16.531558932841 0.000000000000
4812 2 -1.200000000000 77.930516166647 14.957124748761 0.000000000000
4813 1 2.400000000000 80.157102342837 9.446605104481 0.000000000000
4814 1 2.400000000000 76.817223078552 9.446605104481 21.211082115253
4815 1 2.400000000000 76.817223078552 9.446605104481 1.928280192296
4816 1 2.400000000000 77.930516166647 12.595473472641 0.000000000000
4817 2 -1.200000000000 77.930516166647 10.233822196521 0.000000000000
4818 2 -1.200000000000 75.703929990457 8.659388012441 0.000000000000
4819 2 -1.200000000000 76.817223078552 11.808256380601 21.211082115253
4820 2 -1.200000000000 74.590636902362 10.233822196521 21.211082115253
4821 2 -1.200000000000 76.817223078552 11.808256380601 1.928280192296
4822 2 -1.200000000000 74.590636902362 10.233822196521 1.928280192296
4823 2 -1.200000000000 75.703929990457 13.382690564681 0.000000000000
4824 2 -1.200000000000 73.477343814267 11.808256380601 0.000000000000
4825 1 2.400000000000 75.703929990457 6.297736736320 0.000000000000
4826 1 2.400000000000 72.364050726172 6.297736736320 21.211082115253
4827 1 2.400000000000 72.364050726172 6.297736736320 1.928280192296
4828 1 2.400000000000 73.477343814267 9.446605104481 0.000000000000
4829 2 -1.200000000000 73.477343814267 7.084953828360 0.000000000000
4830 2 -1.200000000000 71.250757638077 5.510519644280 0.000000000000
4831 2 -1.200000000000 72.364050726172 8.659388012441 21.211082115253
4832 2 -1.200000000000 70.137464549982 7.084953828360 21.211082115253
4833 2 -1.200000000000 72.364050726172 8.659388012441 1.928280192296
4834 2 -1.200000000000 70.137464549982 7.084953828360 1.928280192296
4835 2 -1.200000000000 71.250757638077 10.233822196521 0.000000000000
4836 2 -1.200000000000 69.024171461887 8.659388012441 0.000000000000
4837 1 2.400000000000 122.462239690445 25.190946945282 19.282801922957
4838 1 2.400000000000 119.122360426160 25.190946945282 17.354521730661
4839 1 2.400000000000 119.122360426160 25.190946945282 21.211082115253
4840 1 2.400000000000 120.235653514255 0.000000000000 19.282801922957
4841 2 -1.200000000000 120.235653514255 25.978164037322 19.282801922957
4842 2 -1.200000000000 118.009067338065 24.403729853242 19.282801922957
4843 2 -1.200000000000 119.122360426160 27.552598221402 17.354521730661
4844 2 -1.200000000000 116.895774249970 25.978164037322 17.354521730661
4845 2 -1.200000000000 119.122360426160 27.552598221402 21.211082115253
4846 2 -1.200000000000 116.895774249970 25.978164037322 21.211082115253
4847 2 -1.200000000000 118.009067338065 0.787217092040 19.282801922957
4848 2 -1.200000000000 115.782481161875 27.552598221402 19.282801922957
4849 1 2.400000000000 118.009067338065 22.042078577122 19.282801922957
4850 1 2.400000000000 114.669188073780 22.042078577122 17.354521730661
4851 1 2.400000000000 114.669188073780 22.042078577122 21.211082115253
4852 1 2.400000000000 115.782481161875 25.190946945282 19.282801922957
4853 2 -1.200000000000 115.782481161875 22.829295669162 19.282801922957
4854 2 -1.200000000000 113.555894985685 21.254861485081 19.282801922957
4855 2 -1.200000000000 114.669188073780 24.403729853242 17.354521730661
4856 2 -1.200000000000 112.442601897590 22.829295669162 17.354521730661
4857 2 -1.200000000000 114.669188073780 24.403729853242 21.211082115253
4858 2 -1.200000000000 112.442601897590 22.829295669162 21.211082115253
4859 2 -1.200000000000 113.555894985685 25.978164037322 19.282801922957
4860 2 -1.200000000000 111.329308809495 24.403729853242 19.282801922957
4861 1 2.400000000000 113.555894985685 18.893210208961 19.282801922957
4862 1 2.400000000000 110.216015721400 18.893210208961 17.354521730661
4863 1 2.400000000000 110.216015721400 18.893210208961 21.211082115253
4864 1 2.400000000000 111.329308809495 22.042078577122 19.282801922957
4865 2 -1.200000000000 111.329308809495 19.680427301001 19.282801922957
4866 2 -1.200000000000 109.102722633306 18.105993116921 19.282801922957
4867 2 -1.200000000000 110.216015721400 21.254861485081 17.354521730661
4868 2 -1.200000000000 107.989429545211 19.680427301001 17.354521730661
4869 2 -1.200000000000 110.216015721400 21.254861485081 21.211082115253
4870 2 -1.200000000000 107.989429545211 19.680427301001 21.211082115253
4871 2 -1.200000000000 109.102722633306 22.829295669162 19.282801922957
4872 2 -1.200000000000 106.876136457116 21.254861485081 19.282801922957
4873 1 2.400000000000 109.102722633306 15.744341840801 19.282801922957
4874 1 2.400000000000 105.762843369021 15.744341840801 17.354521730661
4875 1 2.400000000000 105.762843369021 15.744341840801 21.211082115253
4876 1 2.400000000000 106.876136457116 18.893210208961 19.282801922957
4877 2 -1.200000000000 106.876136457116 16.531558932841 19.282801922957
4878 2 -1.200000000000 104.649550280926 14.957124748761 19.282801922957
4879 2 -1.200000000000 105.762843369021 18.105993116921 17.354521730661
4880 2 -1.200000000000 103.536257192831 16.531558932841 17.354521730661
4881 2 -1.200000000000 105.762843369021 18.105993116921 21.211082115253
4882 2 -1.200000000000 103.536257192831 16.531558932841 21.211082115253
4883 2 -1.200000000000 104.649550280926 19.680427301001 19.282801922957
4884 2 -1.200000000000 102.422964104736 18.105993116921 19.282801922957
4885 1 2.400000000000 104.649550280926 12.595473472641 19.282801922957
4886 1 2.400000000000 101.309671016641 12.595473472641 17.354521730661
4887 1 2.400000000000 101.309671016641 12.595473472641 21.211082115253
4888 1 2.400000000000 102.422964104736 15.744341840801 19.282801922957
4889 2 -1.200000000000 102.422964104736 13.382690564681 19.282801922957
4890 2 -1.200000000000 100.196377928546 11.808256380601 19.282801922957
4891 2 -1.200000000000 101.309671016641 14.957124748761 17.354521730661
4892 2 -1.200000000000 99.083084840451 13.382690564681 17.354521730661
4893 2 -1.200000000000 101.309671016641 14.957124748761 21.211082115253
4894 2 -1.200000000000 99.083084840451 13.382690564681 21.211082115253
4895 2 -1.200000000000 100.196377928546 16.531558932841 19.282801922957
4896 2 -1.200000000000 97.969791752356 14.957124748761 19.282801922957
4897 1 2.400000000000 100.196377928546 9.446605104481 19.282801922957
4898 1 2.400000000000 96.856498664261 9.446605104481 17.354521730661
4899 1 2.400000000000 96.856498664261 9.446605104481 21.211082115253
4900 1 2.400000000000 97.969791752356 12.595473472641 19.282801922957
4901 2 -1.200000000000 97.969791752356 10.233822196521 19.282801922957
4902 2 -1.200000000000 95.743205576166 8.659388012441 19.282801922957
4903 2 -1.200000000000 96.856498664261 11.808256380601 17.354521730661
4904 2 -1.200000000000 94.629912488071 10.233822196521 17.354521730661
4905 2 -1.200000000000 96.856498664261 11.808256380601 21.211082115253
4906 2 -1.200000000000 94.629912488071 10.233822196521 21.211082115253
4907 2 -1.200000000000 95.743205576166 13.382690564681 19.282801922957
4908 2 -1.200000000000 93.516619399976 11.808256380601 19.282801922957
4909 1 2.400000000000 95.743205576166 6.297736736320 19.282801922957
4910 1 2.400000000000 92.403326311881 6.297736736320 17.354521730661
4911 1 2.400000000000 92.403326311881 6.297736736320 21.211082115253
4912 1 2.400000000000 93.516619399976 9.446605104481 19.282801922957
4913 2 -1.200000000000 93.516619399976 7.084953828360 19.282801922957
4914 2 -1.200000000000 91.290033223786 5.510519644280 19.282801922957
4915 2 -1.200000000000 92.403326311881 8.659388012441 17.354521730661
4916 2 -1.200000000000 90.176740135691 7.084953828360 17.354521730661
4917 2 -1.200000000000 92.403326311881 8.659388012441 21.211082115253
4918 2 -1.200000000000 90.176740135691 7.084953828360 21.211082115253
4919 2 -1.200000000000 91.290033223786 10.233822196521 19.282801922957
4920 2 -1.200000000000 89.063447047596 8.659388012441 19.282801922957
4921 1 2.400000000000 91.290033223786 3.148868368160 19.282801922957
4922 1 2.400000000000 87.950153959501 3.148868368160 17.354521730661
4923 1 2.400000000000 87.950153959501 3.148868368160 21.211082115253
4924 1 2.400000000000 89.063447047596 6.297736736320 19.282801922957
4925 2 -1.200000000000 89.063447047596 3.936085460200 19.282801922957
4926 2 -1.200000000000 86.836860871406 2.361651276120 19.282801922957
4927 2 -1.200000000000 87.950153959501 5.510519644280 17.354521730661
4928 2 -1.200000000000 85.723567783311 3.936085460200 17.354521730661
4929 2 -1.200000000000 87.950153959501 5.510519644280 21.211082115253
4930 2 -1.200000000000 85.723567783311 3.936085460200 21.211082115253
4931 2 -1.200000000000 86.836860871406 7.084953828360 19.282801922957
4932 2 -1.200000000000 84.610274695217 5.510519644280 19.282801922957
4933 1 2.400000000000 86.836860871406 0.000000000000 19.282801922957
4934 1 2.400000000000 83.496981607122 0.000000000000 17.354521730661
4935 1 2.400000000000 83.496981607122 0.000000000000 21.211082115253
4936 1 2.400000000000 84.610274695217 3.148868368160 19.282801922957
4937 2 -1.200000000000 84.610274695217 0.787217092040 19.282801922957
4938 2 -1.200000000000 82.383688519027 27.552598221402 19.282801922957
4939 2 -1.200000000000 83.496981607122 2.361651276120 17.354521730661
4940 2 -1.200000000000 81.270395430932 0.787217092040 17.354521730661
4941 2 -1.200000000000 83.496981607122 2.361651276120 21.211082115253
4942 2 -1.200000000000 81.270395430932 0.787217092040 21.211082115253
4943 2 -1.200000000000 82.383688519027 3.936085460200 19.282801922957
4944 2 -1.200000000000 80.157102342837 2.361651276120 19.282801922957
4945 1 2.400000000000 115.782481161875 25.190946945282 15.426241538366
4946 1 2.400000000000 112.442601897590 25.190946945282 13.497961346070
4947 1 2.400000000000 112.442601897590 25.190946945282 17.354521730661
4948 1 2.400000000000 113.555894985685 0.000000000000 15.426241538366
4949 2 -1.200000000000 113.555894985685 25.978164037322 15.426241538366
4950 2 -1.200000000000 111.329308809495 24.403729853242 15.426241538366
4951 2 -1.200000000000 112.442601897590 27.552598221402 13.497961346070
4952 2 -1.200000000000 110.216015721400 25.978164037322 13.497961346070
4953 2 -1.200000000000 112.442601897590 27.552598221402 17.354521730661
4954 2 -1.200000000000 110.216015721400 25.978164037322 17.354521730661
4955 2 -1.200000000000 111.329308809495 0.787217092040 15.426241538366
4956 2 -1.200000000000 109.102722633306 27.552598221402 15.426241538366
4957 1 2.400000000000 111.329308809495 22.042078577122 15.426241538366
4958 1 2.400000000000 107.989429545211 22.042078577122 13.497961346070
4959 1 2.400000000000 107.989429545211 22.042078577122 17.354521730661
4960 1 2.400000000000 109.102722633306 25.190946945282 15.426241538366
4961 2 -1.200000000000 109.102722633306 22.829295669162 15.426241538366
4962 2 -1.200000000000 106.876136457116 21.254861485081 15.426241538366
4963 2 -1.200000000000 107.989429545211 24.403729853242 13.497961346070
4964 2 -1.200000000000 105.762843369021 22.829295669162 13.497961346070
4965 2 -1.200000000000 107.989429545211 24.403729853242 17.354521730661
4966 2 -1.200000000000 105.762843369021 22.829295669162 17.354521730661
4967 2 -1.200000000000 106.876136457116 25.978164037322 15.426241538366
4968 2 -1.200000000000 104.649550280926 24.403729853242 15.426241538366
4969 1 2.400000000000 106.876136457116 18.893210208961 15.426241538366
4970 1 2.400000000000 103.536257192831 18.893210208961 13.497961346070
4971 1 2.400000000000 103.536257192831 18.893210208961 17.354521730661
4972 1 2.400000000000 104.649550280926 22.042078577122 15.426241538366
4973 2 -1.200000000000 104.649550280926 19.680427301001 15.426241538366
4974 2 -1.200000000000 102.422964104736 18.105993116921 15.426241538366
4975 2 -1.200000000000 103.536257192831 21.254861485081 13.497961346070
4976 2 -1.200000000000 101.309671016641 19.680427301001 13.497961346070
4977 2 -1.200000000000 103.536257192831 21.254861485081 17.354521730661
4978 2 -1.200000000000 101.309671016641 19.680427301001 17.354521730661
4979 2 -1.200000000000 102.422964104736 22.829295669162 15.426241538366
4980 2 -1.200000000000 100.196377928546 21.254861485081 15.426241538366
4981 1 2.400000000000 102.422964104736 15.744341840801 15.426241538366
4982 1 2.400000000000 99.083084840451 15.744341840801 13.497961346070
4983 1 2.400000000000 99.083084840451 15.744341840801 17.354521730661
4984 1 2.400000000000 100.196377928546 18.893210208961 15.426241538366
4985 2 -1.200000000000 100.196377928546 16.531558932841 15.426241538366
4986 2 -1.200000000000 97.969791752356 14.957124748761 15.426241538366
4987 2 -1.200000000000 99.083084840451 18.105993116921 13.497961346070
4988 2 -1.200000000000 96.856498664261 16.531558932841 13.497961346070
4989 2 -1.200000000000 99.083084840451 18.105993116921 17.354521730661
4990 2 -1.200000000000 96.856498664261 16.531558932841 17.354521730661
4991 2 -1.200000000000 97.969791752356 19.680427301001 15.426241538366
4992 2 -1.200000000000 95.743205576166 18.105993116921 15.426241538366
4993 1 2.400000000000 97.969791752356 12.595473472641 15.426241538366
4994 1 2.400000000000 94.629912488071 12.595473472641 13.497961346070
4995 1 2.400000000000 94.629912488071 12.595473472641 17.354521730661
4996 1 2.400000000000 95.743205576166 15.744341840801 15.426241538366
4997 2 -1.200000000000 95.743205576166 13.382690564681 15.426241538366
4998 2 -1.200000000000 93.516619399976 11.808256380601 15.426241538366
4999 2 -1.200000000000 94.629912488071 14.957124748761 13.497961346070
5000 2 -1.200000000000 92.403326311881 13.382690564681 13.497961346070
5001 2 -1.200000000000 94.629912488071 14.957124748761 17.354521730661
5002 2 -1.200000000000 92.403326311881 13.382690564681 17.354521730661
5003 2 -1.200000000000 93.516619399976 16.531558932841 15.426241538366
5004 2 -1.200000000000 91.290033223786 14.957124748761 15.426241538366
5005 1 2.400000000000 93.516619399976 9.446605104481 15.426241538366
5006 1 2.400000000000 90.176740135691 9.446605104481 13.497961346070
5007 1 2.400000000000 90.176740135691 9.446605104481 17.354521730661
5008 1 2.400000000000 91.290033223786 12.595473472641 15.426241538366
5009 2 -1.200000000000 91.290033223786 10.233822196521 15.426241538366
5010 2 -1.200000000000 89.063447047596 8.659388012441 15.426241538366
5011 2 -1.200000000000 90.176740135691 11.808256380601 13.497961346070
5012 2 -1.200000000000 87.950153959501 10.233822196521 13.497961346070
5013 2 -1.200000000000 90.176740135691 11.808256380601 17.354521730661
5014 2 -1.200000000000 87.950153959501 10.233822196521 17.354521730661
5015 2 -1.200000000000 89.063447047596 13.382690564681 15.426241538366
5016 2 -1.200000000000 86.836860871406 11.808256380601 15.426241538366
5017 1 2.400000000000 89.063447047596 6.297736736320 15.426241538366
5018 1 2.400000000000 85.723567783311 6.297736736320 13.497961346070
5019 1 2.400000000000 85.723567783311 6.297736736320 17.354521730661
5020 1 2.400000000000 86.836860871406 9.446605104481 15.426241538366
5021 2 -1.200000000000 86.836860871406 7.084953828360 15.426241538366
5022 2 -1.200000000000 84.610274695217 5.510519644280 15.426241538366
5023 2 -1.200000000000 85.723567783311 8.659388012441 13.497961346070
5024 2 -1.200000000000 83.496981607122 7.084953828360 13.497961346070
5025 2 -1.200000000000 85.723567783311 8.659388012441 17.354521730661
5026 2 -1.200000000000 83.496981607122 7.084953828360 17.354521730661
5027 2 -1.200000000000 84.610274695217 10.233822196521 15.426241538366
5028 2 -1.200000000000 82.383688519027 8.659388012441 15.426241538366
5029 1 2.400000000000 84.610274695217 3.148868368160 15.426241538366
5030 1 2.400000000000 81.270395430932 3.148868368160 13.497961346070
5031 1 2.400000000000 81.270395430932 3.148868368160 17.354521730661
5032 1 2.400000000000 82.383688519027 6.297736736320 15.426241538366
5033 2 -1.200000000000 82.383688519027 3.936085460200 15.426241538366
5034 2 -1.200000000000 80.157102342837 2.361651276120 15.426241538366
5035 2 -1.200000000000 81.270395430932 5.510519644280 13.497961346070
5036 2 -1.200000000000 79.043809254742 3.936085460200 13.497961346070
5037 2 -1.200000000000 81.270395430932 5.510519644280 17.354521730661
5038 2 -1.200000000000 79.043809254742 3.936085460200 17.354521730661
5039 2 -1.200000000000 80.157102342837 7.084953828360 15.426241538366
5040 2 -1.200000000000 77.930516166647 5.510519644280 15.426241538366
5041 1 2.400000000000 80.157102342837 0.000000000000 15.426241538366
5042 1 2.400000000000 76.817223078552 0.000000000000 13.497961346070
5043 1 2.400000000000 76.817223078552 0.000000000000 17.354521730661
5044 1 2.400000000000 77.930516166647 3.148868368160 15.426241538366
5045 2 -1.200000000000 77.930516166647 0.787217092040 15.426241538366
5046 2 -1.200000000000 75.703929990457 27.552598221402 15.426241538366
5047 2 -1.200000000000 76.817223078552 2.361651276120 13.497961346070
5048 2 -1.200000000000 74.590636902362 0.787217092040 13.497961346070
5049 2 -1.200000000000 76.817223078552 2.361651276120 17.354521730661
5050 2 -1.200000000000 74.590636902362 0.787217092040 17.354521730661
5051 2 -1.200000000000 75.703929990457 3.936085460200 15.426241538366
5052 2 -1.200000000000 73.477343814267 2.361651276120 15.426241538366
5053 1 2.400000000000 109.102722633306 25.190946945282 11.569681153774
5054 1 2.400000000000 105.762843369021 25.190946945282 9.641400961479
5055 1 2.400000000000 105.762843369021 25.190946945282 13.497961346070
5056 1 2.400000000000 106.876136457116 0.000000000000 11.569681153774
5057 2 -1.200000000000 106.876136457116 25.978164037322 11.569681153774
5058 2 -1.200000000000 104.649550280926 24.403729853242 11.569681153774
5059 2 -1.200000000000 105.762843369021 27.552598221402 9.641400961479
5060 2 -1.200000000000 103.536257192831 25.978164037322 9.641400961479
5061 2 -1.200000000000 105.762843369021 27.552598221402 13.497961346070
5062 2 -1.200000000000 103.536257192831 25.978164037322 13.497961346070
5063 2 -1.200000000000 104.649550280926 0.787217092040 11.569681153774
5064 2 -1.200000000000 102.422964104736 27.552598221402 11.569681153774
5065 1 2.400000000000 104.649550280926 22.042078577122 11.569681153774
5066 1 2.400000000000 101.309671016641 22.042078577122 9.641400961479
5067 1 2.400000000000 101.309671016641 22.042078577122 13.497961346070
5068 1 2.400000000000 102.422964104736 25.190946945282 11.569681153774
5069 2 -1.200000000000 102.422964104736 22.829295669162 11.569681153774
5070 2 -1.200000000000 100.196377928546 21.254861485081 11.569681153774
5071 2 -1.200000000000 101.309671016641 24.403729853242 9.641400961479
5072 2 -1.200000000000 99.083084840451 22.829295669162 9.641400961479
5073 2 -1.200000000000 101.309671016641 24.403729853242 13.497961346070
5074 2 -1.200000000000 99.083084840451 22.829295669162 13.497961346070
5075 2 -1.200000000000 100.196377928546 25.978164037322 11.569681153774
5076 2 -1.200000000000 97.969791752356 24.403729853242 11.569681153774
5077 1 2.400000000000 100.196377928546 18.893210208961 11.569681153774
5078 1 2.400000000000 96.856498664261 18.893210208961 9.641400961479
5079 1 2.400000000000 96.856498664261 18.893210208961 13.497961346070
5080 1 2.400000000000 97.969791752356 22.042078577122 11.569681153774
5081 2 -1.200000000000 97.969791752356 19.680427301001 11.569681153774
5082 2 -1.200000000000 95.743205576166 18.105993116921 11.569681153774
5083 2 -1.200000000000 96.856498664261 21.254861485081 9.641400961479
5084 2 -1.200000000000 94.629912488071 19.680427301001 9.641400961479
5085 2 -1.200000000000 96.856498664261 21.254861485081 13.497961346070
5086 2 -1.200000000000 94.629912488071 19.680427301001 13.497961346070
5087 2 -1.200000000000 95.743205576166 22.829295669162 11.569681153774
5088 2 -1.200000000000 93.516619399976 21.254861485081 11.569681153774
5089 1 2.400000000000 95.743205576166 15.744341840801 11.569681153774
5090 1 2.400000000000 92.403326311881 15.744341840801 9.641400961479
5091 1 2.400000000000 92.403326311881 15.744341840801 13.497961346070
5092 1 2.400000000000 93.516619399976 18.893210208961 11.569681153774
5093 2 -1.200000000000 93.516619399976 16.531558932841 11.569681153774
5094 2 -1.200000000000 91.290033223786 14.957124748761 11.569681153774
5095 2 -1.200000000000 92.403326311881 18.105993116921 9.641400961479
5096 2 -1.200000000000 90.176740135691 16.531558932841 9.641400961479
5097 2 -1.200000000000 92.403326311881 18.105993116921 13.497961346070
5098 2 -1.200000000000 90.176740135691 16.531558932841 13.497961346070
5099 2 -1.200000000000 91.290033223786 19.680427301001 11.569681153774
5100 2 -1.200000000000 89.063447047596 18.105993116921 11.569681153774
5101 1 2.400000000000 91.290033223786 12.595473472641 11.569681153774
5102 1 2.400000000000 87.950153959501 12.595473472641 9.641400961479
5103 1 2.400000000000 87.950153959501 12.595473472641 13.497961346070
5104 1 2.400000000000 89.063447047596 15.744341840801 11.569681153774
5105 2 -1.200000000000 89.063447047596 13.382690564681 11.569681153774
5106 2 -1.200000000000 86.836860871406 11.808256380601 11.569681153774
5107 2 -1.200000000000 87.950153959501 14.957124748761 9.641400961479
5108 2 -1.200000000000 85.723567783311 13.382690564681 9.641400961479
5109 2 -1.200000000000 87.950153959501 14.957124748761 13.497961346070
5110 2 -1.200000000000 85.723567783311 13.382690564681 13.497961346070
5111 2 -1.200000000000 86.836860871406 16.531558932841 11.569681153774
5112 2 -1.200000000000 84.610274695217 14.957124748761 11.569681153774
5113 1 2.400000000000 86.836860871406 9.446605104481 11.569681153774
5114 1 2.400000000000 83.496981607122 9.446605104481 9.641400961479
5115 1 2.400000000000 83.496981607122 9.446605104481 13.497961346070
5116 1 2.400000000000 84.610274695217 12.595473472641 11.569681153774
5117 2 -1.200000000000 84.610274695217 10.233822196521 11.569681153774
5118 2 -1.200000000000 82.383688519027 8.659388012441 11.569681153774
5119 2 -1.200000000000 83.496981607122 11.808256380601 9.641400961479
5120 2 -1.200000000000 81.270395430932 10.233822196521 9.641400961479
5121 2 -1.200000000000 83.496981607122 11.808256380601 13.497961346070
5122 2 -1.200000000000 81.270395430932 10.233822196521 13.497961346070
5123 2 -1.200000000000 82.383688519027 13.382690564681 11.569681153774
5124 2 -1.200000000000 80.157102342837 11.808256380601 11.569681153774
5125 1 2.400000000000 82.383688519027 6.297736736320 11.569681153774
5126 1 2.400000000000 79.043809254742 6.297736736320 9.641400961479
5127 1 2.400000000000 79.043809254742 6.297736736320 13.497961346070
5128 1 2.400000000000 80.157102342837 9.446605104481 11.569681153774
5129 2 -1.200000000000 80.157102342837 7.084953828360 11.569681153774
5130 2 -1.200000000000 77.930516166647 5.510519644280 11.569681153774
5131 2 -1.200000000000 79.043809254742 8.659388012441 9.641400961479
5132 2 -1.200000000000 76.817223078552 7.084953828360 9.641400961479
5133 2 -1.200000000000 79.043809254742 8.659388012441 13.497961346070
5134 2 -1.200000000000 76.817223078552 7.084953828360 13.497961346070
5135 2 -1.200000000000 77.930516166647 10.233822196521 11.569681153774
5136 2 -1.200000000000 75.703929990457 8.659388012441 11.569681153774
5137 1 2.400000000000 77.930516166647 3.148868368160 11.569681153774
5138 1 2.400000000000 74.590636902362 3.148868368160 9.641400961479
5139 1 2.400000000000 74.590636902362 3.148868368160 13.497961346070
5140 1 2.400000000000 75.703929990457 6.297736736320 11.569681153774
5141 2 -1.200000000000 75.703929990457 3.936085460200 11.569681153774
5142 2 -1.200000000000 73.477343814267 2.361651276120 11.569681153774
5143 2 -1.200000000000 74.590636902362 5.510519644280 9.641400961479
5144 2 -1.200000000000 72.364050726172 3.936085460200 9.641400961479
5145 2 -1.200000000000 74.590636902362 5.510519644280 13.497961346070
5146 2 -1.200000000000 72.364050726172 3.936085460200 13.497961346070
5147 2 -1.200000000000 73.477343814267 7.084953828360 11.569681153774
5148 2 -1.200000000000 71.250757638077 5.510519644280 11.569681153774
5149 1 2.400000000000 73.477343814267 0.000000000000 11.569681153774
5150 1 2.400000000000 70.137464549982 0.000000000000 9.641400961479
5151 1 2.400000000000 70.137464549982 0.000000000000 13.497961346070
5152 1 2.400000000000 71.250757638077 3.148868368160 11.569681153774
5153 2 -1.200000000000 71.250757638077 0.787217092040 11.569681153774
5154 2 -1.200000000000 69.024171461887 27.552598221402 11.569681153774
5155 2 -1.200000000000 70.137464549982 2.361651276120 9.641400961479
5156 2 -1.200000000000 67.910878373792 0.787217092040 9.641400961479
5157 2 -1.200000000000 70.137464549982 2.361651276120 13.497961346070
5158 2 -1.200000000000 67.910878373792 0.787217092040 13.497961346070
5159 2 -1.200000000000 69.024171461887 3.936085460200 11.569681153774
5160 2 -1.200000000000 66.797585285697 2.361651276120 11.569681153774
5161 1 2.400000000000 102.422964104736 25.190946945282 7.713120769183
5162 1 2.400000000000 99.083084840451 25.190946945282 5.784840576887
5163 1 2.400000000000 99.083084840451 25.190946945282 9.641400961479
5164 1 2.400000000000 100.196377928546 0.000000000000 7.713120769183
5165 2 -1.200000000000 100.196377928546 25.978164037322 7.713120769183
5166 2 -1.200000000000 97.969791752356 24.403729853242 7.713120769183
5167 2 -1.200000000000 99.083084840451 27.552598221402 5.784840576887
5168 2 -1.200000000000 96.856498664261 25.978164037322 5.784840576887
5169 2 -1.200000000000 99.083084840451 27.552598221402 9.641400961479
5170 2 -1.200000000000 96.856498664261 25.978164037322 9.641400961479
5171 2 -1.200000000000 97.969791752356 0.787217092040 7.713120769183
5172 2 -1.200000000000 95.743205576166 27.552598221402 7.713120769183
5173 1 2.400000000000 97.969791752356 22.042078577122 7.713120769183
5174 1 2.400000000000 94.629912488071 22.042078577122 5.784840576887
5175 1 2.400000000000 94.629912488071 22.042078577122 9.641400961479
5176 1 2.400000000000 95.743205576166 25.190946945282 7.713120769183
5177 2 -1.200000000000 95.743205576166 22.829295669162 7.713120769183
5178 2 -1.200000000000 93.516619399976 21.254861485081 7.713120769183
5179 2 -1.200000000000 94.629912488071 24.403729853242 5.784840576887
5180 2 -1.200000000000 92.403326311881 22.829295669162 5.784840576887
5181 2 -1.200000000000 94.629912488071 24.403729853242 9.641400961479
5182 2 -1.200000000000 92.403326311881 22.829295669162 9.641400961479
5183 2 -1.200000000000 93.516619399976 25.978164037322 7.713120769183
5184 2 -1.200000000000 91.290033223786 24.403729853242 7.713120769183
5185 1 2.400000000000 93.516619399976 18.893210208961 7.713120769183
5186 1 2.400000000000 90.176740135691 18.893210208961 5.784840576887
5187 1 2.400000000000 90.176740135691 18.893210208961 9.641400961479
5188 1 2.400000000000 91.290033223786 22.042078577122 7.713120769183
5189 2 -1.200000000000 91.290033223786 19.680427301001 7.713120769183
5190 2 -1.200000000000 89.063447047596 18.105993116921 7.713120769183
5191 2 -1.200000000000 90.176740135691 21.254861485081 5.784840576887
5192 2 -1.200000000000 87.950153959501 19.680427301001 5.784840576887
5193 2 -1.200000000000 90.176740135691 21.254861485081 9.641400961479
5194 2 -1.200000000000 87.950153959501 19.680427301001 9.641400961479
5195 2 -1.200000000000 89.063447047596 22.829295669162 7.713120769183
5196 2 -1.200000000000 86.836860871406 21.254861485081 7.713120769183
5197 1 2.400000000000 89.063447047596 15.744341840801 7.713120769183
5198 1 2.400000000000 85.723567783311 15.744341840801 5.784840576887
5199 1 2.400000000000 85.723567783311 15.744341840801 9.641400961479
5200 1 2.400000000000 86.836860871406 18.893210208961 7.713120769183
5201 2 -1.200000000000 86.836860871406 16.531558932841 7.713120769183
5202 2 -1.200000000000 84.610274695217 14.957124748761 7.713120769183
5203 2 -1.200000000000 85.723567783311 18.105993116921 5.784840576887
5204 2 -1.200000000000 83.496981607122 16.531558932841 5.784840576887
5205 2 -1.200000000000 85.723567783311 18.105993116921 9.641400961479
5206 2 -1.200000000000 83.496981607122 16.531558932841 9.641400961479
5207 2 -1.200000000000 84.610274695217 19.680427301001 7.713120769183
5208 2 -1.200000000000 82.383688519027 18.105993116921 7.713120769183
5209 1 2.400000000000 84.610274695217 12.595473472641 7.713120769183
5210 1 2.400000000000 81.270395430932 12.595473472641 5.784840576887
5211 1 2.400000000000 81.270395430932 12.595473472641 9.641400961479
5212 1 2.400000000000 82.383688519027 15.744341840801 7.713120769183
5213 2 -1.200000000000 82.383688519027 13.382690564681 7.713120769183
5214 2 -1.200000000000 80.157102342837 11.808256380601 7.713120769183
5215 2 -1.200000000000 81.270395430932 14.957124748761 5.784840576887
5216 2 -1.200000000000 79.043809254742 13.382690564681 5.784840576887
5217 2 -1.200000000000 81.270395430932 14.957124748761 9.641400961479
5218 2 -1.200000000000 79.043809254742 13.382690564681 9.641400961479
5219 2 -1.200000000000 80.157102342837 16.531558932841 7.713120769183
5220 2 -1.200000000000 77.930516166647 14.957124748761 7.713120769183
5221 1 2.400000000000 80.157102342837 9.446605104481 7.713120769183
5222 1 2.400000000000 76.817223078552 9.446605104481 5.784840576887
5223 1 2.400000000000 76.817223078552 9.446605104481 9.641400961479
5224 1 2.400000000000 77.930516166647 12.595473472641 7.713120769183
5225 2 -1.200000000000 77.930516166647 10.233822196521 7.713120769183
5226 2 -1.200000000000 75.703929990457 8.659388012441 7.713120769183
5227 2 -1.200000000000 76.817223078552 11.808256380601 5.784840576887
5228 2 -1.200000000000 74.590636902362 10.233822196521 5.784840576887
5229 2 -1.200000000000 76.817223078552 11.808256380601 9.641400961479
5230 2 -1.200000000000 74.590636902362 10.233822196521 9.641400961479
5231 2 -1.200000000000 75.703929990457 13.382690564681 7.713120769183
5232 2 -1.200000000000 73.477343814267 11.808256380601 7.713120769183
5233 1 2.400000000000 75.703929990457 6.297736736320 7.713120769183
5234 1 2.400000000000 72.364050726172 6.297736736320 5.784840576887
5235 1 2.400000000000 72.364050726172 6.297736736320 9.641400961479
5236 1 2.400000000000 73.477343814267 9.446605104481 7.713120769183
5237 2 -1.200000000000 73.477343814267 7.084953828360 7.713120769183
5238 2 -1.200000000000 71.250757638077 5.510519644280 7.713120769183
5239 2 -1.200000000000 72.364050726172 8.659388012441 5.784840576887
5240 2 -1.200000000000 70.137464549982 7.084953828360 5.784840576887
5241 2 -1.200000000000 72.364050726172 8.659388012441 9.641400961479
5242 2 -1.200000000000 70.137464549982 7.084953828360 9.641400961479
5243 2 -1.200000000000 71.250757638077 10.233822196521 7.713120769183
5244 2 -1.200000000000 69.024171461887 8.659388012441 7.713120769183
5245 1 2.400000000000 95.743205576166 25.190946945282 3.856560384591
5246 1 2.400000000000 92.403326311881 25.190946945282 1.928280192296
5247 1 2.400000000000 92.403326311881 25.190946945282 5.784840576887
5248 1 2.400000000000 93.516619399976 0.000000000000 3.856560384591
5249 2 -1.200000000000 93.516619399976 25.978164037322 3.856560384591
5250 2 -1.200000000000 91.290033223786 24.403729853242 3.856560384591
5251 2 -1.200000000000 92.403326311881 27.552598221402 1.928280192296
5252 2 -1.200000000000 90.176740135691 25.978164037322 1.928280192296
5253 2 -1.200000000000 92.403326311881 27.552598221402 5.784840576887
5254 2 -1.200000000000 90.176740135691 25.978164037322 5.784840576887
5255 2 -1.200000000000 91.290033223786 0.787217092040 3.856560384591
5256 2 -1.200000000000 89.063447047596 27.552598221402 3.856560384591
5257 1 2.400000000000 91.290033223786 22.042078577122 3.856560384591
5258 1 2.400000000000 87.950153959501 22.042078577122 1.928280192296
5259 1 2.400000000000 87.950153959501 22.042078577122 5.784840576887
5260 1 2.400000000000 89.063447047596 25.190946945282 3.856560384591
5261 2 -1.200000000000 89.063447047596 22.829295669162 3.856560384591
5262 2 -1.200000000000 86.836860871406 21.254861485081 3.856560384591
5263 2 -1.200000000000 87.950153959501 24.403729853242 1.928280192296
5264 2 -1.200000000000 85.723567783311 22.829295669162 1.928280192296
5265 2 -1.200000000000 87.950153959501 24.403729853242 5.784840576887
5266 2 -1.200000000000 85.723567783311 22.829295669162 5.784840576887
5267 2 -1.200000000000 86.836860871406 25.978164037322 3.856560384591
5268 2 -1.200000000000 84.610274695217 24.403729853242 3.856560384591
5269 1 2.400000000000 86.836860871406 18.893210208961 3.856560384591
5270 1 2.400000000000 83.496981607122 18.893210208961 1.928280192296
5271 1 2.400000000000 83.496981607122 18.893210208961 5.784840576887
5272 1 2.400000000000 84.610274695217 22.042078577122 3.856560384591
5273 2 -1.200000000000 84.610274695217 19.680427301001 3.856560384591
5274 2 -1.200000000000 82.383688519027 18.105993116921 3.856560384591
5275 2 -1.200000000000 83.496981607122 21.254861485081 1.928280192296
5276 2 -1.200000000000 81.270395430932 19.680427301001 1.928280192296
5277 2 -1.200000000000 83.496981607122 21.254861485081 5.784840576887
5278 2 -1.200000000000 81.270395430932 19.680427301001 5.784840576887
5279 2 -1.200000000000 82.383688519027 22.829295669162 3.856560384591
5280 2 -1.200000000000 80.157102342837 21.254861485081 3.856560384591
5281 1 2.400000000000 82.383688519027 15.744341840801 3.856560384591
5282 1 2.400000000000 79.043809254742 15.744341840801 1.928280192296
5283 1 2.400000000000 79.043809254742 15.744341840801 5.784840576887
5284 1 2.400000000000 80.157102342837 18.893210208961 3.856560384591
5285 2 -1.200000000000 80.157102342837 16.531558932841 3.856560384591
5286 2 -1.200000000000 77.930516166647 14.957124748761 3.856560384591
5287 2 -1.200000000000 79.043809254742 18.105993116921 1.928280192296
5288 2 -1.200000000000 76.817223078552 16.531558932841 1.928280192296
5289 2 -1.200000000000 79.043809254742 18.105993116921 5.784840576887
5290 2 -1.200000000000 76.817223078552 16.531558932841 5.784840576887
5291 2 -1.200000000000 77.930516166647 19.680427301001 3.856560384591
5292 2 -1.200000000000 75.703929990457 18.105993116921 3.856560384591
5293 1 2.400000000000 77.930516166647 12.595473472641 3.856560384591
5294 1 2.400000000000 74.590636902362 12.595473472641 1.928280192296
5295 1 2.400000000000 74.590636902362 12.595473472641 5.784840576887
5296 1 2.400000000000 75.703929990457 15.744341840801 3.856560384591
5297 2 -1.200000000000 75.703929990457 13.382690564681 3.856560384591
5298 2 -1.200000000000 73.477343814267 11.808256380601 3.856560384591
5299 2 -1.200000000000 74.590636902362 14.957124748761 1.928280192296
5300 2 -1.200000000000 72.364050726172 13.382690564681 1.928280192296
5301 2 -1.200000000000 74.590636902362 14.957124748761 5.784840576887
5302 2 -1.200000000000 72.364050726172 13.382690564681 5.784840576887
5303 2 -1.200000000000 73.477343814267 16.531558932841 3.856560384591
5304 2 -1.200000000000 71.250757638077 14.957124748761 3.856560384591
5305 1 2.400000000000 73.477343814267 9.446605104481 3.856560384591
5306 1 2.400000000000 70.137464549982 9.446605104481 1.928280192296
5307 1 2.400000000000 70.137464549982 9.446605104481 5.784840576887
5308 1 2.400000000000 71.250757638077 12.595473472641 3.856560384591
5309 2 -1.200000000000 71.250757638077 10.233822196521 3.856560384591
5310 2 -1.200000000000 69.024171461887 8.659388012441 3.856560384591
5311 2 -1.200000000000 70.137464549982 11.808256380601 1.928280192296
5312 2 -1.200000000000 67.910878373792 10.233822196521 1.928280192296
5313 2 -1.200000000000 70.137464549982 11.808256380601 5.784840576887
5314 2 -1.200000000000 67.910878373792 10.233822196521 5.784840576887
5315 2 -1.200000000000 69.024171461887 13.382690564681 3.856560384591
5316 2 -1.200000000000 66.797585285697 11.808256380601 3.856560384591
5317 1 2.400000000000 89.063447047596 25.190946945282 0.000000000000
5318 1 2.400000000000 85.723567783311 25.190946945282 21.211082115253
5319 1 2.400000000000 85.723567783311 25.190946945282 1.928280192296
5320 1 2.400000000000 86.836860871406 0.000000000000 0.000000000000
5321 2 -1.200000000000 86.836860871406 25.978164037322 0.000000000000
5322 2 -1.200000000000 84.610274695217 24.403729853242 0.000000000000
5323 2 -1.200000000000 85.723567783311 27.552598221402 21.211082115253
5324 2 -1.200000000000 83.496981607122 25.978164037322 21.211082115253
5325 2 -1.200000000000 85.723567783311 27.552598221402 1.928280192296
5326 2 -1.200000000000 83.496981607122 25.978164037322 1.928280192296
5327 2 -1.200000000000 84.610274695217 0.787217092040 0.000000000000
5328 2 -1.200000000000 82.383688519027 27.552598221402 0.000000000000
5329 1 2.400000000000 84.610274695217 22.042078577122 0.000000000000
5330 1 2.400000000000 81.270395430932 22.042078577122 21.211082115253
5331 1 2.400000000000 81.270395430932 22.042078577122 1.928280192296
5332 1 2.400000000000 82.383688519027 25.190946945282 0.000000000000
5333 2 -1.200000000000 82.383688519027 22.829295669162 0.000000000000
5334 2 -1.200000000000 80.157102342837 21.254861485081 0.000000000000
5335 2 -1.200000000000 81.270395430932 24.403729853242 21.211082115253
5336 2 -1.200000000000 79.043809254742 22.829295669162 21.211082115253
5337 2 -1.200000000000 81.270395430932 24.403729853242 1.928280192296
5338 2 -1.200000000000 79.043809254742 22.829295669162 1.928280192296
5339 2 -1.200000000000 80.157102342837 25.978164037322 0.000000000000
5340 2 -1.200000000000 77.930516166647 24.403729853242 0.000000000000
5341 1 2.400000000000 80.157102342837 18.893210208961 0.000000000000
5342 1 2.400000000000 76.817223078552 18.893210208961 21.211082115253
5343 1 2.400000000000 76.817223078552 18.893210208961 1.928280192296
5344 1 2.400000000000 77.930516166647 22.042078577122 0.000000000000
5345 2 -1.200000000000 77.930516166647 19.680427301001 0.000000000000
5346 2 -1.200000000000 75.703929990457 18.105993116921 0.000000000000
5347 2 -1.200000000000 76.817223078552 21.254861485081 21.211082115253
5348 2 -1.200000000000 74.590636902362 19.680427301001 21.211082115253
5349 2 -1.200000000000 76.817223078552 21.254861485081 1.928280192296
5350 2 -1.200000000000 74.590636902362 19.680427301001 1.928280192296
5351 2 -1.200000000000 75.703929990457 22.829295669162 0.000000000000
5352 2 -1.200000000000 73.477343814267 21.254861485081 0.000000000000
5353 1 2.400000000000 75.703929990457 15.744341840801 0.000000000000
5354 1 2.400000000000 72.364050726172 15.744341840801 21.211082115253
5355 1 2.400000000000 72.364050726172 15.744341840801 1.928280192296
5356 1 2.400000000000 73.477343814267 18.893210208961 0.000000000000
5357 2 -1.200000000000 73.477343814267 16.531558932841 0.000000000000
5358 2 -1.200000000000 71.250757638077 14.957124748761 0.000000000000
5359 2 -1.200000000000 72.364050726172 18.105993116921 21.211082115253
5360 2 -1.200000000000 70.137464549982 16.531558932841 21.211082115253
5361 2 -1.200000000000 72.364050726172 18.105993116921 1.928280192296
5362 2 -1.200000000000 70.137464549982 16.531558932841 1.928280192296
5363 2 -1.200000000000 71.250757638077 19.680427301001 0.000000000000
5364 2 -1.200000000000 69.024171461887 18.105993116921 0.000000000000
5365 1 2.400000000000 109.102722633306 25.190946945282 19.282801922957
5366 1 2.400000000000 105.762843369021 25.190946945282 17.354521730661
5367 1 2.400000000000 105.762843369021 25.190946945282 21.211082115253
5368 1 2.400000000000 106.876136457116 0.000000000000 19.282801922957
5369 2 -1.200000000000 106.876136457116 25.978164037322 19.282801922957
5370 2 -1.200000000000 104.649550280926 24.403729853242 19.282801922957
5371 2 -1.200000000000 105.762843369021 27.552598221402 17.354521730661
5372 2 -1.200000000000 103.536257192831 25.978164037322 17.354521730661
5373 2 -1.200000000000 105.762843369021 27.552598221402 21.211082115253
5374 2 -1.200000000000 103.536257192831 25.978164037322 21.211082115253
5375 2 -1.200000000000 104.649550280926 0.787217092040 19.282801922957
5376 2 -1.200000000000 102.422964104736 27.552598221402 19.282801922957
5377 1 2.400000000000 104.649550280926 22.042078577122 19.282801922957
5378 1 2.400000000000 101.309671016641 22.042078577122 17.354521730661
5379 1 2.400000000000 101.309671016641 22.042078577122 21.211082115253
5380 1 2.400000000000 102.422964104736 25.190946945282 19.282801922957
5381 2 -1.200000000000 102.422964104736 22.829295669162 19.282801922957
5382 2 -1.200000000000 100.196377928546 21.254861485081 19.282801922957
5383 2 -1.200000000000 101.309671016641 24.403729853242 17.354521730661
5384 2 -1.200000000000 99.083084840451 22.829295669162 17.354521730661
5385 2 -1.200000000000 101.309671016641 24.403729853242 21.211082115253
5386 2 -1.200000000000 99.083084840451 22.829295669162 21.211082115253
5387 2 -1.200000000000 100.196377928546 25.978164037322 19.282801922957
5388 2 -1.200000000000 97.969791752356 24.403729853242 19.282801922957
5389 1 2.400000000000 100.196377928546 18.893210208961 19.282801922957
5390 1 2.400000000000 96.856498664261 18.893210208961 17.354521730661
5391 1 2.400000000000 96.856498664261 18.893210208961 21.211082115253
5392 1 2.400000000000 97.969791752356 22.042078577122 19.282801922957
5393 2 -1.200000000000 97.969791752356 19.680427301001 19.282801922957
5394 2 -1.200000000000 95.743205576166 18.105993116921 19.282801922957
5395 2 -1.200000000000 96.856498664261 21.254861485081 17.354521730661
5396 2 -1.200000000000 94.629912488071 19.680427301001 17.354521730661
5397 2 -1.200000000000 96.856498664261 21.254861485081 21.211082115253
5398 2 -1.200000000000 94.629912488071 19.680427301001 21.211082115253
5399 2 -1.200000000000 95.743205576166 22.829295669162 19.282801922957
5400 2 -1.200000000000 93.516619399976 21.254861485081 19.282801922957
5401 1 2.400000000000 95.743205576166 15.744341840801 19.282801922957
5402 1 2.400000000000 92.403326311881 15.744341840801 17.354521730661
5403 1 2.400000000000 92.403326311881 15.744341840801 21.211082115253
5404 1 2.400000000000 93.516619399976 18.893210208961 19.282801922957
5405 2 -1.200000000000 93.516619399976 16.531558932841 19.282801922957
5406 2 -1.200000000000 91.290033223786 14.957124748761 19.282801922957
5407 2 -1.200000000000 92.403326311881 18.105993116921 17.354521730661
5408 2 -1.200000000000 90.176740135691 16.531558932841 17.354521730661
5409 2 -1.200000000000 92.403326311881 18.105993116921 21.211082115253
5410 2 -1.200000000000 90.176740135691 16.531558932841 21.211082115253
5411 2 -1.200000000000 91.290033223786 19.680427301001 19.282801922957
5412 2 -1.200000000000 89.063447047596 18.105993116921 19.282801922957
5413 1 2.400000000000 91.290033223786 12.595473472641 19.282801922957
5414 1 2.400000000000 87.950153959501 12.595473472641 17.354521730661
5415 1 2.400000000000 87.950153959501 12.595473472641 21.211082115253
5416 1 2.400000000000 89.063447047596 15.744341840801 19.282801922957
5417 2 -1.200000000000 89.063447047596 13.382690564681 19.282801922957
5418 2 -1.200000000000 86.836860871406 11.808256380601 19.282801922957
5419 2 -1.200000000000 87.950153959501 14.957124748761 17.354521730661
5420 2 -1.200000000000 85.723567783311 13.382690564681 17.354521730661
5421 2 -1.200000000000 87.950153959501 14.957124748761 21.211082115253
5422 2 -1.200000000000 85.723567783311 13.382690564681 21.211082115253
5423 2 -1.200000000000 86.836860871406 16.531558932841 19.282801922957
5424 2 -1.200000000000 84.610274695217 14.957124748761 19.282801922957
5425 1 2.400000000000 86.836860871406 9.446605104481 19.282801922957
5426 1 2.400000000000 83.496981607122 9.446605104481 17.354521730661
5427 1 2.400000000000 83.496981607122 9.446605104481 21.211082115253
5428 1 2.400000000000 84.610274695217 12.595473472641 19.282801922957
5429 2 -1.200000000000 84.610274695217 10.233822196521 19.282801922957
5430 2 -1.200000000000 82.383688519027 8.659388012441 19.282801922957
5431 2 -1.200000000000 83.496981607122 11.808256380601 17.354521730661
5432 2 -1.200000000000 81.270395430932 10.233822196521 17.354521730661
5433 2 -1.200000000000 83.496981607122 11.808256380601 21.211082115253
5434 2 -1.200000000000 81.270395430932 10.233822196521 21.211082115253
5435 2 -1.200000000000 82.383688519027 13.382690564681 19.282801922957
5436 2 -1.200000000000 80.157102342837 11.808256380601 19.282801922957
5437 1 2.400000000000 82.383688519027 6.297736736320 19.282801922957
5438 1 2.400000000000 79.043809254742 6.297736736320 17.354521730661
5439 1 2.400000000000 79.043809254742 6.297736736320 21.211082115253
5440 1 2.400000000000 80.157102342837 9.446605104481 19.282801922957
5441 2 -1.200000000000 80.157102342837 7.084953828360 19.282801922957
5442 2 -1.200000000000 77.930516166647 5.510519644280 19.282801922957
5443 2 -1.200000000000 79.043809254742 8.659388012441 17.354521730661
5444 2 -1.200000000000 76.817223078552 7.084953828360 17.354521730661
5445 2 -1.200000000000 79.043809254742 8.659388012441 21.211082115253
5446 2 -1.200000000000 76.817223078552 7.084953828360 21.211082115253
5447 2 -1.200000000000 77.930516166647 10.233822196521 19.282801922957
5448 2 -1.200000000000 75.703929990457 8.659388012441 19.282801922957
5449 1 2.400000000000 77.930516166647 3.148868368160 19.282801922957
5450 1 2.400000000000 74.590636902362 3.148868368160 17.354521730661
5451 1 2.400000000000 74.590636902362 3.148868368160 21.211082115253
5452 1 2.400000000000 75.703929990457 6.297736736320 19.282801922957
5453 2 -1.200000000000 75.703929990457 3.936085460200 19.282801922957
5454 2 -1.200000000000 73.477343814267 2.361651276120 19.282801922957
5455 2 -1.200000000000 74.590636902362 5.510519644280 17.354521730661
5456 2 -1.200000000000 72.364050726172 3.936085460200 17.354521730661
5457 2 -1.200000000000 74.590636902362 5.510519644280 21.211082115253
5458 2 -1.200000000000 72.364050726172 3.936085460200 21.211082115253
5459 2 -1.200000000000 73.477343814267 7.084953828360 19.282801922957
5460 2 -1.200000000000 71.250757638077 5.510519644280 19.282801922957
5461 1 2.400000000000 73.477343814267 0.000000000000 19.282801922957
5462 1 2.400000000000 70.137464549982 0.000000000000 17.354521730661
5463 1 2.400000000000 70.137464549982 0.000000000000 21.211082115253
5464 1 2.400000000000 71.250757638077 3.148868368160 19.282801922957
5465 2 -1.200000000000 71.250757638077 0.787217092040 19.282801922957
5466 2 -1.200000000000 69.024171461887 27.552598221402 19.282801922957
5467 2 -1.200000000000 70.137464549982 2.361651276120 17.354521730661
5468 2 -1.200000000000 67.910878373792 0.787217092040 17.354521730661
5469 2 -1.200000000000 70.137464549982 2.361651276120 21.211082115253
5470 2 -1.200000000000 67.910878373792 0.787217092040 21.211082115253
5471 2 -1.200000000000 69.024171461887 3.936085460200 19.282801922957
5472 2 -1.200000000000 66.797585285697 2.361651276120 19.282801922957
5473 1 2.400000000000 102.422964104736 25.190946945282 15.426241538366
5474 1 2.400000000000 99.083084840451 25.190946945282 13.497961346070
5475 1 2.400000000000 99.083084840451 25.190946945282 17.354521730661
5476 1 2.400000000000 100.196377928546 0.000000000000 15.426241538366
5477 2 -1.200000000000 100.196377928546 25.978164037322 15.426241538366
5478 2 -1.200000000000 97.969791752356 24.403729853242 15.426241538366
5479 2 -1.200000000000 99.083084840451 27.552598221402 13.497961346070
5480 2 -1.200000000000 96.856498664261 25.978164037322 13.497961346070
5481 2 -1.200000000000 99.083084840451 27.552598221402 17.354521730661
5482 2 -1.200000000000 96.856498664261 25.978164037322 17.354521730661
5483 2 -1.200000000000 97.969791752356 0.787217092040 15.426241538366
5484 2 -1.200000000000 95.743205576166 27.552598221402 15.426241538366
5485 1 2.400000000000 97.969791752356 22.042078577122 15.426241538366
5486 1 2.400000000000 94.629912488071 22.042078577122 13.497961346070
5487 1 2.400000000000 94.629912488071 22.042078577122 17.354521730661
5488 1 2.400000000000 95.743205576166 25.190946945282 15.426241538366
5489 2 -1.200000000000 95.743205576166 22.829295669162 15.426241538366
5490 2 -1.200000000000 93.516619399976 21.254861485081 15.426241538366
5491 2 -1.200000000000 94.629912488071 24.403729853242 13.497961346070
5492 2 -1.200000000000 92.403326311881 22.829295669162 13.497961346070
5493 2 -1.200000000000 94.629912488071 24.403729853242 17.354521730661
5494 2 -1.200000000000 92.403326311881 22.829295669162 17.354521730661
5495 2 -1.200000000000 93.516619399976 25.978164037322 15.426241538366
5496 2 -1.200000000000 91.290033223786 24.403729853242 15.426241538366
5497 1 2.400000000000 93.516619399976 18.893210208961 15.426241538366
5498 1 2.400000000000 90.176740135691 18.893210208961 13.497961346070
5499 1 2.400000000000 90.176740135691 18.893210208961 17.354521730661
5500 1 2.400000000000 91.290033223786 22.042078577122 15.426241538366
5501 2 -1.200000000000 91.290033223786 19.680427301001 15.426241538366
5502 2 -1.200000000000 89.063447047596 18.105993116921 15.426241538366
5503 2 -1.200000000000 90.176740135691 21.254861485081 13.497961346070
5504 2 -1.200000000000 87.950153959501 19.680427301001 13.497961346070
5505 2 -1.200000000000 90.176740135691 21.254861485081 17.354521730661
5506 2 -1.200000000000 87.950153959501 19.680427301001 17.354521730661
5507 2 -1.200000000000 89.063447047596 22.829295669162 15.426241538366
5508 2 -1.200000000000 86.836860871406 21.254861485081 15.426241538366
5509 1 2.400000000000 89.063447047596 15.744341840801 15.426241538366
5510 1 2.400000000000 85.723567783311 15.744341840801 13.497961346070
5511 1 2.400000000000 85.723567783311 15.744341840801 17.354521730661
5512 1 2.400000000000 86.836860871406 18.893210208961 15.426241538366
5513 2 -1.200000000000 86.836860871406 16.531558932841 15.426241538366
5514 2 -1.200000000000 84.610274695217 14.957124748761 15.426241538366
5515 2 -1.200000000000 85.723567783311 18.105993116921 13.497961346070
5516 2 -1.200000000000 83.496981607122 16.531558932841 13.497961346070
5517 2 -1.200000000000 85.723567783311 18.105993116921 17.354521730661
5518 2 -1.200000000000 83.496981607122 16.531558932841 17.354521730661
5519 2 -1.200000000000 84.610274695217 19.680427301001 15.426241538366
5520 2 -1.200000000000 82.383688519027 18.105993116921 15.426241538366
5521 1 2.400000000000 84.610274695217 12.595473472641 15.426241538366
5522 1 2.400000000000 81.270395430932 12.595473472641 13.497961346070
5523 1 2.400000000000 81.270395430932 12.595473472641 17.354521730661
5524 1 2.400000000000 82.383688519027 15.744341840801 15.426241538366
5525 2 -1.200000000000 82.383688519027 13.382690564681 15.426241538366
5526 2 -1.200000000000 80.157102342837 11.808256380601 15.426241538366
5527 2 -1.200000000000 81.270395430932 14.957124748761 13.497961346070
5528 2 -1.200000000000 79.043809254742 13.382690564681 13.497961346070
5529 2 -1.200000000000 81.270395430932 14.957124748761 17.354521730661
5530 2 -1.200000000000 79.043809254742 13.382690564681 17.354521730661
5531 2 -1.200000000000 80.157102342837 16.531558932841 15.426241538366
5532 2 -1.200000000000 77.930516166647 14.957124748761 15.426241538366
5533 1 2.400000000000 80.157102342837 9.446605104481 15.426241538366
5534 1 2.400000000000 76.817223078552 9.446605104481 13.497961346070
5535 1 2.400000000000 76.817223078552 9.446605104481 17.354521730661
5536 1 2.400000000000 77.930516166647 12.595473472641 15.426241538366
5537 2 -1.200000000000 77.930516166647 10.233822196521 15.426241538366
5538 2 -1.200000000000 75.703929990457 8.659388012441 15.426241538366
5539 2 -1.200000000000 76.817223078552 11.808256380601 13.497961346070
5540 2 -1.200000000000 74.590636902362 10.233822196521 13.497961346070
5541 2 -1.200000000000 76.817223078552 11.808256380601 17.354521730661
5542 2 -1.200000000000 74.590636902362 10.233822196521 17.354521730661
5543 2 -1.200000000000 75.703929990457 13.382690564681 15.426241538366
5544 2 -1.200000000000 73.477343814267 11.808256380601 15.426241538366
5545 1 2.400000000000 75.703929990457 6.297736736320 15.426241538366
5546 1 2.400000000000 72.364050726172 6.297736736320 13.497961346070
5547 1 2.400000000000 72.364050726172 6.297736736320 17.354521730661
5548 1 2.400000000000 73.477343814267 9.446605104481 15.426241538366
5549 2 -1.200000000000 73.477343814267 7.084953828360 15.426241538366
5550 2 -1.200000000000 71.250757638077 5.510519644280 15.426241538366
5551 2 -1.200000000000 72.364050726172 8.659388012441 13.497961346070
5552 2 -1.200000000000 70.137464549982 7.084953828360 13.497961346070
5553 2 -1.200000000000 72.364050726172 8.659388012441 17.354521730661
5554 2 -1.200000000000 70.137464549982 7.084953828360 17.354521730661
5555 2 -1.200000000000 71.250757638077 10.233822196521 15.426241538366
5556 2 -1.200000000000 69.024171461887 8.659388012441 15.426241538366
5557 1 2.400000000000 95.743205576166 25.190946945282 11.569681153774
5558 1 2.400000000000 92.403326311881 25.190946945282 9.641400961479
5559 1 2.400000000000 92.403326311881 25.190946945282 13.497961346070
5560 1 2.400000000000 93.516619399976 0.000000000000 11.569681153774
5561 2 -1.200000000000 93.516619399976 25.978164037322 11.569681153774
5562 2 -1.200000000000 91.290033223786 24.403729853242 11.569681153774
5563 2 -1.200000000000 92.403326311881 27.552598221402 9.641400961479
5564 2 -1.200000000000 90.176740135691 25.978164037322 9.641400961479
5565 2 -1.200000000000 92.403326311881 27.552598221402 13.497961346070
5566 2 -1.200000000000 90.176740135691 25.978164037322 13.497961346070
5567 2 -1.200000000000 91.290033223786 0.787217092040 11.569681153774
5568 2 -1.200000000000 89.063447047596 27.552598221402 11.569681153774
5569 1 2.400000000000 91.290033223786 22.042078577122 11.569681153774
5570 1 2.400000000000 87.950153959501 22.042078577122 9.641400961479
5571 1 2.400000000000 87.950153959501 22.042078577122 13.497961346070
5572 1 2.400000000000 89.063447047596 25.190946945282 11.569681153774
5573 2 -1.200000000000 89.063447047596 22.829295669162 11.569681153774
5574 2 -1.200000000000 86.836860871406 21.254861485081 11.569681153774
5575 2 -1.200000000000 87.950153959501 24.403729853242 9.641400961479
5576 2 -1.200000000000 85.723567783311 22.829295669162 9.641400961479
5577 2 -1.200000000000 87.950153959501 24.403729853242 13.497961346070
5578 2 -1.200000000000 85.723567783311 22.829295669162 13.497961346070
5579 2 -1.200000000000 86.836860871406 25.978164037322 11.569681153774
5580 2 -1.200000000000 84.610274695217 24.403729853242 11.569681153774
5581 1 2.400000000000 86.836860871406 18.893210208961 11.569681153774
5582 1 2.400000000000 83.496981607122 18.893210208961 9.641400961479
5583 1 2.400000000000 83.496981607122 18.893210208961 13.497961346070
5584 1 2.400000000000 84.610274695217 22.042078577122 11.569681153774
5585 2 -1.200000000000 84.610274695217 19.680427301001 11.569681153774
5586 2 -1.200000000000 82.383688519027 18.105993116921 11.569681153774
5587 2 -1.200000000000 83.496981607122 21.254861485081 9.641400961479
5588 2 -1.200000000000 81.270395430932 19.680427301001 9.641400961479
5589 2 -1.200000000000 83.496981607122 21.254861485081 13.497961346070
5590 2 -1.200000000000 81.270395430932 19.680427301001 13.497961346070
5591 2 -1.200000000000 82.383688519027 22.829295669162 11.569681153774
5592 2 -1.200000000000 80.157102342837 21.254861485081 11.569681153774
5593 1 2.400000000000 82.383688519027 15.744341840801 11.569681153774
5594 1 2.400000000000 79.043809254742 15.744341840801 9.641400961479
5595 1 2.400000000000 79.043809254742 15.744341840801 13.497961346070
5596 1 2.400000000000 80.157102342837 18.893210208961 11.569681153774
5597 2 -1.200000000000 80.157102342837 16.531558932841 11.569681153774
5598 2 -1.200000000000 77.930516166647 14.957124748761 11.569681153774
5599 2 -1.200000000000 79.043809254742 18.105993116921 9.641400961479
5600 2 -1.200000000000 76.817223078552 16.531558932841 9.641400961479
5601 2 -1.200000000000 79.043809254742 18.105993116921 13.497961346070
5602 2 -1.200000000000 76.817223078552 16.531558932841 13.497961346070
5603 2 -1.200000000000 77.930516166647 19.680427301001 11.569681153774
5604 2 -1.200000000000 75.703929990457 18.105993116921 11.569681153774
5605 1 2.400000000000 77.930516166647 12.595473472641 11.569681153774
5606 1 2.400000000000 74.590636902362 12.595473472641 9.641400961479
5607 1 2.400000000000 74.590636902362 12.595473472641 13.497961346070
5608 1 2.400000000000 75.703929990457 15.744341840801 11.569681153774
5609 2 -1.200000000000 75.703929990457 13.382690564681 11.569681153774
5610 2 -1.200000000000 73.477343814267 11.808256380601 11.569681153774
5611 2 -1.200000000000 74.590636902362 14.957124748761 9.641400961479
5612 2 -1.200000000000 72.364050726172 13.382690564681 9.641400961479
5613 2 -1.200000000000 74.590636902362 14.957124748761 13.497961346070
5614 2 -1.200000000000 72.364050726172 13.382690564681 13.497961346070
5615 2 -1.200000000000 73.477343814267 16.531558932841 11.569681153774
5616 2 -1.200000000000 71.250757638077 14.957124748761 11.569681153774
5617 1 2.400000000000 73.477343814267 9.446605104481 11.569681153774
5618 1 2.400000000000 70.137464549982 9.446605104481 9.641400961479
5619 1 2.400000000000 70.137464549982 9.446605104481 13.497961346070
5620 1 2.400000000000 71.250757638077 12.595473472641 11.569681153774
5621 2 -1.200000000000 71.250757638077 10.233822196521 11.569681153774
5622 2 -1.200000000000 69.024171461887 8.659388012441 11.569681153774
5623 2 -1.200000000000 70.137464549982 11.808256380601 9.641400961479
5624 2 -1.200000000000 67.910878373792 10.233822196521 9.641400961479
5625 2 -1.200000000000 70.137464549982 11.808256380601 13.497961346070
5626 2 -1.200000000000 67.910878373792 10.233822196521 13.497961346070
5627 2 -1.200000000000 69.024171461887 13.382690564681 11.569681153774
5628 2 -1.200000000000 66.797585285697 11.808256380601 11.569681153774
5629 1 2.400000000000 89.063447047596 25.190946945282 7.713120769183
5630 1 2.400000000000 85.723567783311 25.190946945282 5.784840576887
5631 1 2.400000000000 85.723567783311 25.190946945282 9.641400961479
5632 1 2.400000000000 86.836860871406 0.000000000000 7.713120769183
5633 2 -1.200000000000 86.836860871406 25.978164037322 7.713120769183
5634 2 -1.200000000000 84.610274695217 24.403729853242 7.713120769183
5635 2 -1.200000000000 85.723567783311 27.552598221402 5.784840576887
5636 2 -1.200000000000 83.496981607122 25.978164037322 5.784840576887
5637 2 -1.200000000000 85.723567783311 27.552598221402 9.641400961479
5638 2 -1.200000000000 83.496981607122 25.978164037322 9.641400961479
5639 2 -1.200000000000 84.610274695217 0.787217092040 7.713120769183
5640 2 -1.200000000000 82.383688519027 27.552598221402 7.713120769183
5641 1 2.400000000000 84.610274695217 22.042078577122 7.713120769183
5642 1 2.400000000000 81.270395430932 22.042078577122 5.784840576887
5643 1 2.400000000000 81.270395430932 22.042078577122 9.641400961479
5644 1 2.400000000000 82.383688519027 25.190946945282 7.713120769183
5645 2 -1.200000000000 82.383688519027 22.829295669162 7.713120769183
5646 2 -1.200000000000 80.157102342837 21.254861485081 7.713120769183
5647 2 -1.200000000000 81.270395430932 24.403729853242 5.784840576887
5648 2 -1.200000000000 79.043809254742 22.829295669162 5.784840576887
5649 2 -1.200000000000 81.270395430932 24.403729853242 9.641400961479
5650 2 -1.200000000000 79.043809254742 22.829295669162 9.641400961479
5651 2 -1.200000000000 80.157102342837 25.978164037322 7.713120769183
5652 2 -1.200000000000 77.930516166647 24.403729853242 7.713120769183
5653 1 2.400000000000 80.157102342837 18.893210208961 7.713120769183
5654 1 2.400000000000 76.817223078552 18.893210208961 5.784840576887
5655 1 2.400000000000 76.817223078552 18.893210208961 9.641400961479
5656 1 2.400000000000 77.930516166647 22.042078577122 7.713120769183
5657 2 -1.200000000000 77.930516166647 19.680427301001 7.713120769183
5658 2 -1.200000000000 75.703929990457 18.105993116921 7.713120769183
5659 2 -1.200000000000 76.817223078552 21.254861485081 5.784840576887
5660 2 -1.200000000000 74.590636902362 19.680427301001 5.784840576887
5661 2 -1.200000000000 76.817223078552 21.254861485081 9.641400961479
5662 2 -1.200000000000 74.590636902362 19.680427301001 9.641400961479
5663 2 -1.200000000000 75.703929990457 22.829295669162 7.713120769183
5664 2 -1.200000000000 73.477343814267 21.254861485081 7.713120769183
5665 1 2.400000000000 75.703929990457 15.744341840801 7.713120769183
5666 1 2.400000000000 72.364050726172 15.744341840801 5.784840576887
5667 1 2.400000000000 72.364050726172 15.744341840801 9.641400961479
5668 1 2.400000000000 73.477343814267 18.893210208961 7.713120769183
5669 2 -1.200000000000 73.477343814267 16.531558932841 7.713120769183
5670 2 -1.200000000000 71.250757638077 14.957124748761 7.713120769183
5671 2 -1.200000000000 72.364050726172 18.105993116921 5.784840576887
5672 2 -1.200000000000 70.137464549982 16.531558932841 5.784840576887
5673 2 -1.200000000000 72.364050726172 18.105993116921 9.641400961479
5674 2 -1.200000000000 70.137464549982 16.531558932841 9.641400961479
5675 2 -1.200000000000 71.250757638077 19.680427301001 7.713120769183
5676 2 -1.200000000000 69.024171461887 18.105993116921 7.713120769183
5677 1 2.400000000000 82.383688519027 25.190946945282 3.856560384591
5678 1 2.400000000000 79.043809254742 25.190946945282 1.928280192296
5679 1 2.400000000000 79.043809254742 25.190946945282 5.784840576887
5680 1 2.400000000000 80.157102342837 0.000000000000 3.856560384591
5681 2 -1.200000000000 80.157102342837 25.978164037322 3.856560384591
5682 2 -1.200000000000 77.930516166647 24.403729853242 3.856560384591
5683 2 -1.200000000000 79.043809254742 27.552598221402 1.928280192296
5684 2 -1.200000000000 76.817223078552 25.978164037322 1.928280192296
5685 2 -1.200000000000 79.043809254742 27.552598221402 5.784840576887
5686 2 -1.200000000000 76.817223078552 25.978164037322 5.784840576887
5687 2 -1.200000000000 77.930516166647 0.787217092040 3.856560384591
5688 2 -1.200000000000 75.703929990457 27.552598221402 3.856560384591
5689 1 2.400000000000 77.930516166647 22.042078577122 3.856560384591
5690 1 2.400000000000 74.590636902362 22.042078577122 1.928280192296
5691 1 2.400000000000 74.590636902362 22.042078577122 5.784840576887
5692 1 2.400000000000 75.703929990457 25.190946945282 3.856560384591
5693 2 -1.200000000000 75.703929990457 22.829295669162 3.856560384591
5694 2 -1.200000000000 73.477343814267 21.254861485081 3.856560384591
5695 2 -1.200000000000 74.590636902362 24.403729853242 1.928280192296
5696 2 -1.200000000000 72.364050726172 22.829295669162 1.928280192296
5697 2 -1.200000000000 74.590636902362 24.403729853242 5.784840576887
5698 2 -1.200000000000 72.364050726172 22.829295669162 5.784840576887
5699 2 -1.200000000000 73.477343814267 25.978164037322 3.856560384591
5700 2 -1.200000000000 71.250757638077 24.403729853242 3.856560384591
5701 1 2.400000000000 73.477343814267 18.893210208961 3.856560384591
5702 1 2.400000000000 70.137464549982 18.893210208961 1.928280192296
5703 1 2.400000000000 70.137464549982 18.893210208961 5.784840576887
5704 1 2.400000000000 71.250757638077 22.042078577122 3.856560384591
5705 2 -1.200000000000 71.250757638077 19.680427301001 3.856560384591
5706 2 -1.200000000000 69.024171461887 18.105993116921 3.856560384591
5707 2 -1.200000000000 70.137464549982 21.254861485081 1.928280192296
5708 2 -1.200000000000 67.910878373792 19.680427301001 1.928280192296
5709 2 -1.200000000000 70.137464549982 21.254861485081 5.784840576887
5710 2 -1.200000000000 67.910878373792 19.680427301001 5.784840576887
5711 2 -1.200000000000 69.024171461887 22.829295669162 3.856560384591
5712 2 -1.200000000000 66.797585285697 21.254861485081 3.856560384591
5713 1 2.400000000000 75.703929990457 25.190946945282 0.000000000000
5714 1 2.400000000000 72.364050726172 25.190946945282 21.211082115253
5715 1 2.400000000000 72.364050726172 25.190946945282 1.928280192296
5716 1 2.400000000000 73.477343814267 0.000000000000 0.000000000000
5717 2 -1.200000000000 73.477343814267 25.978164037322 0.000000000000
5718 2 -1.200000000000 71.250757638077 24.403729853242 0.000000000000
5719 2 -1.200000000000 72.364050726172 27.552598221402 21.211082115253
5720 2 -1.200000000000 70.137464549982 25.978164037322 21.211082115253
5721 2 -1.200000000000 72.364050726172 27.552598221402 1.928280192296
5722 2 -1.200000000000 70.137464549982 25.978164037322 1.928280192296
5723 2 -1.200000000000 71.250757638077 0.787217092040 0.000000000000
5724 2 -1.200000000000 69.024171461887 27.552598221402 0.000000000000
5725 1 2.400000000000 95.743205576166 25.190946945282 19.282801922957
5726 1 2.400000000000 92.403326311881 25.190946945282 17.354521730661
5727 1 2.400000000000 92.403326311881 25.190946945282 21.211082115253
5728 1 2.400000000000 93.516619399976 0.000000000000 19.282801922957
5729 2 -1.200000000000 93.516619399976 25.978164037322 19.282801922957
5730 2 -1.200000000000 91.290033223786 24.403729853242 19.282801922957
5731 2 -1.200000000000 92.403326311881 27.552598221402 17.354521730661
5732 2 -1.200000000000 90.176740135691 25.978164037322 17.354521730661
5733 2 -1.200000000000 92.403326311881 27.552598221402 21.211082115253
5734 2 -1.200000000000 90.176740135691 25.978164037322 21.211082115253
5735 2 -1.200000000000 91.290033223786 0.787217092040 19.282801922957
5736 2 -1.200000000000 89.063447047596 27.552598221402 19.282801922957
5737 1 2.400000000000 91.290033223786 22.042078577122 19.282801922957
5738 1 2.400000000000 87.950153959501 22.042078577122 17.354521730661
5739 1 2.400000000000 87.950153959501 22.042078577122 21.211082115253
5740 1 2.400000000000 89.063447047596 25.190946945282 19.282801922957
5741 2 -1.200000000000 89.063447047596 22.829295669162 19.282801922957
5742 2 -1.200000000000 86.836860871406 21.254861485081 19.282801922957
5743 2 -1.200000000000 87.950153959501 24.403729853242 17.354521730661
5744 2 -1.200000000000 85.723567783311 22.829295669162 17.354521730661
5745 2 -1.200000000000 87.950153959501 24.403729853242 21.211082115253
5746 2 -1.200000000000 85.723567783311 22.829295669162 21.211082115253
5747 2 -1.200000000000 86.836860871406 25.978164037322 19.282801922957
5748 2 -1.200000000000 84.610274695217 24.403729853242 19.282801922957
5749 1 2.400000000000 86.836860871406 18.893210208961 19.282801922957
5750 1 2.400000000000 83.496981607122 18.893210208961 17.354521730661
5751 1 2.400000000000 83.496981607122 18.893210208961 21.211082115253
5752 1 2.400000000000 84.610274695217 22.042078577122 19.282801922957
5753 2 -1.200000000000 84.610274695217 19.680427301001 19.282801922957
5754 2 -1.200000000000 82.383688519027 18.105993116921 19.282801922957
5755 2 -1.200000000000 83.496981607122 21.254861485081 17.354521730661
5756 2 -1.200000000000 81.270395430932 19.680427301001 17.354521730661
5757 2 -1.200000000000 83.496981607122 21.254861485081 21.211082115253
5758 2 -1.200000000000 81.270395430932 19.680427301001 21.211082115253
5759 2 -1.200000000000 82.383688519027 22.829295669162 19.282801922957
5760 2 -1.200000000000 80.157102342837 21.254861485081 19.282801922957
5761 1 2.400000000000 82.383688519027 15.744341840801 19.282801922957
5762 1 2.400000000000 79.043809254742 15.744341840801 17.354521730661
5763 1 2.400000000000 79.043809254742 15.744341840801 21.211082115253
5764 1 2.400000000000 80.157102342837 18.893210208961 19.282801922957
5765 2 -1.200000000000 80.157102342837 16.531558932841 19.282801922957
5766 2 -1.200000000000 77.930516166647 14.957124748761 19.282801922957
5767 2 -1.200000000000 79.043809254742 18.105993116921 17.354521730661
5768 2 -1.200000000000 76.817223078552 16.531558932841 17.354521730661
5769 2 -1.200000000000 79.043809254742 18.105993116921 21.211082115253
5770 2 -1.200000000000 76.817223078552 16.531558932841 21.211082115253
5771 2 -1.200000000000 77.930516166647 19.680427301001 19.282801922957
5772 2 -1.200000000000 75.703929990457 18.105993116921 19.282801922957
5773 1 2.400000000000 77.930516166647 12.595473472641 19.282801922957
5774 1 2.400000000000 74.590636902362 12.595473472641 17.354521730661
5775 1 2.400000000000 74.590636902362 12.595473472641 21.211082115253
5776 1 2.400000000000 75.703929990457 15.744341840801 19.282801922957
5777 2 -1.200000000000 75.703929990457 13.382690564681 19.282801922957
5778 2 -1.200000000000 73.477343814267 11.808256380601 19.282801922957
5779 2 -1.200000000000 74.590636902362 14.957124748761 17.354521730661
5780 2 -1.200000000000 72.364050726172 13.382690564681 17.354521730661
5781 2 -1.200000000000 74.590636902362 14.957124748761 21.211082115253
5782 2 -1.200000000000 72.364050726172 13.382690564681 21.211082115253
5783 2 -1.200000000000 73.477343814267 16.531558932841 19.282801922957
5784 2 -1.200000000000 71.250757638077 14.957124748761 19.282801922957
5785 1 2.400000000000 73.477343814267 9.446605104481 19.282801922957
5786 1 2.400000000000 70.137464549982 9.446605104481 17.354521730661
5787 1 2.400000000000 70.137464549982 9.446605104481 21.211082115253
5788 1 2.400000000000 71.250757638077 12.595473472641 19.282801922957
5789 2 -1.200000000000 71.250757638077 10.233822196521 19.282801922957
5790 2 -1.200000000000 69.024171461887 8.659388012441 19.282801922957
5791 2 -1.200000000000 70.137464549982 11.808256380601 17.354521730661
5792 2 -1.200000000000 67.910878373792 10.233822196521 17.354521730661
5793 2 -1.200000000000 70.137464549982 11.808256380601 21.211082115253
5794 2 -1.200000000000 67.910878373792 10.233822196521 21.211082115253
5795 2 -1.200000000000 69.024171461887 13.382690564681 19.282801922957
5796 2 -1.200000000000 66.797585285697 11.808256380601 19.282801922957
5797 1 2.400000000000 89.063447047596 25.190946945282 15.426241538366
5798 1 2.400000000000 85.723567783311 25.190946945282 13.497961346070
5799 1 2.400000000000 85.723567783311 25.190946945282 17.354521730661
5800 1 2.400000000000 86.836860871406 0.000000000000 15.426241538366
5801 2 -1.200000000000 86.836860871406 25.978164037322 15.426241538366
5802 2 -1.200000000000 84.610274695217 24.403729853242 15.426241538366
5803 2 -1.200000000000 85.723567783311 27.552598221402 13.497961346070
5804 2 -1.200000000000 83.496981607122 25.978164037322 13.497961346070
5805 2 -1.200000000000 85.723567783311 27.552598221402 17.354521730661
5806 2 -1.200000000000 83.496981607122 25.978164037322 17.354521730661
5807 2 -1.200000000000 84.610274695217 0.787217092040 15.426241538366
5808 2 -1.200000000000 82.383688519027 27.552598221402 15.426241538366
5809 1 2.400000000000 84.610274695217 22.042078577122 15.426241538366
5810 1 2.400000000000 81.270395430932 22.042078577122 13.497961346070
5811 1 2.400000000000 81.270395430932 22.042078577122 17.354521730661
5812 1 2.400000000000 82.383688519027 25.190946945282 15.426241538366
5813 2 -1.200000000000 82.383688519027 22.829295669162 15.426241538366
5814 2 -1.200000000000 80.157102342837 21.254861485081 15.426241538366
5815 2 -1.200000000000 81.270395430932 24.403729853242 13.497961346070
5816 2 -1.200000000000 79.043809254742 22.829295669162 13.497961346070
5817 2 -1.200000000000 81.270395430932 24.403729853242 17.354521730661
5818 2 -1.200000000000 79.043809254742 22.829295669162 17.354521730661
5819 2 -1.200000000000 80.157102342837 25.978164037322 15.426241538366
5820 2 -1.200000000000 77.930516166647 24.403729853242 15.426241538366
5821 1 2.400000000000 80.157102342837 18.893210208961 15.426241538366
5822 1 2.400000000000 76.817223078552 18.893210208961 13.497961346070
5823 1 2.400000000000 76.817223078552 18.893210208961 17.354521730661
5824 1 2.400000000000 77.930516166647 22.042078577122 15.426241538366
5825 2 -1.200000000000 77.930516166647 19.680427301001 15.426241538366
5826 2 -1.200000000000 75.703929990457 18.105993116921 15.426241538366
5827 2 -1.200000000000 76.817223078552 21.254861485081 13.497961346070
5828 2 -1.200000000000 74.590636902362 19.680427301001 13.497961346070
5829 2 -1.200000000000 76.817223078552 21.254861485081 17.354521730661
5830 2 -1.200000000000 74.590636902362 19.680427301001 17.354521730661
5831 2 -1.200000000000 75.703929990457 22.829295669162 15.426241538366
5832 2 -1.200000000000 73.477343814267 21.254861485081 15.426241538366
5833 1 2.400000000000 75.703929990457 15.744341840801 15.426241538366
5834 1 2.400000000000 72.364050726172 15.744341840801 13.497961346070
5835 1 2.400000000000 72.364050726172 15.744341840801 17.354521730661
5836 1 2.400000000000 73.477343814267 18.893210208961 15.426241538366
5837 2 -1.200000000000 73.477343814267 16.531558932841 15.426241538366
5838 2 -1.200000000000 71.250757638077 14.957124748761 15.426241538366
5839 2 -1.200000000000 72.364050726172 18.105993116921 13.497961346070
5840 2 -1.200000000000 70.137464549982 16.531558932841 13.497961346070
5841 2 -1.200000000000 72.364050726172 18.105993116921 17.354521730661
5842 2 -1.200000000000 70.137464549982 16.531558932841 17.354521730661
5843 2 -1.200000000000 71.250757638077 19.680427301001 15.426241538366
5844 2 -1.200000000000 69.024171461887 18.105993116921 15.426241538366
5845 1 2.400000000000 82.383688519027 25.190946945282 11.569681153774
5846 1 2.400000000000 79.043809254742 25.190946945282 9.641400961479
5847 1 2.400000000000 79.043809254742 25.190946945282 13.497961346070
5848 1 2.400000000000 80.157102342837 0.000000000000 11.569681153774
5849 2 -1.200000000000 80.157102342837 25.978164037322 11.569681153774
5850 2 -1.200000000000 77.930516166647 24.403729853242 11.569681153774
5851 2 -1.200000000000 79.043809254742 27.552598221402 9.641400961479
5852 2 -1.200000000000 76.817223078552 25.978164037322 9.641400961479
5853 2 -1.200000000000 79.043809254742 27.552598221402 13.497961346070
5854 2 -1.200000000000 76.817223078552 25.978164037322 13.497961346070
5855 2 -1.200000000000 77.930516166647 0.787217092040 11.569681153774
5856 2 -1.200000000000 75.703929990457 27.552598221402 11.569681153774
5857 1 2.400000000000 77.930516166647 22.042078577122 11.569681153774
5858 1 2.400000000000 74.590636902362 22.042078577122 9.641400961479
5859 1 2.400000000000 74.590636902362 22.042078577122 13.497961346070
5860 1 2.400000000000 75.703929990457 25.190946945282 11.569681153774
5861 2 -1.200000000000 75.703929990457 22.829295669162 11.569681153774
5862 2 -1.200000000000 73.477343814267 21.254861485081 11.569681153774
5863 2 -1.200000000000 74.590636902362 24.403729853242 9.641400961479
5864 2 -1.200000000000 72.364050726172 22.829295669162 9.641400961479
5865 2 -1.200000000000 74.590636902362 24.403729853242 13.497961346070
5866 2 -1.200000000000 72.364050726172 22.829295669162 13.497961346070
5867 2 -1.200000000000 73.477343814267 25.978164037322 11.569681153774
5868 2 -1.200000000000 71.250757638077 24.403729853242 11.569681153774
5869 1 2.400000000000 73.477343814267 18.893210208961 11.569681153774
5870 1 2.400000000000 70.137464549982 18.893210208961 9.641400961479
5871 1 2.400000000000 70.137464549982 18.893210208961 13.497961346070
5872 1 2.400000000000 71.250757638077 22.042078577122 11.569681153774
5873 2 -1.200000000000 71.250757638077 19.680427301001 11.569681153774
5874 2 -1.200000000000 69.024171461887 18.105993116921 11.569681153774
5875 2 -1.200000000000 70.137464549982 21.254861485081 9.641400961479
5876 2 -1.200000000000 67.910878373792 19.680427301001 9.641400961479
5877 2 -1.200000000000 70.137464549982 21.254861485081 13.497961346070
5878 2 -1.200000000000 67.910878373792 19.680427301001 13.497961346070
5879 2 -1.200000000000 69.024171461887 22.829295669162 11.569681153774
5880 2 -1.200000000000 66.797585285697 21.254861485081 11.569681153774
5881 1 2.400000000000 75.703929990457 25.190946945282 7.713120769183
5882 1 2.400000000000 72.364050726172 25.190946945282 5.784840576887
5883 1 2.400000000000 72.364050726172 25.190946945282 9.641400961479
5884 1 2.400000000000 73.477343814267 0.000000000000 7.713120769183
5885 2 -1.200000000000 73.477343814267 25.978164037322 7.713120769183
5886 2 -1.200000000000 71.250757638077 24.403729853242 7.713120769183
5887 2 -1.200000000000 72.364050726172 27.552598221402 5.784840576887
5888 2 -1.200000000000 70.137464549982 25.978164037322 5.784840576887
5889 2 -1.200000000000 72.364050726172 27.552598221402 9.641400961479
5890 2 -1.200000000000 70.137464549982 25.978164037322 9.641400961479
5891 2 -1.200000000000 71.250757638077 0.787217092040 7.713120769183
5892 2 -1.200000000000 69.024171461887 27.552598221402 7.713120769183
5893 1 2.400000000000 82.383688519027 25.190946945282 19.282801922957
5894 1 2.400000000000 79.043809254742 25.190946945282 17.354521730661
5895 1 2.400000000000 79.043809254742 25.190946945282 21.211082115253
5896 1 2.400000000000 80.157102342837 0.000000000000 19.282801922957
5897 2 -1.200000000000 80.157102342837 25.978164037322 19.282801922957
5898 2 -1.200000000000 77.930516166647 24.403729853242 19.282801922957
5899 2 -1.200000000000 79.043809254742 27.552598221402 17.354521730661
5900 2 -1.200000000000 76.817223078552 25.978164037322 17.354521730661
5901 2 -1.200000000000 79.043809254742 27.552598221402 21.211082115253
5902 2 -1.200000000000 76.817223078552 25.978164037322 21.211082115253
5903 2 -1.200000000000 77.930516166647 0.787217092040 19.282801922957
5904 2 -1.200000000000 75.703929990457 27.552598221402 19.282801922957
5905 1 2.400000000000 77.930516166647 22.042078577122 19.282801922957
5906 1 2.400000000000 74.590636902362 22.042078577122 17.354521730661
5907 1 2.400000000000 74.590636902362 22.042078577122 21.211082115253
5908 1 2.400000000000 75.703929990457 25.190946945282 19.282801922957
5909 2 -1.200000000000 75.703929990457 22.829295669162 19.282801922957
5910 2 -1.200000000000 73.477343814267 21.254861485081 19.282801922957
5911 2 -1.200000000000 74.590636902362 24.403729853242 17.354521730661
5912 2 -1.200000000000 72.364050726172 22.829295669162 17.354521730661
5913 2 -1.200000000000 74.590636902362 24.403729853242 21.211082115253
5914 2 -1.200000000000 72.364050726172 22.829295669162 21.211082115253
5915 2 -1.200000000000 73.477343814267 25.978164037322 19.282801922957
5916 2 -1.200000000000 71.250757638077 24.403729853242 19.282801922957
5917 1 2.400000000000 73.477343814267 18.893210208961 19.282801922957
5918 1 2.400000000000 70.137464549982 18.893210208961 17.354521730661
5919 1 2.400000000000 70.137464549982 18.893210208961 21.211082115253
5920 1 2.400000000000 71.250757638077 22.042078577122 19.282801922957
5921 2 -1.200000000000 71.250757638077 19.680427301001 19.282801922957
5922 2 -1.200000000000 69.024171461887 18.105993116921 19.282801922957
5923 2 -1.200000000000 70.137464549982 21.254861485081 17.354521730661
5924 2 -1.200000000000 67.910878373792 19.680427301001 17.354521730661
5925 2 -1.200000000000 70.137464549982 21.254861485081 21.211082115253
5926 2 -1.200000000000 67.910878373792 19.680427301001 21.211082115253
5927 2 -1.200000000000 69.024171461887 22.829295669162 19.282801922957
5928 2 -1.200000000000 66.797585285697 21.254861485081 19.282801922957
5929 1 2.400000000000 75.703929990457 25.190946945282 15.426241538366
5930 1 2.400000000000 72.364050726172 25.190946945282 13.497961346070
5931 1 2.400000000000 72.364050726172 25.190946945282 17.354521730661
5932 1 2.400000000000 73.477343814267 0.000000000000 15.426241538366
5933 2 -1.200000000000 73.477343814267 25.978164037322 15.426241538366
5934 2 -1.200000000000 71.250757638077 24.403729853242 15.426241538366
5935 2 -1.200000000000 72.364050726172 27.552598221402 13.497961346070
5936 2 -1.200000000000 70.137464549982 25.978164037322 13.497961346070
5937 2 -1.200000000000 72.364050726172 27.552598221402 17.354521730661
5938 2 -1.200000000000 70.137464549982 25.978164037322 17.354521730661
5939 2 -1.200000000000 71.250757638077 0.787217092040 15.426241538366
5940 2 -1.200000000000 69.024171461887 27.552598221402 15.426241538366
