Crystalline OU atoms

7488 atoms
2 atom types
0.000000000000 130.896000000000 xlo xhi
0.000000000000 27.810052427135 ylo yhi
0.000000000000 27.810052427135 zlo zhi

Atoms

1 1 2.400000000000 0.000000000000 0.000000000000 0.000000000000
2 1 2.400000000000 2.727000000000 0.534808700522 2.674043502609
3 1 2.400000000000 2.727000000000 2.674043502609 27.275243726613
4 1 2.400000000000 0.000000000000 3.208852203131 2.139234802087
5 2 -1.200000000000 1.363500000000 1.604426101565 1.069617401044
6 2 -1.200000000000 4.090500000000 1.604426101565 1.069617401044
7 2 -1.200000000000 1.363500000000 2.139234802087 3.743660903653
8 2 -1.200000000000 4.090500000000 2.139234802087 3.743660903653
9 2 -1.200000000000 1.363500000000 4.278469604175 0.534808700522
10 2 -1.200000000000 4.090500000000 4.278469604175 0.534808700522
11 2 -1.200000000000 1.363500000000 4.813278304696 3.208852203131
12 2 -1.200000000000 4.090500000000 4.813278304696 3.208852203131
13 1 2.400000000000 5.454000000000 0.000000000000 0.000000000000
14 1 2.400000000000 8.181000000000 0.534808700522 2.674043502609
15 1 2.400000000000 8.181000000000 2.674043502609 27.275243726613
16 1 2.400000000000 5.454000000000 3.208852203131 2.139234802087
17 2 -1.200000000000 6.817500000000 1.604426101565 1.069617401044
18 2 -1.200000000000 9.544500000000 1.604426101565 1.069617401044
19 2 -1.200000000000 6.817500000000 2.139234802087 3.743660903653
20 2 -1.200000000000 9.544500000000 2.139234802087 3.743660903653
21 2 -1.200000000000 6.817500000000 4.278469604175 0.534808700522
22 2 -1.200000000000 9.544500000000 4.278469604175 0.534808700522
23 2 -1.200000000000 6.817500000000 4.813278304696 3.208852203131
24 2 -1.200000000000 9.544500000000 4.813278304696 3.208852203131
25 1 2.400000000000 10.908000000000 0.000000000000 0.000000000000
26 1 2.400000000000 13.635000000000 0.534808700522 2.674043502609
27 1 2.400000000000 13.635000000000 2.674043502609 27.275243726613
28 1 2.400000000000 10.908000000000 3.208852203131 2.139234802087
29 2 -1.200000000000 12.271500000000 1.604426101565 1.069617401044
30 2 -1.200000000000 14.998500000000 1.604426101565 1.069617401044
31 2 -1.200000000000 12.271500000000 2.139234802087 3.743660903653
32 2 -1.200000000000 14.998500000000 2.139234802087 3.743660903653
33 2 -1.200000000000 12.271500000000 4.278469604175 0.534808700522
34 2 -1.200000000000 14.998500000000 4.278469604175 0.534808700522
35 2 -1.200000000000 12.271500000000 4.813278304696 3.208852203131
36 2 -1.200000000000 14.998500000000 4.813278304696 3.208852203131
37 1 2.400000000000 16.362000000000 0.000000000000 0.000000000000
38 1 2.400000000000 19.089000000000 0.534808700522 2.674043502609
39 1 2.400000000000 19.089000000000 2.674043502609 27.275243726613
40 1 2.400000000000 16.362000000000 3.208852203131 2.139234802087
41 2 -1.200000000000 17.725500000000 1.604426101565 1.069617401044
42 2 -1.200000000000 20.452500000000 1.604426101565 1.069617401044
43 2 -1.200000000000 17.725500000000 2.139234802087 3.743660903653
44 2 -1.200000000000 20.452500000000 2.139234802087 3.743660903653
45 2 -1.200000000000 17.725500000000 4.278469604175 0.534808700522
46 2 -1.200000000000 20.452500000000 4.278469604175 0.534808700522
47 2 -1.200000000000 17.725500000000 4.813278304696 3.208852203131
48 2 -1.200000000000 20.452500000000 4.813278304696 3.208852203131
49 1 2.400000000000 21.816000000000 0.000000000000 0.000000000000
50 1 2.400000000000 24.543000000000 0.534808700522 2.674043502609
51 1 2.400000000000 24.543000000000 2.674043502609 27.275243726613
52 1 2.400000000000 21.816000000000 3.208852203131 2.139234802087
53 2 -1.200000000000 23.179500000000 1.604426101565 1.069617401044
54 2 -1.200000000000 25.906500000000 1.604426101565 1.069617401044
55 2 -1.200000000000 23.179500000000 2.139234802087 3.743660903653
56 2 -1.200000000000 25.906500000000 2.139234802087 3.743660903653
57 2 -1.200000000000 23.179500000000 4.278469604175 0.534808700522
58 2 -1.200000000000 25.906500000000 4.278469604175 0.534808700522
59 2 -1.200000000000 23.179500000000 4.813278304696 3.208852203131
60 2 -1.200000000000 25.906500000000 4.813278304696 3.208852203131
61 1 2.400000000000 27.270000000000 0.000000000000 0.000000000000
62 1 2.400000000000 29.997000000000 0.534808700522 2.674043502609
63 1 2.400000000000 29.997000000000 2.674043502609 27.275243726613
64 1 2.400000000000 27.270000000000 3.208852203131 2.139234802087
65 2 -1.200000000000 28.633500000000 1.604426101565 1.069617401044
66 2 -1.200000000000 31.360500000000 1.604426101565 1.069617401044
67 2 -1.200000000000 28.633500000000 2.139234802087 3.743660903653
68 2 -1.200000000000 31.360500000000 2.139234802087 3.743660903653
69 2 -1.200000000000 28.633500000000 4.278469604175 0.534808700522
70 2 -1.200000000000 31.360500000000 4.278469604175 0.534808700522
71 2 -1.200000000000 28.633500000000 4.813278304696 3.208852203131
72 2 -1.200000000000 31.360500000000 4.813278304696 3.208852203131
73 1 2.400000000000 32.724000000000 0.000000000000 0.000000000000
74 1 2.400000000000 35.451000000000 0.534808700522 2.674043502609
75 1 2.400000000000 35.451000000000 2.674043502609 27.275243726613
76 1 2.400000000000 32.724000000000 3.208852203131 2.139234802087
77 2 -1.200000000000 34.087500000000 1.604426101565 1.069617401044
78 2 -1.200000000000 36.814500000000 1.604426101565 1.069617401044
79 2 -1.200000000000 34.087500000000 2.139234802087 3.743660903653
80 2 -1.200000000000 36.814500000000 2.139234802087 3.743660903653
81 2 -1.200000000000 34.087500000000 4.278469604175 0.534808700522
82 2 -1.200000000000 36.814500000000 4.278469604175 0.534808700522
83 2 -1.200000000000 34.087500000000 4.813278304696 3.208852203131
84 2 -1.200000000000 36.814500000000 4.813278304696 3.208852203131
85 1 2.400000000000 38.178000000000 0.000000000000 0.000000000000
86 1 2.400000000000 40.905000000000 0.534808700522 2.674043502609
87 1 2.400000000000 40.905000000000 2.674043502609 27.275243726613
88 1 2.400000000000 38.178000000000 3.208852203131 2.139234802087
89 2 -1.200000000000 39.541500000000 1.604426101565 1.069617401044
90 2 -1.200000000000 42.268500000000 1.604426101565 1.069617401044
91 2 -1.200000000000 39.541500000000 2.139234802087 3.743660903653
92 2 -1.200000000000 42.268500000000 2.139234802087 3.743660903653
93 2 -1.200000000000 39.541500000000 4.278469604175 0.534808700522
94 2 -1.200000000000 42.268500000000 4.278469604175 0.534808700522
95 2 -1.200000000000 39.541500000000 4.813278304696 3.208852203131
96 2 -1.200000000000 42.268500000000 4.813278304696 3.208852203131
97 1 2.400000000000 43.632000000000 0.000000000000 0.000000000000
98 1 2.400000000000 46.359000000000 0.534808700522 2.674043502609
99 1 2.400000000000 46.359000000000 2.674043502609 27.275243726613
100 1 2.400000000000 43.632000000000 3.208852203131 2.139234802087
101 2 -1.200000000000 44.995500000000 1.604426101565 1.069617401044
102 2 -1.200000000000 47.722500000000 1.604426101565 1.069617401044
103 2 -1.200000000000 44.995500000000 2.139234802087 3.743660903653
104 2 -1.200000000000 47.722500000000 2.139234802087 3.743660903653
105 2 -1.200000000000 44.995500000000 4.278469604175 0.534808700522
106 2 -1.200000000000 47.722500000000 4.278469604175 0.534808700522
107 2 -1.200000000000 44.995500000000 4.813278304696 3.208852203131
108 2 -1.200000000000 47.722500000000 4.813278304696 3.208852203131
109 1 2.400000000000 49.086000000000 0.000000000000 0.000000000000
110 1 2.400000000000 51.813000000000 0.534808700522 2.674043502609
111 1 2.400000000000 51.813000000000 2.674043502609 27.275243726613
112 1 2.400000000000 49.086000000000 3.208852203131 2.139234802087
113 2 -1.200000000000 50.449500000000 1.604426101565 1.069617401044
114 2 -1.200000000000 53.176500000000 1.604426101565 1.069617401044
115 2 -1.200000000000 50.449500000000 2.139234802087 3.743660903653
116 2 -1.200000000000 53.176500000000 2.139234802087 3.743660903653
117 2 -1.200000000000 50.449500000000 4.278469604175 0.534808700522
118 2 -1.200000000000 53.176500000000 4.278469604175 0.534808700522
119 2 -1.200000000000 50.449500000000 4.813278304696 3.208852203131
120 2 -1.200000000000 53.176500000000 4.813278304696 3.208852203131
121 1 2.400000000000 54.540000000000 0.000000000000 0.000000000000
122 1 2.400000000000 57.267000000000 0.534808700522 2.674043502609
123 1 2.400000000000 57.267000000000 2.674043502609 27.275243726613
124 1 2.400000000000 54.540000000000 3.208852203131 2.139234802087
125 2 -1.200000000000 55.903500000000 1.604426101565 1.069617401044
126 2 -1.200000000000 58.630500000000 1.604426101565 1.069617401044
127 2 -1.200000000000 55.903500000000 2.139234802087 3.743660903653
128 2 -1.200000000000 58.630500000000 2.139234802087 3.743660903653
129 2 -1.200000000000 55.903500000000 4.278469604175 0.534808700522
130 2 -1.200000000000 58.630500000000 4.278469604175 0.534808700522
131 2 -1.200000000000 55.903500000000 4.813278304696 3.208852203131
132 2 -1.200000000000 58.630500000000 4.813278304696 3.208852203131
133 1 2.400000000000 59.994000000000 0.000000000000 0.000000000000
134 1 2.400000000000 62.721000000000 0.534808700522 2.674043502609
135 1 2.400000000000 62.721000000000 2.674043502609 27.275243726613
136 1 2.400000000000 59.994000000000 3.208852203131 2.139234802087
137 2 -1.200000000000 61.357500000000 1.604426101565 1.069617401044
138 2 -1.200000000000 64.084500000000 1.604426101565 1.069617401044
139 2 -1.200000000000 61.357500000000 2.139234802087 3.743660903653
140 2 -1.200000000000 64.084500000000 2.139234802087 3.743660903653
141 2 -1.200000000000 61.357500000000 4.278469604175 0.534808700522
142 2 -1.200000000000 64.084500000000 4.278469604175 0.534808700522
143 2 -1.200000000000 61.357500000000 4.813278304696 3.208852203131
144 2 -1.200000000000 64.084500000000 4.813278304696 3.208852203131
145 1 2.400000000000 0.000000000000 1.069617401044 5.348087005218
146 1 2.400000000000 2.727000000000 1.604426101565 8.022130507827
147 1 2.400000000000 2.727000000000 3.743660903653 4.813278304696
148 1 2.400000000000 0.000000000000 4.278469604175 7.487321807306
149 2 -1.200000000000 1.363500000000 2.674043502609 6.417704406262
150 2 -1.200000000000 4.090500000000 2.674043502609 6.417704406262
151 2 -1.200000000000 1.363500000000 3.208852203131 9.091747908871
152 2 -1.200000000000 4.090500000000 3.208852203131 9.091747908871
153 2 -1.200000000000 1.363500000000 5.348087005218 5.882895705740
154 2 -1.200000000000 4.090500000000 5.348087005218 5.882895705740
155 2 -1.200000000000 1.363500000000 5.882895705740 8.556939208349
156 2 -1.200000000000 4.090500000000 5.882895705740 8.556939208349
157 1 2.400000000000 5.454000000000 1.069617401044 5.348087005218
158 1 2.400000000000 8.181000000000 1.604426101565 8.022130507827
159 1 2.400000000000 8.181000000000 3.743660903653 4.813278304696
160 1 2.400000000000 5.454000000000 4.278469604175 7.487321807306
161 2 -1.200000000000 6.817500000000 2.674043502609 6.417704406262
162 2 -1.200000000000 9.544500000000 2.674043502609 6.417704406262
163 2 -1.200000000000 6.817500000000 3.208852203131 9.091747908871
164 2 -1.200000000000 9.544500000000 3.208852203131 9.091747908871
165 2 -1.200000000000 6.817500000000 5.348087005218 5.882895705740
166 2 -1.200000000000 9.544500000000 5.348087005218 5.882895705740
167 2 -1.200000000000 6.817500000000 5.882895705740 8.556939208349
168 2 -1.200000000000 9.544500000000 5.882895705740 8.556939208349
169 1 2.400000000000 10.908000000000 1.069617401044 5.348087005218
170 1 2.400000000000 13.635000000000 1.604426101565 8.022130507827
171 1 2.400000000000 13.635000000000 3.743660903653 4.813278304696
172 1 2.400000000000 10.908000000000 4.278469604175 7.487321807306
173 2 -1.200000000000 12.271500000000 2.674043502609 6.417704406262
174 2 -1.200000000000 14.998500000000 2.674043502609 6.417704406262
175 2 -1.200000000000 12.271500000000 3.208852203131 9.091747908871
176 2 -1.200000000000 14.998500000000 3.208852203131 9.091747908871
177 2 -1.200000000000 12.271500000000 5.348087005218 5.882895705740
178 2 -1.200000000000 14.998500000000 5.348087005218 5.882895705740
179 2 -1.200000000000 12.271500000000 5.882895705740 8.556939208349
180 2 -1.200000000000 14.998500000000 5.882895705740 8.556939208349
181 1 2.400000000000 16.362000000000 1.069617401044 5.348087005218
182 1 2.400000000000 19.089000000000 1.604426101565 8.022130507827
183 1 2.400000000000 19.089000000000 3.743660903653 4.813278304696
184 1 2.400000000000 16.362000000000 4.278469604175 7.487321807306
185 2 -1.200000000000 17.725500000000 2.674043502609 6.417704406262
186 2 -1.200000000000 20.452500000000 2.674043502609 6.417704406262
187 2 -1.200000000000 17.725500000000 3.208852203131 9.091747908871
188 2 -1.200000000000 20.452500000000 3.208852203131 9.091747908871
189 2 -1.200000000000 17.725500000000 5.348087005218 5.882895705740
190 2 -1.200000000000 20.452500000000 5.348087005218 5.882895705740
191 2 -1.200000000000 17.725500000000 5.882895705740 8.556939208349
192 2 -1.200000000000 20.452500000000 5.882895705740 8.556939208349
193 1 2.400000000000 21.816000000000 1.069617401044 5.348087005218
194 1 2.400000000000 24.543000000000 1.604426101565 8.022130507827
195 1 2.400000000000 24.543000000000 3.743660903653 4.813278304696
196 1 2.400000000000 21.816000000000 4.278469604175 7.487321807306
197 2 -1.200000000000 23.179500000000 2.674043502609 6.417704406262
198 2 -1.200000000000 25.906500000000 2.674043502609 6.417704406262
199 2 -1.200000000000 23.179500000000 3.208852203131 9.091747908871
200 2 -1.200000000000 25.906500000000 3.208852203131 9.091747908871
201 2 -1.200000000000 23.179500000000 5.348087005218 5.882895705740
202 2 -1.200000000000 25.906500000000 5.348087005218 5.882895705740
203 2 -1.200000000000 23.179500000000 5.882895705740 8.556939208349
204 2 -1.200000000000 25.906500000000 5.882895705740 8.556939208349
205 1 2.400000000000 27.270000000000 1.069617401044 5.348087005218
206 1 2.400000000000 29.997000000000 1.604426101565 8.022130507827
207 1 2.400000000000 29.997000000000 3.743660903653 4.813278304696
208 1 2.400000000000 27.270000000000 4.278469604175 7.487321807306
209 2 -1.200000000000 28.633500000000 2.674043502609 6.417704406262
210 2 -1.200000000000 31.360500000000 2.674043502609 6.417704406262
211 2 -1.200000000000 28.633500000000 3.208852203131 9.091747908871
212 2 -1.200000000000 31.360500000000 3.208852203131 9.091747908871
213 2 -1.200000000000 28.633500000000 5.348087005218 5.882895705740
214 2 -1.200000000000 31.360500000000 5.348087005218 5.882895705740
215 2 -1.200000000000 28.633500000000 5.882895705740 8.556939208349
216 2 -1.200000000000 31.360500000000 5.882895705740 8.556939208349
217 1 2.400000000000 32.724000000000 1.069617401044 5.348087005218
218 1 2.400000000000 35.451000000000 1.604426101565 8.022130507827
219 1 2.400000000000 35.451000000000 3.743660903653 4.813278304696
220 1 2.400000000000 32.724000000000 4.278469604175 7.487321807306
221 2 -1.200000000000 34.087500000000 2.674043502609 6.417704406262
222 2 -1.200000000000 36.814500000000 2.674043502609 6.417704406262
223 2 -1.200000000000 34.087500000000 3.208852203131 9.091747908871
224 2 -1.200000000000 36.814500000000 3.208852203131 9.091747908871
225 2 -1.200000000000 34.087500000000 5.348087005218 5.882895705740
226 2 -1.200000000000 36.814500000000 5.348087005218 5.882895705740
227 2 -1.200000000000 34.087500000000 5.882895705740 8.556939208349
228 2 -1.200000000000 36.814500000000 5.882895705740 8.556939208349
229 1 2.400000000000 38.178000000000 1.069617401044 5.348087005218
230 1 2.400000000000 40.905000000000 1.604426101565 8.022130507827
231 1 2.400000000000 40.905000000000 3.743660903653 4.813278304696
232 1 2.400000000000 38.178000000000 4.278469604175 7.487321807306
233 2 -1.200000000000 39.541500000000 2.674043502609 6.417704406262
234 2 -1.200000000000 42.268500000000 2.674043502609 6.417704406262
235 2 -1.200000000000 39.541500000000 3.208852203131 9.091747908871
236 2 -1.200000000000 42.268500000000 3.208852203131 9.091747908871
237 2 -1.200000000000 39.541500000000 5.348087005218 5.882895705740
238 2 -1.200000000000 42.268500000000 5.348087005218 5.882895705740
239 2 -1.200000000000 39.541500000000 5.882895705740 8.556939208349
240 2 -1.200000000000 42.268500000000 5.882895705740 8.556939208349
241 1 2.400000000000 43.632000000000 1.069617401044 5.348087005218
242 1 2.400000000000 46.359000000000 1.604426101565 8.022130507827
243 1 2.400000000000 46.359000000000 3.743660903653 4.813278304696
244 1 2.400000000000 43.632000000000 4.278469604175 7.487321807306
245 2 -1.200000000000 44.995500000000 2.674043502609 6.417704406262
246 2 -1.200000000000 47.722500000000 2.674043502609 6.417704406262
247 2 -1.200000000000 44.995500000000 3.208852203131 9.091747908871
248 2 -1.200000000000 47.722500000000 3.208852203131 9.091747908871
249 2 -1.200000000000 44.995500000000 5.348087005218 5.882895705740
250 2 -1.200000000000 47.722500000000 5.348087005218 5.882895705740
251 2 -1.200000000000 44.995500000000 5.882895705740 8.556939208349
252 2 -1.200000000000 47.722500000000 5.882895705740 8.556939208349
253 1 2.400000000000 49.086000000000 1.069617401044 5.348087005218
254 1 2.400000000000 51.813000000000 1.604426101565 8.022130507827
255 1 2.400000000000 51.813000000000 3.743660903653 4.813278304696
256 1 2.400000000000 49.086000000000 4.278469604175 7.487321807306
257 2 -1.200000000000 50.449500000000 2.674043502609 6.417704406262
258 2 -1.200000000000 53.176500000000 2.674043502609 6.417704406262
259 2 -1.200000000000 50.449500000000 3.208852203131 9.091747908871
260 2 -1.200000000000 53.176500000000 3.208852203131 9.091747908871
261 2 -1.200000000000 50.449500000000 5.348087005218 5.882895705740
262 2 -1.200000000000 53.176500000000 5.348087005218 5.882895705740
263 2 -1.200000000000 50.449500000000 5.882895705740 8.556939208349
264 2 -1.200000000000 53.176500000000 5.882895705740 8.556939208349
265 1 2.400000000000 54.540000000000 1.069617401044 5.348087005218
266 1 2.400000000000 57.267000000000 1.604426101565 8.022130507827
267 1 2.400000000000 57.267000000000 3.743660903653 4.813278304696
268 1 2.400000000000 54.540000000000 4.278469604175 7.487321807306
269 2 -1.200000000000 55.903500000000 2.674043502609 6.417704406262
270 2 -1.200000000000 58.630500000000 2.674043502609 6.417704406262
271 2 -1.200000000000 55.903500000000 3.208852203131 9.091747908871
272 2 -1.200000000000 58.630500000000 3.208852203131 9.091747908871
273 2 -1.200000000000 55.903500000000 5.348087005218 5.882895705740
274 2 -1.200000000000 58.630500000000 5.348087005218 5.882895705740
275 2 -1.200000000000 55.903500000000 5.882895705740 8.556939208349
276 2 -1.200000000000 58.630500000000 5.882895705740 8.556939208349
277 1 2.400000000000 59.994000000000 1.069617401044 5.348087005218
278 1 2.400000000000 62.721000000000 1.604426101565 8.022130507827
279 1 2.400000000000 62.721000000000 3.743660903653 4.813278304696
280 1 2.400000000000 59.994000000000 4.278469604175 7.487321807306
281 2 -1.200000000000 61.357500000000 2.674043502609 6.417704406262
282 2 -1.200000000000 64.084500000000 2.674043502609 6.417704406262
283 2 -1.200000000000 61.357500000000 3.208852203131 9.091747908871
284 2 -1.200000000000 64.084500000000 3.208852203131 9.091747908871
285 2 -1.200000000000 61.357500000000 5.348087005218 5.882895705740
286 2 -1.200000000000 64.084500000000 5.348087005218 5.882895705740
287 2 -1.200000000000 61.357500000000 5.882895705740 8.556939208349
288 2 -1.200000000000 64.084500000000 5.882895705740 8.556939208349
289 1 2.400000000000 0.000000000000 2.139234802087 10.696174010437
290 1 2.400000000000 2.727000000000 2.674043502609 13.370217513046
291 1 2.400000000000 2.727000000000 4.813278304696 10.161365309915
292 1 2.400000000000 0.000000000000 5.348087005218 12.835408812524
293 2 -1.200000000000 1.363500000000 3.743660903653 11.765791411480
294 2 -1.200000000000 4.090500000000 3.743660903653 11.765791411480
295 2 -1.200000000000 1.363500000000 4.278469604175 14.439834914089
296 2 -1.200000000000 4.090500000000 4.278469604175 14.439834914089
297 2 -1.200000000000 1.363500000000 6.417704406262 11.230982710958
298 2 -1.200000000000 4.090500000000 6.417704406262 11.230982710958
299 2 -1.200000000000 1.363500000000 6.952513106784 13.905026213568
300 2 -1.200000000000 4.090500000000 6.952513106784 13.905026213568
301 1 2.400000000000 5.454000000000 2.139234802087 10.696174010437
302 1 2.400000000000 8.181000000000 2.674043502609 13.370217513046
303 1 2.400000000000 8.181000000000 4.813278304696 10.161365309915
304 1 2.400000000000 5.454000000000 5.348087005218 12.835408812524
305 2 -1.200000000000 6.817500000000 3.743660903653 11.765791411480
306 2 -1.200000000000 9.544500000000 3.743660903653 11.765791411480
307 2 -1.200000000000 6.817500000000 4.278469604175 14.439834914089
308 2 -1.200000000000 9.544500000000 4.278469604175 14.439834914089
309 2 -1.200000000000 6.817500000000 6.417704406262 11.230982710958
310 2 -1.200000000000 9.544500000000 6.417704406262 11.230982710958
311 2 -1.200000000000 6.817500000000 6.952513106784 13.905026213568
312 2 -1.200000000000 9.544500000000 6.952513106784 13.905026213568
313 1 2.400000000000 10.908000000000 2.139234802087 10.696174010437
314 1 2.400000000000 13.635000000000 2.674043502609 13.370217513046
315 1 2.400000000000 13.635000000000 4.813278304696 10.161365309915
316 1 2.400000000000 10.908000000000 5.348087005218 12.835408812524
317 2 -1.200000000000 12.271500000000 3.743660903653 11.765791411480
318 2 -1.200000000000 14.998500000000 3.743660903653 11.765791411480
319 2 -1.200000000000 12.271500000000 4.278469604175 14.439834914089
320 2 -1.200000000000 14.998500000000 4.278469604175 14.439834914089
321 2 -1.200000000000 12.271500000000 6.417704406262 11.230982710958
322 2 -1.200000000000 14.998500000000 6.417704406262 11.230982710958
323 2 -1.200000000000 12.271500000000 6.952513106784 13.905026213568
324 2 -1.200000000000 14.998500000000 6.952513106784 13.905026213568
325 1 2.400000000000 16.362000000000 2.139234802087 10.696174010437
326 1 2.400000000000 19.089000000000 2.674043502609 13.370217513046
327 1 2.400000000000 19.089000000000 4.813278304696 10.161365309915
328 1 2.400000000000 16.362000000000 5.348087005218 12.835408812524
329 2 -1.200000000000 17.725500000000 3.743660903653 11.765791411480
330 2 -1.200000000000 20.452500000000 3.743660903653 11.765791411480
331 2 -1.200000000000 17.725500000000 4.278469604175 14.439834914089
332 2 -1.200000000000 20.452500000000 4.278469604175 14.439834914089
333 2 -1.200000000000 17.725500000000 6.417704406262 11.230982710958
334 2 -1.200000000000 20.452500000000 6.417704406262 11.230982710958
335 2 -1.200000000000 17.725500000000 6.952513106784 13.905026213568
336 2 -1.200000000000 20.452500000000 6.952513106784 13.905026213568
337 1 2.400000000000 21.816000000000 2.139234802087 10.696174010437
338 1 2.400000000000 24.543000000000 2.674043502609 13.370217513046
339 1 2.400000000000 24.543000000000 4.813278304696 10.161365309915
340 1 2.400000000000 21.816000000000 5.348087005218 12.835408812524
341 2 -1.200000000000 23.179500000000 3.743660903653 11.765791411480
342 2 -1.200000000000 25.906500000000 3.743660903653 11.765791411480
343 2 -1.200000000000 23.179500000000 4.278469604175 14.439834914089
344 2 -1.200000000000 25.906500000000 4.278469604175 14.439834914089
345 2 -1.200000000000 23.179500000000 6.417704406262 11.230982710958
346 2 -1.200000000000 25.906500000000 6.417704406262 11.230982710958
347 2 -1.200000000000 23.179500000000 6.952513106784 13.905026213568
348 2 -1.200000000000 25.906500000000 6.952513106784 13.905026213568
349 1 2.400000000000 27.270000000000 2.139234802087 10.696174010437
350 1 2.400000000000 29.997000000000 2.674043502609 13.370217513046
351 1 2.400000000000 29.997000000000 4.813278304696 10.161365309915
352 1 2.400000000000 27.270000000000 5.348087005218 12.835408812524
353 2 -1.200000000000 28.633500000000 3.743660903653 11.765791411480
354 2 -1.200000000000 31.360500000000 3.743660903653 11.765791411480
355 2 -1.200000000000 28.633500000000 4.278469604175 14.439834914089
356 2 -1.200000000000 31.360500000000 4.278469604175 14.439834914089
357 2 -1.200000000000 28.633500000000 6.417704406262 11.230982710958
358 2 -1.200000000000 31.360500000000 6.417704406262 11.230982710958
359 2 -1.200000000000 28.633500000000 6.952513106784 13.905026213568
360 2 -1.200000000000 31.360500000000 6.952513106784 13.905026213568
361 1 2.400000000000 32.724000000000 2.139234802087 10.696174010437
362 1 2.400000000000 35.451000000000 2.674043502609 13.370217513046
363 1 2.400000000000 35.451000000000 4.813278304696 10.161365309915
364 1 2.400000000000 32.724000000000 5.348087005218 12.835408812524
365 2 -1.200000000000 34.087500000000 3.743660903653 11.765791411480
366 2 -1.200000000000 36.814500000000 3.743660903653 11.765791411480
367 2 -1.200000000000 34.087500000000 4.278469604175 14.439834914089
368 2 -1.200000000000 36.814500000000 4.278469604175 14.439834914089
369 2 -1.200000000000 34.087500000000 6.417704406262 11.230982710958
370 2 -1.200000000000 36.814500000000 6.417704406262 11.230982710958
371 2 -1.200000000000 34.087500000000 6.952513106784 13.905026213568
372 2 -1.200000000000 36.814500000000 6.952513106784 13.905026213568
373 1 2.400000000000 38.178000000000 2.139234802087 10.696174010437
374 1 2.400000000000 40.905000000000 2.674043502609 13.370217513046
375 1 2.400000000000 40.905000000000 4.813278304696 10.161365309915
376 1 2.400000000000 38.178000000000 5.348087005218 12.835408812524
377 2 -1.200000000000 39.541500000000 3.743660903653 11.765791411480
378 2 -1.200000000000 42.268500000000 3.743660903653 11.765791411480
379 2 -1.200000000000 39.541500000000 4.278469604175 14.439834914089
380 2 -1.200000000000 42.268500000000 4.278469604175 14.439834914089
381 2 -1.200000000000 39.541500000000 6.417704406262 11.230982710958
382 2 -1.200000000000 42.268500000000 6.417704406262 11.230982710958
383 2 -1.200000000000 39.541500000000 6.952513106784 13.905026213568
384 2 -1.200000000000 42.268500000000 6.952513106784 13.905026213568
385 1 2.400000000000 43.632000000000 2.139234802087 10.696174010437
386 1 2.400000000000 46.359000000000 2.674043502609 13.370217513046
387 1 2.400000000000 46.359000000000 4.813278304696 10.161365309915
388 1 2.400000000000 43.632000000000 5.348087005218 12.835408812524
389 2 -1.200000000000 44.995500000000 3.743660903653 11.765791411480
390 2 -1.200000000000 47.722500000000 3.743660903653 11.765791411480
391 2 -1.200000000000 44.995500000000 4.278469604175 14.439834914089
392 2 -1.200000000000 47.722500000000 4.278469604175 14.439834914089
393 2 -1.200000000000 44.995500000000 6.417704406262 11.230982710958
394 2 -1.200000000000 47.722500000000 6.417704406262 11.230982710958
395 2 -1.200000000000 44.995500000000 6.952513106784 13.905026213568
396 2 -1.200000000000 47.722500000000 6.952513106784 13.905026213568
397 1 2.400000000000 49.086000000000 2.139234802087 10.696174010437
398 1 2.400000000000 51.813000000000 2.674043502609 13.370217513046
399 1 2.400000000000 51.813000000000 4.813278304696 10.161365309915
400 1 2.400000000000 49.086000000000 5.348087005218 12.835408812524
401 2 -1.200000000000 50.449500000000 3.743660903653 11.765791411480
402 2 -1.200000000000 53.176500000000 3.743660903653 11.765791411480
403 2 -1.200000000000 50.449500000000 4.278469604175 14.439834914089
404 2 -1.200000000000 53.176500000000 4.278469604175 14.439834914089
405 2 -1.200000000000 50.449500000000 6.417704406262 11.230982710958
406 2 -1.200000000000 53.176500000000 6.417704406262 11.230982710958
407 2 -1.200000000000 50.449500000000 6.952513106784 13.905026213568
408 2 -1.200000000000 53.176500000000 6.952513106784 13.905026213568
409 1 2.400000000000 54.540000000000 2.139234802087 10.696174010437
410 1 2.400000000000 57.267000000000 2.674043502609 13.370217513046
411 1 2.400000000000 57.267000000000 4.813278304696 10.161365309915
412 1 2.400000000000 54.540000000000 5.348087005218 12.835408812524
413 2 -1.200000000000 55.903500000000 3.743660903653 11.765791411480
414 2 -1.200000000000 58.630500000000 3.743660903653 11.765791411480
415 2 -1.200000000000 55.903500000000 4.278469604175 14.439834914089
416 2 -1.200000000000 58.630500000000 4.278469604175 14.439834914089
417 2 -1.200000000000 55.903500000000 6.417704406262 11.230982710958
418 2 -1.200000000000 58.630500000000 6.417704406262 11.230982710958
419 2 -1.200000000000 55.903500000000 6.952513106784 13.905026213568
420 2 -1.200000000000 58.630500000000 6.952513106784 13.905026213568
421 1 2.400000000000 59.994000000000 2.139234802087 10.696174010437
422 1 2.400000000000 62.721000000000 2.674043502609 13.370217513046
423 1 2.400000000000 62.721000000000 4.813278304696 10.161365309915
424 1 2.400000000000 59.994000000000 5.348087005218 12.835408812524
425 2 -1.200000000000 61.357500000000 3.743660903653 11.765791411480
426 2 -1.200000000000 64.084500000000 3.743660903653 11.765791411480
427 2 -1.200000000000 61.357500000000 4.278469604175 14.439834914089
428 2 -1.200000000000 64.084500000000 4.278469604175 14.439834914089
429 2 -1.200000000000 61.357500000000 6.417704406262 11.230982710958
430 2 -1.200000000000 64.084500000000 6.417704406262 11.230982710958
431 2 -1.200000000000 61.357500000000 6.952513106784 13.905026213568
432 2 -1.200000000000 64.084500000000 6.952513106784 13.905026213568
433 1 2.400000000000 0.000000000000 3.208852203131 16.044261015655
434 1 2.400000000000 2.727000000000 3.743660903653 18.718304518264
435 1 2.400000000000 2.727000000000 5.882895705740 15.509452315133
436 1 2.400000000000 0.000000000000 6.417704406262 18.183495817742
437 2 -1.200000000000 1.363500000000 4.813278304696 17.113878416698
438 2 -1.200000000000 4.090500000000 4.813278304696 17.113878416698
439 2 -1.200000000000 1.363500000000 5.348087005218 19.787921919308
440 2 -1.200000000000 4.090500000000 5.348087005218 19.787921919308
441 2 -1.200000000000 1.363500000000 7.487321807306 16.579069716177
442 2 -1.200000000000 4.090500000000 7.487321807306 16.579069716177
443 2 -1.200000000000 1.363500000000 8.022130507827 19.253113218786
444 2 -1.200000000000 4.090500000000 8.022130507827 19.253113218786
445 1 2.400000000000 5.454000000000 3.208852203131 16.044261015655
446 1 2.400000000000 8.181000000000 3.743660903653 18.718304518264
447 1 2.400000000000 8.181000000000 5.882895705740 15.509452315133
448 1 2.400000000000 5.454000000000 6.417704406262 18.183495817742
449 2 -1.200000000000 6.817500000000 4.813278304696 17.113878416698
450 2 -1.200000000000 9.544500000000 4.813278304696 17.113878416698
451 2 -1.200000000000 6.817500000000 5.348087005218 19.787921919308
452 2 -1.200000000000 9.544500000000 5.348087005218 19.787921919308
453 2 -1.200000000000 6.817500000000 7.487321807306 16.579069716177
454 2 -1.200000000000 9.544500000000 7.487321807306 16.579069716177
455 2 -1.200000000000 6.817500000000 8.022130507827 19.253113218786
456 2 -1.200000000000 9.544500000000 8.022130507827 19.253113218786
457 1 2.400000000000 10.908000000000 3.208852203131 16.044261015655
458 1 2.400000000000 13.635000000000 3.743660903653 18.718304518264
459 1 2.400000000000 13.635000000000 5.882895705740 15.509452315133
460 1 2.400000000000 10.908000000000 6.417704406262 18.183495817742
461 2 -1.200000000000 12.271500000000 4.813278304696 17.113878416698
462 2 -1.200000000000 14.998500000000 4.813278304696 17.113878416698
463 2 -1.200000000000 12.271500000000 5.348087005218 19.787921919308
464 2 -1.200000000000 14.998500000000 5.348087005218 19.787921919308
465 2 -1.200000000000 12.271500000000 7.487321807306 16.579069716177
466 2 -1.200000000000 14.998500000000 7.487321807306 16.579069716177
467 2 -1.200000000000 12.271500000000 8.022130507827 19.253113218786
468 2 -1.200000000000 14.998500000000 8.022130507827 19.253113218786
469 1 2.400000000000 16.362000000000 3.208852203131 16.044261015655
470 1 2.400000000000 19.089000000000 3.743660903653 18.718304518264
471 1 2.400000000000 19.089000000000 5.882895705740 15.509452315133
472 1 2.400000000000 16.362000000000 6.417704406262 18.183495817742
473 2 -1.200000000000 17.725500000000 4.813278304696 17.113878416698
474 2 -1.200000000000 20.452500000000 4.813278304696 17.113878416698
475 2 -1.200000000000 17.725500000000 5.348087005218 19.787921919308
476 2 -1.200000000000 20.452500000000 5.348087005218 19.787921919308
477 2 -1.200000000000 17.725500000000 7.487321807306 16.579069716177
478 2 -1.200000000000 20.452500000000 7.487321807306 16.579069716177
479 2 -1.200000000000 17.725500000000 8.022130507827 19.253113218786
480 2 -1.200000000000 20.452500000000 8.022130507827 19.253113218786
481 1 2.400000000000 21.816000000000 3.208852203131 16.044261015655
482 1 2.400000000000 24.543000000000 3.743660903653 18.718304518264
483 1 2.400000000000 24.543000000000 5.882895705740 15.509452315133
484 1 2.400000000000 21.816000000000 6.417704406262 18.183495817742
485 2 -1.200000000000 23.179500000000 4.813278304696 17.113878416698
486 2 -1.200000000000 25.906500000000 4.813278304696 17.113878416698
487 2 -1.200000000000 23.179500000000 5.348087005218 19.787921919308
488 2 -1.200000000000 25.906500000000 5.348087005218 19.787921919308
489 2 -1.200000000000 23.179500000000 7.487321807306 16.579069716177
490 2 -1.200000000000 25.906500000000 7.487321807306 16.579069716177
491 2 -1.200000000000 23.179500000000 8.022130507827 19.253113218786
492 2 -1.200000000000 25.906500000000 8.022130507827 19.253113218786
493 1 2.400000000000 27.270000000000 3.208852203131 16.044261015655
494 1 2.400000000000 29.997000000000 3.743660903653 18.718304518264
495 1 2.400000000000 29.997000000000 5.882895705740 15.509452315133
496 1 2.400000000000 27.270000000000 6.417704406262 18.183495817742
497 2 -1.200000000000 28.633500000000 4.813278304696 17.113878416698
498 2 -1.200000000000 31.360500000000 4.813278304696 17.113878416698
499 2 -1.200000000000 28.633500000000 5.348087005218 19.787921919308
500 2 -1.200000000000 31.360500000000 5.348087005218 19.787921919308
501 2 -1.200000000000 28.633500000000 7.487321807306 16.579069716177
502 2 -1.200000000000 31.360500000000 7.487321807306 16.579069716177
503 2 -1.200000000000 28.633500000000 8.022130507827 19.253113218786
504 2 -1.200000000000 31.360500000000 8.022130507827 19.253113218786
505 1 2.400000000000 32.724000000000 3.208852203131 16.044261015655
506 1 2.400000000000 35.451000000000 3.743660903653 18.718304518264
507 1 2.400000000000 35.451000000000 5.882895705740 15.509452315133
508 1 2.400000000000 32.724000000000 6.417704406262 18.183495817742
509 2 -1.200000000000 34.087500000000 4.813278304696 17.113878416698
510 2 -1.200000000000 36.814500000000 4.813278304696 17.113878416698
511 2 -1.200000000000 34.087500000000 5.348087005218 19.787921919308
512 2 -1.200000000000 36.814500000000 5.348087005218 19.787921919308
513 2 -1.200000000000 34.087500000000 7.487321807306 16.579069716177
514 2 -1.200000000000 36.814500000000 7.487321807306 16.579069716177
515 2 -1.200000000000 34.087500000000 8.022130507827 19.253113218786
516 2 -1.200000000000 36.814500000000 8.022130507827 19.253113218786
517 1 2.400000000000 38.178000000000 3.208852203131 16.044261015655
518 1 2.400000000000 40.905000000000 3.743660903653 18.718304518264
519 1 2.400000000000 40.905000000000 5.882895705740 15.509452315133
520 1 2.400000000000 38.178000000000 6.417704406262 18.183495817742
521 2 -1.200000000000 39.541500000000 4.813278304696 17.113878416698
522 2 -1.200000000000 42.268500000000 4.813278304696 17.113878416698
523 2 -1.200000000000 39.541500000000 5.348087005218 19.787921919308
524 2 -1.200000000000 42.268500000000 5.348087005218 19.787921919308
525 2 -1.200000000000 39.541500000000 7.487321807306 16.579069716177
526 2 -1.200000000000 42.268500000000 7.487321807306 16.579069716177
527 2 -1.200000000000 39.541500000000 8.022130507827 19.253113218786
528 2 -1.200000000000 42.268500000000 8.022130507827 19.253113218786
529 1 2.400000000000 43.632000000000 3.208852203131 16.044261015655
530 1 2.400000000000 46.359000000000 3.743660903653 18.718304518264
531 1 2.400000000000 46.359000000000 5.882895705740 15.509452315133
532 1 2.400000000000 43.632000000000 6.417704406262 18.183495817742
533 2 -1.200000000000 44.995500000000 4.813278304696 17.113878416698
534 2 -1.200000000000 47.722500000000 4.813278304696 17.113878416698
535 2 -1.200000000000 44.995500000000 5.348087005218 19.787921919308
536 2 -1.200000000000 47.722500000000 5.348087005218 19.787921919308
537 2 -1.200000000000 44.995500000000 7.487321807306 16.579069716177
538 2 -1.200000000000 47.722500000000 7.487321807306 16.579069716177
539 2 -1.200000000000 44.995500000000 8.022130507827 19.253113218786
540 2 -1.200000000000 47.722500000000 8.022130507827 19.253113218786
541 1 2.400000000000 49.086000000000 3.208852203131 16.044261015655
542 1 2.400000000000 51.813000000000 3.743660903653 18.718304518264
543 1 2.400000000000 51.813000000000 5.882895705740 15.509452315133
544 1 2.400000000000 49.086000000000 6.417704406262 18.183495817742
545 2 -1.200000000000 50.449500000000 4.813278304696 17.113878416698
546 2 -1.200000000000 53.176500000000 4.813278304696 17.113878416698
547 2 -1.200000000000 50.449500000000 5.348087005218 19.787921919308
548 2 -1.200000000000 53.176500000000 5.348087005218 19.787921919308
549 2 -1.200000000000 50.449500000000 7.487321807306 16.579069716177
550 2 -1.200000000000 53.176500000000 7.487321807306 16.579069716177
551 2 -1.200000000000 50.449500000000 8.022130507827 19.253113218786
552 2 -1.200000000000 53.176500000000 8.022130507827 19.253113218786
553 1 2.400000000000 54.540000000000 3.208852203131 16.044261015655
554 1 2.400000000000 57.267000000000 3.743660903653 18.718304518264
555 1 2.400000000000 57.267000000000 5.882895705740 15.509452315133
556 1 2.400000000000 54.540000000000 6.417704406262 18.183495817742
557 2 -1.200000000000 55.903500000000 4.813278304696 17.113878416698
558 2 -1.200000000000 58.630500000000 4.813278304696 17.113878416698
559 2 -1.200000000000 55.903500000000 5.348087005218 19.787921919308
560 2 -1.200000000000 58.630500000000 5.348087005218 19.787921919308
561 2 -1.200000000000 55.903500000000 7.487321807306 16.579069716177
562 2 -1.200000000000 58.630500000000 7.487321807306 16.579069716177
563 2 -1.200000000000 55.903500000000 8.022130507827 19.253113218786
564 2 -1.200000000000 58.630500000000 8.022130507827 19.253113218786
565 1 2.400000000000 59.994000000000 3.208852203131 16.044261015655
566 1 2.400000000000 62.721000000000 3.743660903653 18.718304518264
567 1 2.400000000000 62.721000000000 5.882895705740 15.509452315133
568 1 2.400000000000 59.994000000000 6.417704406262 18.183495817742
569 2 -1.200000000000 61.357500000000 4.813278304696 17.113878416698
570 2 -1.200000000000 64.084500000000 4.813278304696 17.113878416698
571 2 -1.200000000000 61.357500000000 5.348087005218 19.787921919308
572 2 -1.200000000000 64.084500000000 5.348087005218 19.787921919308
573 2 -1.200000000000 61.357500000000 7.487321807306 16.579069716177
574 2 -1.200000000000 64.084500000000 7.487321807306 16.579069716177
575 2 -1.200000000000 61.357500000000 8.022130507827 19.253113218786
576 2 -1.200000000000 64.084500000000 8.022130507827 19.253113218786
577 1 2.400000000000 0.000000000000 4.278469604175 21.392348020873
578 1 2.400000000000 2.727000000000 4.813278304696 24.066391523482
579 1 2.400000000000 2.727000000000 6.952513106784 20.857539320351
580 1 2.400000000000 0.000000000000 7.487321807306 23.531582822960
581 2 -1.200000000000 1.363500000000 5.882895705740 22.461965421917
582 2 -1.200000000000 4.090500000000 5.882895705740 22.461965421917
583 2 -1.200000000000 1.363500000000 6.417704406262 25.136008924526
584 2 -1.200000000000 4.090500000000 6.417704406262 25.136008924526
585 2 -1.200000000000 1.363500000000 8.556939208349 21.927156721395
586 2 -1.200000000000 4.090500000000 8.556939208349 21.927156721395
587 2 -1.200000000000 1.363500000000 9.091747908871 24.601200224004
588 2 -1.200000000000 4.090500000000 9.091747908871 24.601200224004
589 1 2.400000000000 5.454000000000 4.278469604175 21.392348020873
590 1 2.400000000000 8.181000000000 4.813278304696 24.066391523482
591 1 2.400000000000 8.181000000000 6.952513106784 20.857539320351
592 1 2.400000000000 5.454000000000 7.487321807306 23.531582822960
593 2 -1.200000000000 6.817500000000 5.882895705740 22.461965421917
594 2 -1.200000000000 9.544500000000 5.882895705740 22.461965421917
595 2 -1.200000000000 6.817500000000 6.417704406262 25.136008924526
596 2 -1.200000000000 9.544500000000 6.417704406262 25.136008924526
597 2 -1.200000000000 6.817500000000 8.556939208349 21.927156721395
598 2 -1.200000000000 9.544500000000 8.556939208349 21.927156721395
599 2 -1.200000000000 6.817500000000 9.091747908871 24.601200224004
600 2 -1.200000000000 9.544500000000 9.091747908871 24.601200224004
601 1 2.400000000000 10.908000000000 4.278469604175 21.392348020873
602 1 2.400000000000 13.635000000000 4.813278304696 24.066391523482
603 1 2.400000000000 13.635000000000 6.952513106784 20.857539320351
604 1 2.400000000000 10.908000000000 7.487321807306 23.531582822960
605 2 -1.200000000000 12.271500000000 5.882895705740 22.461965421917
606 2 -1.200000000000 14.998500000000 5.882895705740 22.461965421917
607 2 -1.200000000000 12.271500000000 6.417704406262 25.136008924526
608 2 -1.200000000000 14.998500000000 6.417704406262 25.136008924526
609 2 -1.200000000000 12.271500000000 8.556939208349 21.927156721395
610 2 -1.200000000000 14.998500000000 8.556939208349 21.927156721395
611 2 -1.200000000000 12.271500000000 9.091747908871 24.601200224004
612 2 -1.200000000000 14.998500000000 9.091747908871 24.601200224004
613 1 2.400000000000 16.362000000000 4.278469604175 21.392348020873
614 1 2.400000000000 19.089000000000 4.813278304696 24.066391523482
615 1 2.400000000000 19.089000000000 6.952513106784 20.857539320351
616 1 2.400000000000 16.362000000000 7.487321807306 23.531582822960
617 2 -1.200000000000 17.725500000000 5.882895705740 22.461965421917
618 2 -1.200000000000 20.452500000000 5.882895705740 22.461965421917
619 2 -1.200000000000 17.725500000000 6.417704406262 25.136008924526
620 2 -1.200000000000 20.452500000000 6.417704406262 25.136008924526
621 2 -1.200000000000 17.725500000000 8.556939208349 21.927156721395
622 2 -1.200000000000 20.452500000000 8.556939208349 21.927156721395
623 2 -1.200000000000 17.725500000000 9.091747908871 24.601200224004
624 2 -1.200000000000 20.452500000000 9.091747908871 24.601200224004
625 1 2.400000000000 21.816000000000 4.278469604175 21.392348020873
626 1 2.400000000000 24.543000000000 4.813278304696 24.066391523482
627 1 2.400000000000 24.543000000000 6.952513106784 20.857539320351
628 1 2.400000000000 21.816000000000 7.487321807306 23.531582822960
629 2 -1.200000000000 23.179500000000 5.882895705740 22.461965421917
630 2 -1.200000000000 25.906500000000 5.882895705740 22.461965421917
631 2 -1.200000000000 23.179500000000 6.417704406262 25.136008924526
632 2 -1.200000000000 25.906500000000 6.417704406262 25.136008924526
633 2 -1.200000000000 23.179500000000 8.556939208349 21.927156721395
634 2 -1.200000000000 25.906500000000 8.556939208349 21.927156721395
635 2 -1.200000000000 23.179500000000 9.091747908871 24.601200224004
636 2 -1.200000000000 25.906500000000 9.091747908871 24.601200224004
637 1 2.400000000000 27.270000000000 4.278469604175 21.392348020873
638 1 2.400000000000 29.997000000000 4.813278304696 24.066391523482
639 1 2.400000000000 29.997000000000 6.952513106784 20.857539320351
640 1 2.400000000000 27.270000000000 7.487321807306 23.531582822960
641 2 -1.200000000000 28.633500000000 5.882895705740 22.461965421917
642 2 -1.200000000000 31.360500000000 5.882895705740 22.461965421917
643 2 -1.200000000000 28.633500000000 6.417704406262 25.136008924526
644 2 -1.200000000000 31.360500000000 6.417704406262 25.136008924526
645 2 -1.200000000000 28.633500000000 8.556939208349 21.927156721395
646 2 -1.200000000000 31.360500000000 8.556939208349 21.927156721395
647 2 -1.200000000000 28.633500000000 9.091747908871 24.601200224004
648 2 -1.200000000000 31.360500000000 9.091747908871 24.601200224004
649 1 2.400000000000 32.724000000000 4.278469604175 21.392348020873
650 1 2.400000000000 35.451000000000 4.813278304696 24.066391523482
651 1 2.400000000000 35.451000000000 6.952513106784 20.857539320351
652 1 2.400000000000 32.724000000000 7.487321807306 23.531582822960
653 2 -1.200000000000 34.087500000000 5.882895705740 22.461965421917
654 2 -1.200000000000 36.814500000000 5.882895705740 22.461965421917
655 2 -1.200000000000 34.087500000000 6.417704406262 25.136008924526
656 2 -1.200000000000 36.814500000000 6.417704406262 25.136008924526
657 2 -1.200000000000 34.087500000000 8.556939208349 21.927156721395
658 2 -1.200000000000 36.814500000000 8.556939208349 21.927156721395
659 2 -1.200000000000 34.087500000000 9.091747908871 24.601200224004
660 2 -1.200000000000 36.814500000000 9.091747908871 24.601200224004
661 1 2.400000000000 38.178000000000 4.278469604175 21.392348020873
662 1 2.400000000000 40.905000000000 4.813278304696 24.066391523482
663 1 2.400000000000 40.905000000000 6.952513106784 20.857539320351
664 1 2.400000000000 38.178000000000 7.487321807306 23.531582822960
665 2 -1.200000000000 39.541500000000 5.882895705740 22.461965421917
666 2 -1.200000000000 42.268500000000 5.882895705740 22.461965421917
667 2 -1.200000000000 39.541500000000 6.417704406262 25.136008924526
668 2 -1.200000000000 42.268500000000 6.417704406262 25.136008924526
669 2 -1.200000000000 39.541500000000 8.556939208349 21.927156721395
670 2 -1.200000000000 42.268500000000 8.556939208349 21.927156721395
671 2 -1.200000000000 39.541500000000 9.091747908871 24.601200224004
672 2 -1.200000000000 42.268500000000 9.091747908871 24.601200224004
673 1 2.400000000000 43.632000000000 4.278469604175 21.392348020873
674 1 2.400000000000 46.359000000000 4.813278304696 24.066391523482
675 1 2.400000000000 46.359000000000 6.952513106784 20.857539320351
676 1 2.400000000000 43.632000000000 7.487321807306 23.531582822960
677 2 -1.200000000000 44.995500000000 5.882895705740 22.461965421917
678 2 -1.200000000000 47.722500000000 5.882895705740 22.461965421917
679 2 -1.200000000000 44.995500000000 6.417704406262 25.136008924526
680 2 -1.200000000000 47.722500000000 6.417704406262 25.136008924526
681 2 -1.200000000000 44.995500000000 8.556939208349 21.927156721395
682 2 -1.200000000000 47.722500000000 8.556939208349 21.927156721395
683 2 -1.200000000000 44.995500000000 9.091747908871 24.601200224004
684 2 -1.200000000000 47.722500000000 9.091747908871 24.601200224004
685 1 2.400000000000 49.086000000000 4.278469604175 21.392348020873
686 1 2.400000000000 51.813000000000 4.813278304696 24.066391523482
687 1 2.400000000000 51.813000000000 6.952513106784 20.857539320351
688 1 2.400000000000 49.086000000000 7.487321807306 23.531582822960
689 2 -1.200000000000 50.449500000000 5.882895705740 22.461965421917
690 2 -1.200000000000 53.176500000000 5.882895705740 22.461965421917
691 2 -1.200000000000 50.449500000000 6.417704406262 25.136008924526
692 2 -1.200000000000 53.176500000000 6.417704406262 25.136008924526
693 2 -1.200000000000 50.449500000000 8.556939208349 21.927156721395
694 2 -1.200000000000 53.176500000000 8.556939208349 21.927156721395
695 2 -1.200000000000 50.449500000000 9.091747908871 24.601200224004
696 2 -1.200000000000 53.176500000000 9.091747908871 24.601200224004
697 1 2.400000000000 54.540000000000 4.278469604175 21.392348020873
698 1 2.400000000000 57.267000000000 4.813278304696 24.066391523482
699 1 2.400000000000 57.267000000000 6.952513106784 20.857539320351
700 1 2.400000000000 54.540000000000 7.487321807306 23.531582822960
701 2 -1.200000000000 55.903500000000 5.882895705740 22.461965421917
702 2 -1.200000000000 58.630500000000 5.882895705740 22.461965421917
703 2 -1.200000000000 55.903500000000 6.417704406262 25.136008924526
704 2 -1.200000000000 58.630500000000 6.417704406262 25.136008924526
705 2 -1.200000000000 55.903500000000 8.556939208349 21.927156721395
706 2 -1.200000000000 58.630500000000 8.556939208349 21.927156721395
707 2 -1.200000000000 55.903500000000 9.091747908871 24.601200224004
708 2 -1.200000000000 58.630500000000 9.091747908871 24.601200224004
709 1 2.400000000000 59.994000000000 4.278469604175 21.392348020873
710 1 2.400000000000 62.721000000000 4.813278304696 24.066391523482
711 1 2.400000000000 62.721000000000 6.952513106784 20.857539320351
712 1 2.400000000000 59.994000000000 7.487321807306 23.531582822960
713 2 -1.200000000000 61.357500000000 5.882895705740 22.461965421917
714 2 -1.200000000000 64.084500000000 5.882895705740 22.461965421917
715 2 -1.200000000000 61.357500000000 6.417704406262 25.136008924526
716 2 -1.200000000000 64.084500000000 6.417704406262 25.136008924526
717 2 -1.200000000000 61.357500000000 8.556939208349 21.927156721395
718 2 -1.200000000000 64.084500000000 8.556939208349 21.927156721395
719 2 -1.200000000000 61.357500000000 9.091747908871 24.601200224004
720 2 -1.200000000000 64.084500000000 9.091747908871 24.601200224004
721 1 2.400000000000 0.000000000000 5.348087005218 26.740435026091
722 1 2.400000000000 2.727000000000 5.882895705740 1.604426101565
723 1 2.400000000000 2.727000000000 8.022130507827 26.205626325570
724 1 2.400000000000 0.000000000000 8.556939208349 1.069617401044
725 2 -1.200000000000 1.363500000000 6.952513106784 0.000000000000
726 2 -1.200000000000 4.090500000000 6.952513106784 0.000000000000
727 2 -1.200000000000 1.363500000000 7.487321807306 2.674043502609
728 2 -1.200000000000 4.090500000000 7.487321807306 2.674043502609
729 2 -1.200000000000 1.363500000000 9.626556609393 27.275243726613
730 2 -1.200000000000 4.090500000000 9.626556609393 27.275243726613
731 2 -1.200000000000 1.363500000000 10.161365309915 2.139234802087
732 2 -1.200000000000 4.090500000000 10.161365309915 2.139234802087
733 1 2.400000000000 5.454000000000 5.348087005218 26.740435026091
734 1 2.400000000000 8.181000000000 5.882895705740 1.604426101565
735 1 2.400000000000 8.181000000000 8.022130507827 26.205626325570
736 1 2.400000000000 5.454000000000 8.556939208349 1.069617401044
737 2 -1.200000000000 6.817500000000 6.952513106784 0.000000000000
738 2 -1.200000000000 9.544500000000 6.952513106784 0.000000000000
739 2 -1.200000000000 6.817500000000 7.487321807306 2.674043502609
740 2 -1.200000000000 9.544500000000 7.487321807306 2.674043502609
741 2 -1.200000000000 6.817500000000 9.626556609393 27.275243726613
742 2 -1.200000000000 9.544500000000 9.626556609393 27.275243726613
743 2 -1.200000000000 6.817500000000 10.161365309915 2.139234802087
744 2 -1.200000000000 9.544500000000 10.161365309915 2.139234802087
745 1 2.400000000000 10.908000000000 5.348087005218 26.740435026091
746 1 2.400000000000 13.635000000000 5.882895705740 1.604426101565
747 1 2.400000000000 13.635000000000 8.022130507827 26.205626325570
748 1 2.400000000000 10.908000000000 8.556939208349 1.069617401044
749 2 -1.200000000000 12.271500000000 6.952513106784 0.000000000000
750 2 -1.200000000000 14.998500000000 6.952513106784 0.000000000000
751 2 -1.200000000000 12.271500000000 7.487321807306 2.674043502609
752 2 -1.200000000000 14.998500000000 7.487321807306 2.674043502609
753 2 -1.200000000000 12.271500000000 9.626556609393 27.275243726613
754 2 -1.200000000000 14.998500000000 9.626556609393 27.275243726613
755 2 -1.200000000000 12.271500000000 10.161365309915 2.139234802087
756 2 -1.200000000000 14.998500000000 10.161365309915 2.139234802087
757 1 2.400000000000 16.362000000000 5.348087005218 26.740435026091
758 1 2.400000000000 19.089000000000 5.882895705740 1.604426101565
759 1 2.400000000000 19.089000000000 8.022130507827 26.205626325570
760 1 2.400000000000 16.362000000000 8.556939208349 1.069617401044
761 2 -1.200000000000 17.725500000000 6.952513106784 0.000000000000
762 2 -1.200000000000 20.452500000000 6.952513106784 0.000000000000
763 2 -1.200000000000 17.725500000000 7.487321807306 2.674043502609
764 2 -1.200000000000 20.452500000000 7.487321807306 2.674043502609
765 2 -1.200000000000 17.725500000000 9.626556609393 27.275243726613
766 2 -1.200000000000 20.452500000000 9.626556609393 27.275243726613
767 2 -1.200000000000 17.725500000000 10.161365309915 2.139234802087
768 2 -1.200000000000 20.452500000000 10.161365309915 2.139234802087
769 1 2.400000000000 21.816000000000 5.348087005218 26.740435026091
770 1 2.400000000000 24.543000000000 5.882895705740 1.604426101565
771 1 2.400000000000 24.543000000000 8.022130507827 26.205626325570
772 1 2.400000000000 21.816000000000 8.556939208349 1.069617401044
773 2 -1.200000000000 23.179500000000 6.952513106784 0.000000000000
774 2 -1.200000000000 25.906500000000 6.952513106784 0.000000000000
775 2 -1.200000000000 23.179500000000 7.487321807306 2.674043502609
776 2 -1.200000000000 25.906500000000 7.487321807306 2.674043502609
777 2 -1.200000000000 23.179500000000 9.626556609393 27.275243726613
778 2 -1.200000000000 25.906500000000 9.626556609393 27.275243726613
779 2 -1.200000000000 23.179500000000 10.161365309915 2.139234802087
780 2 -1.200000000000 25.906500000000 10.161365309915 2.139234802087
781 1 2.400000000000 27.270000000000 5.348087005218 26.740435026091
782 1 2.400000000000 29.997000000000 5.882895705740 1.604426101565
783 1 2.400000000000 29.997000000000 8.022130507827 26.205626325570
784 1 2.400000000000 27.270000000000 8.556939208349 1.069617401044
785 2 -1.200000000000 28.633500000000 6.952513106784 0.000000000000
786 2 -1.200000000000 31.360500000000 6.952513106784 0.000000000000
787 2 -1.200000000000 28.633500000000 7.487321807306 2.674043502609
788 2 -1.200000000000 31.360500000000 7.487321807306 2.674043502609
789 2 -1.200000000000 28.633500000000 9.626556609393 27.275243726613
790 2 -1.200000000000 31.360500000000 9.626556609393 27.275243726613
791 2 -1.200000000000 28.633500000000 10.161365309915 2.139234802087
792 2 -1.200000000000 31.360500000000 10.161365309915 2.139234802087
793 1 2.400000000000 32.724000000000 5.348087005218 26.740435026091
794 1 2.400000000000 35.451000000000 5.882895705740 1.604426101565
795 1 2.400000000000 35.451000000000 8.022130507827 26.205626325570
796 1 2.400000000000 32.724000000000 8.556939208349 1.069617401044
797 2 -1.200000000000 34.087500000000 6.952513106784 0.000000000000
798 2 -1.200000000000 36.814500000000 6.952513106784 0.000000000000
799 2 -1.200000000000 34.087500000000 7.487321807306 2.674043502609
800 2 -1.200000000000 36.814500000000 7.487321807306 2.674043502609
801 2 -1.200000000000 34.087500000000 9.626556609393 27.275243726613
802 2 -1.200000000000 36.814500000000 9.626556609393 27.275243726613
803 2 -1.200000000000 34.087500000000 10.161365309915 2.139234802087
804 2 -1.200000000000 36.814500000000 10.161365309915 2.139234802087
805 1 2.400000000000 38.178000000000 5.348087005218 26.740435026091
806 1 2.400000000000 40.905000000000 5.882895705740 1.604426101565
807 1 2.400000000000 40.905000000000 8.022130507827 26.205626325570
808 1 2.400000000000 38.178000000000 8.556939208349 1.069617401044
809 2 -1.200000000000 39.541500000000 6.952513106784 0.000000000000
810 2 -1.200000000000 42.268500000000 6.952513106784 0.000000000000
811 2 -1.200000000000 39.541500000000 7.487321807306 2.674043502609
812 2 -1.200000000000 42.268500000000 7.487321807306 2.674043502609
813 2 -1.200000000000 39.541500000000 9.626556609393 27.275243726613
814 2 -1.200000000000 42.268500000000 9.626556609393 27.275243726613
815 2 -1.200000000000 39.541500000000 10.161365309915 2.139234802087
816 2 -1.200000000000 42.268500000000 10.161365309915 2.139234802087
817 1 2.400000000000 43.632000000000 5.348087005218 26.740435026091
818 1 2.400000000000 46.359000000000 5.882895705740 1.604426101565
819 1 2.400000000000 46.359000000000 8.022130507827 26.205626325570
820 1 2.400000000000 43.632000000000 8.556939208349 1.069617401044
821 2 -1.200000000000 44.995500000000 6.952513106784 0.000000000000
822 2 -1.200000000000 47.722500000000 6.952513106784 0.000000000000
823 2 -1.200000000000 44.995500000000 7.487321807306 2.674043502609
824 2 -1.200000000000 47.722500000000 7.487321807306 2.674043502609
825 2 -1.200000000000 44.995500000000 9.626556609393 27.275243726613
826 2 -1.200000000000 47.722500000000 9.626556609393 27.275243726613
827 2 -1.200000000000 44.995500000000 10.161365309915 2.139234802087
828 2 -1.200000000000 47.722500000000 10.161365309915 2.139234802087
829 1 2.400000000000 49.086000000000 5.348087005218 26.740435026091
830 1 2.400000000000 51.813000000000 5.882895705740 1.604426101565
831 1 2.400000000000 51.813000000000 8.022130507827 26.205626325570
832 1 2.400000000000 49.086000000000 8.556939208349 1.069617401044
833 2 -1.200000000000 50.449500000000 6.952513106784 0.000000000000
834 2 -1.200000000000 53.176500000000 6.952513106784 0.000000000000
835 2 -1.200000000000 50.449500000000 7.487321807306 2.674043502609
836 2 -1.200000000000 53.176500000000 7.487321807306 2.674043502609
837 2 -1.200000000000 50.449500000000 9.626556609393 27.275243726613
838 2 -1.200000000000 53.176500000000 9.626556609393 27.275243726613
839 2 -1.200000000000 50.449500000000 10.161365309915 2.139234802087
840 2 -1.200000000000 53.176500000000 10.161365309915 2.139234802087
841 1 2.400000000000 54.540000000000 5.348087005218 26.740435026091
842 1 2.400000000000 57.267000000000 5.882895705740 1.604426101565
843 1 2.400000000000 57.267000000000 8.022130507827 26.205626325570
844 1 2.400000000000 54.540000000000 8.556939208349 1.069617401044
845 2 -1.200000000000 55.903500000000 6.952513106784 0.000000000000
846 2 -1.200000000000 58.630500000000 6.952513106784 0.000000000000
847 2 -1.200000000000 55.903500000000 7.487321807306 2.674043502609
848 2 -1.200000000000 58.630500000000 7.487321807306 2.674043502609
849 2 -1.200000000000 55.903500000000 9.626556609393 27.275243726613
850 2 -1.200000000000 58.630500000000 9.626556609393 27.275243726613
851 2 -1.200000000000 55.903500000000 10.161365309915 2.139234802087
852 2 -1.200000000000 58.630500000000 10.161365309915 2.139234802087
853 1 2.400000000000 59.994000000000 5.348087005218 26.740435026091
854 1 2.400000000000 62.721000000000 5.882895705740 1.604426101565
855 1 2.400000000000 62.721000000000 8.022130507827 26.205626325570
856 1 2.400000000000 59.994000000000 8.556939208349 1.069617401044
857 2 -1.200000000000 61.357500000000 6.952513106784 0.000000000000
858 2 -1.200000000000 64.084500000000 6.952513106784 0.000000000000
859 2 -1.200000000000 61.357500000000 7.487321807306 2.674043502609
860 2 -1.200000000000 64.084500000000 7.487321807306 2.674043502609
861 2 -1.200000000000 61.357500000000 9.626556609393 27.275243726613
862 2 -1.200000000000 64.084500000000 9.626556609393 27.275243726613
863 2 -1.200000000000 61.357500000000 10.161365309915 2.139234802087
864 2 -1.200000000000 64.084500000000 10.161365309915 2.139234802087
865 1 2.400000000000 0.000000000000 6.417704406262 4.278469604175
866 1 2.400000000000 2.727000000000 6.952513106784 6.952513106784
867 1 2.400000000000 2.727000000000 9.091747908871 3.743660903653
868 1 2.400000000000 0.000000000000 9.626556609393 6.417704406262
869 2 -1.200000000000 1.363500000000 8.022130507827 5.348087005218
870 2 -1.200000000000 4.090500000000 8.022130507827 5.348087005218
871 2 -1.200000000000 1.363500000000 8.556939208349 8.022130507827
872 2 -1.200000000000 4.090500000000 8.556939208349 8.022130507827
873 2 -1.200000000000 1.363500000000 10.696174010437 4.813278304696
874 2 -1.200000000000 4.090500000000 10.696174010437 4.813278304696
875 2 -1.200000000000 1.363500000000 11.230982710958 7.487321807306
876 2 -1.200000000000 4.090500000000 11.230982710958 7.487321807306
877 1 2.400000000000 5.454000000000 6.417704406262 4.278469604175
878 1 2.400000000000 8.181000000000 6.952513106784 6.952513106784
879 1 2.400000000000 8.181000000000 9.091747908871 3.743660903653
880 1 2.400000000000 5.454000000000 9.626556609393 6.417704406262
881 2 -1.200000000000 6.817500000000 8.022130507827 5.348087005218
882 2 -1.200000000000 9.544500000000 8.022130507827 5.348087005218
883 2 -1.200000000000 6.817500000000 8.556939208349 8.022130507827
884 2 -1.200000000000 9.544500000000 8.556939208349 8.022130507827
885 2 -1.200000000000 6.817500000000 10.696174010437 4.813278304696
886 2 -1.200000000000 9.544500000000 10.696174010437 4.813278304696
887 2 -1.200000000000 6.817500000000 11.230982710958 7.487321807306
888 2 -1.200000000000 9.544500000000 11.230982710958 7.487321807306
889 1 2.400000000000 10.908000000000 6.417704406262 4.278469604175
890 1 2.400000000000 13.635000000000 6.952513106784 6.952513106784
891 1 2.400000000000 13.635000000000 9.091747908871 3.743660903653
892 1 2.400000000000 10.908000000000 9.626556609393 6.417704406262
893 2 -1.200000000000 12.271500000000 8.022130507827 5.348087005218
894 2 -1.200000000000 14.998500000000 8.022130507827 5.348087005218
895 2 -1.200000000000 12.271500000000 8.556939208349 8.022130507827
896 2 -1.200000000000 14.998500000000 8.556939208349 8.022130507827
897 2 -1.200000000000 12.271500000000 10.696174010437 4.813278304696
898 2 -1.200000000000 14.998500000000 10.696174010437 4.813278304696
899 2 -1.200000000000 12.271500000000 11.230982710958 7.487321807306
900 2 -1.200000000000 14.998500000000 11.230982710958 7.487321807306
901 1 2.400000000000 16.362000000000 6.417704406262 4.278469604175
902 1 2.400000000000 19.089000000000 6.952513106784 6.952513106784
903 1 2.400000000000 19.089000000000 9.091747908871 3.743660903653
904 1 2.400000000000 16.362000000000 9.626556609393 6.417704406262
905 2 -1.200000000000 17.725500000000 8.022130507827 5.348087005218
906 2 -1.200000000000 20.452500000000 8.022130507827 5.348087005218
907 2 -1.200000000000 17.725500000000 8.556939208349 8.022130507827
908 2 -1.200000000000 20.452500000000 8.556939208349 8.022130507827
909 2 -1.200000000000 17.725500000000 10.696174010437 4.813278304696
910 2 -1.200000000000 20.452500000000 10.696174010437 4.813278304696
911 2 -1.200000000000 17.725500000000 11.230982710958 7.487321807306
912 2 -1.200000000000 20.452500000000 11.230982710958 7.487321807306
913 1 2.400000000000 21.816000000000 6.417704406262 4.278469604175
914 1 2.400000000000 24.543000000000 6.952513106784 6.952513106784
915 1 2.400000000000 24.543000000000 9.091747908871 3.743660903653
916 1 2.400000000000 21.816000000000 9.626556609393 6.417704406262
917 2 -1.200000000000 23.179500000000 8.022130507827 5.348087005218
918 2 -1.200000000000 25.906500000000 8.022130507827 5.348087005218
919 2 -1.200000000000 23.179500000000 8.556939208349 8.022130507827
920 2 -1.200000000000 25.906500000000 8.556939208349 8.022130507827
921 2 -1.200000000000 23.179500000000 10.696174010437 4.813278304696
922 2 -1.200000000000 25.906500000000 10.696174010437 4.813278304696
923 2 -1.200000000000 23.179500000000 11.230982710958 7.487321807306
924 2 -1.200000000000 25.906500000000 11.230982710958 7.487321807306
925 1 2.400000000000 27.270000000000 6.417704406262 4.278469604175
926 1 2.400000000000 29.997000000000 6.952513106784 6.952513106784
927 1 2.400000000000 29.997000000000 9.091747908871 3.743660903653
928 1 2.400000000000 27.270000000000 9.626556609393 6.417704406262
929 2 -1.200000000000 28.633500000000 8.022130507827 5.348087005218
930 2 -1.200000000000 31.360500000000 8.022130507827 5.348087005218
931 2 -1.200000000000 28.633500000000 8.556939208349 8.022130507827
932 2 -1.200000000000 31.360500000000 8.556939208349 8.022130507827
933 2 -1.200000000000 28.633500000000 10.696174010437 4.813278304696
934 2 -1.200000000000 31.360500000000 10.696174010437 4.813278304696
935 2 -1.200000000000 28.633500000000 11.230982710958 7.487321807306
936 2 -1.200000000000 31.360500000000 11.230982710958 7.487321807306
937 1 2.400000000000 32.724000000000 6.417704406262 4.278469604175
938 1 2.400000000000 35.451000000000 6.952513106784 6.952513106784
939 1 2.400000000000 35.451000000000 9.091747908871 3.743660903653
940 1 2.400000000000 32.724000000000 9.626556609393 6.417704406262
941 2 -1.200000000000 34.087500000000 8.022130507827 5.348087005218
942 2 -1.200000000000 36.814500000000 8.022130507827 5.348087005218
943 2 -1.200000000000 34.087500000000 8.556939208349 8.022130507827
944 2 -1.200000000000 36.814500000000 8.556939208349 8.022130507827
945 2 -1.200000000000 34.087500000000 10.696174010437 4.813278304696
946 2 -1.200000000000 36.814500000000 10.696174010437 4.813278304696
947 2 -1.200000000000 34.087500000000 11.230982710958 7.487321807306
948 2 -1.200000000000 36.814500000000 11.230982710958 7.487321807306
949 1 2.400000000000 38.178000000000 6.417704406262 4.278469604175
950 1 2.400000000000 40.905000000000 6.952513106784 6.952513106784
951 1 2.400000000000 40.905000000000 9.091747908871 3.743660903653
952 1 2.400000000000 38.178000000000 9.626556609393 6.417704406262
953 2 -1.200000000000 39.541500000000 8.022130507827 5.348087005218
954 2 -1.200000000000 42.268500000000 8.022130507827 5.348087005218
955 2 -1.200000000000 39.541500000000 8.556939208349 8.022130507827
956 2 -1.200000000000 42.268500000000 8.556939208349 8.022130507827
957 2 -1.200000000000 39.541500000000 10.696174010437 4.813278304696
958 2 -1.200000000000 42.268500000000 10.696174010437 4.813278304696
959 2 -1.200000000000 39.541500000000 11.230982710958 7.487321807306
960 2 -1.200000000000 42.268500000000 11.230982710958 7.487321807306
961 1 2.400000000000 43.632000000000 6.417704406262 4.278469604175
962 1 2.400000000000 46.359000000000 6.952513106784 6.952513106784
963 1 2.400000000000 46.359000000000 9.091747908871 3.743660903653
964 1 2.400000000000 43.632000000000 9.626556609393 6.417704406262
965 2 -1.200000000000 44.995500000000 8.022130507827 5.348087005218
966 2 -1.200000000000 47.722500000000 8.022130507827 5.348087005218
967 2 -1.200000000000 44.995500000000 8.556939208349 8.022130507827
968 2 -1.200000000000 47.722500000000 8.556939208349 8.022130507827
969 2 -1.200000000000 44.995500000000 10.696174010437 4.813278304696
970 2 -1.200000000000 47.722500000000 10.696174010437 4.813278304696
971 2 -1.200000000000 44.995500000000 11.230982710958 7.487321807306
972 2 -1.200000000000 47.722500000000 11.230982710958 7.487321807306
973 1 2.400000000000 49.086000000000 6.417704406262 4.278469604175
974 1 2.400000000000 51.813000000000 6.952513106784 6.952513106784
975 1 2.400000000000 51.813000000000 9.091747908871 3.743660903653
976 1 2.400000000000 49.086000000000 9.626556609393 6.417704406262
977 2 -1.200000000000 50.449500000000 8.022130507827 5.348087005218
978 2 -1.200000000000 53.176500000000 8.022130507827 5.348087005218
979 2 -1.200000000000 50.449500000000 8.556939208349 8.022130507827
980 2 -1.200000000000 53.176500000000 8.556939208349 8.022130507827
981 2 -1.200000000000 50.449500000000 10.696174010437 4.813278304696
982 2 -1.200000000000 53.176500000000 10.696174010437 4.813278304696
983 2 -1.200000000000 50.449500000000 11.230982710958 7.487321807306
984 2 -1.200000000000 53.176500000000 11.230982710958 7.487321807306
985 1 2.400000000000 54.540000000000 6.417704406262 4.278469604175
986 1 2.400000000000 57.267000000000 6.952513106784 6.952513106784
987 1 2.400000000000 57.267000000000 9.091747908871 3.743660903653
988 1 2.400000000000 54.540000000000 9.626556609393 6.417704406262
989 2 -1.200000000000 55.903500000000 8.022130507827 5.348087005218
990 2 -1.200000000000 58.630500000000 8.022130507827 5.348087005218
991 2 -1.200000000000 55.903500000000 8.556939208349 8.022130507827
992 2 -1.200000000000 58.630500000000 8.556939208349 8.022130507827
993 2 -1.200000000000 55.903500000000 10.696174010437 4.813278304696
994 2 -1.200000000000 58.630500000000 10.696174010437 4.813278304696
995 2 -1.200000000000 55.903500000000 11.230982710958 7.487321807306
996 2 -1.200000000000 58.630500000000 11.230982710958 7.487321807306
997 1 2.400000000000 59.994000000000 6.417704406262 4.278469604175
998 1 2.400000000000 62.721000000000 6.952513106784 6.952513106784
999 1 2.400000000000 62.721000000000 9.091747908871 3.743660903653
1000 1 2.400000000000 59.994000000000 9.626556609393 6.417704406262
1001 2 -1.200000000000 61.357500000000 8.022130507827 5.348087005218
1002 2 -1.200000000000 64.084500000000 8.022130507827 5.348087005218
1003 2 -1.200000000000 61.357500000000 8.556939208349 8.022130507827
1004 2 -1.200000000000 64.084500000000 8.556939208349 8.022130507827
1005 2 -1.200000000000 61.357500000000 10.696174010437 4.813278304696
1006 2 -1.200000000000 64.084500000000 10.696174010437 4.813278304696
1007 2 -1.200000000000 61.357500000000 11.230982710958 7.487321807306
1008 2 -1.200000000000 64.084500000000 11.230982710958 7.487321807306
1009 1 2.400000000000 0.000000000000 7.487321807306 9.626556609393
1010 1 2.400000000000 2.727000000000 8.022130507827 12.300600112002
1011 1 2.400000000000 2.727000000000 10.161365309915 9.091747908871
1012 1 2.400000000000 0.000000000000 10.696174010437 11.765791411480
1013 2 -1.200000000000 1.363500000000 9.091747908871 10.696174010437
1014 2 -1.200000000000 4.090500000000 9.091747908871 10.696174010437
1015 2 -1.200000000000 1.363500000000 9.626556609393 13.370217513046
1016 2 -1.200000000000 4.090500000000 9.626556609393 13.370217513046
1017 2 -1.200000000000 1.363500000000 11.765791411480 10.161365309915
1018 2 -1.200000000000 4.090500000000 11.765791411480 10.161365309915
1019 2 -1.200000000000 1.363500000000 12.300600112002 12.835408812524
1020 2 -1.200000000000 4.090500000000 12.300600112002 12.835408812524
1021 1 2.400000000000 5.454000000000 7.487321807306 9.626556609393
1022 1 2.400000000000 8.181000000000 8.022130507827 12.300600112002
1023 1 2.400000000000 8.181000000000 10.161365309915 9.091747908871
1024 1 2.400000000000 5.454000000000 10.696174010437 11.765791411480
1025 2 -1.200000000000 6.817500000000 9.091747908871 10.696174010437
1026 2 -1.200000000000 9.544500000000 9.091747908871 10.696174010437
1027 2 -1.200000000000 6.817500000000 9.626556609393 13.370217513046
1028 2 -1.200000000000 9.544500000000 9.626556609393 13.370217513046
1029 2 -1.200000000000 6.817500000000 11.765791411480 10.161365309915
1030 2 -1.200000000000 9.544500000000 11.765791411480 10.161365309915
1031 2 -1.200000000000 6.817500000000 12.300600112002 12.835408812524
1032 2 -1.200000000000 9.544500000000 12.300600112002 12.835408812524
1033 1 2.400000000000 10.908000000000 7.487321807306 9.626556609393
1034 1 2.400000000000 13.635000000000 8.022130507827 12.300600112002
1035 1 2.400000000000 13.635000000000 10.161365309915 9.091747908871
1036 1 2.400000000000 10.908000000000 10.696174010437 11.765791411480
1037 2 -1.200000000000 12.271500000000 9.091747908871 10.696174010437
1038 2 -1.200000000000 14.998500000000 9.091747908871 10.696174010437
1039 2 -1.200000000000 12.271500000000 9.626556609393 13.370217513046
1040 2 -1.200000000000 14.998500000000 9.626556609393 13.370217513046
1041 2 -1.200000000000 12.271500000000 11.765791411480 10.161365309915
1042 2 -1.200000000000 14.998500000000 11.765791411480 10.161365309915
1043 2 -1.200000000000 12.271500000000 12.300600112002 12.835408812524
1044 2 -1.200000000000 14.998500000000 12.300600112002 12.835408812524
1045 1 2.400000000000 16.362000000000 7.487321807306 9.626556609393
1046 1 2.400000000000 19.089000000000 8.022130507827 12.300600112002
1047 1 2.400000000000 19.089000000000 10.161365309915 9.091747908871
1048 1 2.400000000000 16.362000000000 10.696174010437 11.765791411480
1049 2 -1.200000000000 17.725500000000 9.091747908871 10.696174010437
1050 2 -1.200000000000 20.452500000000 9.091747908871 10.696174010437
1051 2 -1.200000000000 17.725500000000 9.626556609393 13.370217513046
1052 2 -1.200000000000 20.452500000000 9.626556609393 13.370217513046
1053 2 -1.200000000000 17.725500000000 11.765791411480 10.161365309915
1054 2 -1.200000000000 20.452500000000 11.765791411480 10.161365309915
1055 2 -1.200000000000 17.725500000000 12.300600112002 12.835408812524
1056 2 -1.200000000000 20.452500000000 12.300600112002 12.835408812524
1057 1 2.400000000000 21.816000000000 7.487321807306 9.626556609393
1058 1 2.400000000000 24.543000000000 8.022130507827 12.300600112002
1059 1 2.400000000000 24.543000000000 10.161365309915 9.091747908871
1060 1 2.400000000000 21.816000000000 10.696174010437 11.765791411480
1061 2 -1.200000000000 23.179500000000 9.091747908871 10.696174010437
1062 2 -1.200000000000 25.906500000000 9.091747908871 10.696174010437
1063 2 -1.200000000000 23.179500000000 9.626556609393 13.370217513046
1064 2 -1.200000000000 25.906500000000 9.626556609393 13.370217513046
1065 2 -1.200000000000 23.179500000000 11.765791411480 10.161365309915
1066 2 -1.200000000000 25.906500000000 11.765791411480 10.161365309915
1067 2 -1.200000000000 23.179500000000 12.300600112002 12.835408812524
1068 2 -1.200000000000 25.906500000000 12.300600112002 12.835408812524
1069 1 2.400000000000 27.270000000000 7.487321807306 9.626556609393
1070 1 2.400000000000 29.997000000000 8.022130507827 12.300600112002
1071 1 2.400000000000 29.997000000000 10.161365309915 9.091747908871
1072 1 2.400000000000 27.270000000000 10.696174010437 11.765791411480
1073 2 -1.200000000000 28.633500000000 9.091747908871 10.696174010437
1074 2 -1.200000000000 31.360500000000 9.091747908871 10.696174010437
1075 2 -1.200000000000 28.633500000000 9.626556609393 13.370217513046
1076 2 -1.200000000000 31.360500000000 9.626556609393 13.370217513046
1077 2 -1.200000000000 28.633500000000 11.765791411480 10.161365309915
1078 2 -1.200000000000 31.360500000000 11.765791411480 10.161365309915
1079 2 -1.200000000000 28.633500000000 12.300600112002 12.835408812524
1080 2 -1.200000000000 31.360500000000 12.300600112002 12.835408812524
1081 1 2.400000000000 32.724000000000 7.487321807306 9.626556609393
1082 1 2.400000000000 35.451000000000 8.022130507827 12.300600112002
1083 1 2.400000000000 35.451000000000 10.161365309915 9.091747908871
1084 1 2.400000000000 32.724000000000 10.696174010437 11.765791411480
1085 2 -1.200000000000 34.087500000000 9.091747908871 10.696174010437
1086 2 -1.200000000000 36.814500000000 9.091747908871 10.696174010437
1087 2 -1.200000000000 34.087500000000 9.626556609393 13.370217513046
1088 2 -1.200000000000 36.814500000000 9.626556609393 13.370217513046
1089 2 -1.200000000000 34.087500000000 11.765791411480 10.161365309915
1090 2 -1.200000000000 36.814500000000 11.765791411480 10.161365309915
1091 2 -1.200000000000 34.087500000000 12.300600112002 12.835408812524
1092 2 -1.200000000000 36.814500000000 12.300600112002 12.835408812524
1093 1 2.400000000000 38.178000000000 7.487321807306 9.626556609393
1094 1 2.400000000000 40.905000000000 8.022130507827 12.300600112002
1095 1 2.400000000000 40.905000000000 10.161365309915 9.091747908871
1096 1 2.400000000000 38.178000000000 10.696174010437 11.765791411480
1097 2 -1.200000000000 39.541500000000 9.091747908871 10.696174010437
1098 2 -1.200000000000 42.268500000000 9.091747908871 10.696174010437
1099 2 -1.200000000000 39.541500000000 9.626556609393 13.370217513046
1100 2 -1.200000000000 42.268500000000 9.626556609393 13.370217513046
1101 2 -1.200000000000 39.541500000000 11.765791411480 10.161365309915
1102 2 -1.200000000000 42.268500000000 11.765791411480 10.161365309915
1103 2 -1.200000000000 39.541500000000 12.300600112002 12.835408812524
1104 2 -1.200000000000 42.268500000000 12.300600112002 12.835408812524
1105 1 2.400000000000 43.632000000000 7.487321807306 9.626556609393
1106 1 2.400000000000 46.359000000000 8.022130507827 12.300600112002
1107 1 2.400000000000 46.359000000000 10.161365309915 9.091747908871
1108 1 2.400000000000 43.632000000000 10.696174010437 11.765791411480
1109 2 -1.200000000000 44.995500000000 9.091747908871 10.696174010437
1110 2 -1.200000000000 47.722500000000 9.091747908871 10.696174010437
1111 2 -1.200000000000 44.995500000000 9.626556609393 13.370217513046
1112 2 -1.200000000000 47.722500000000 9.626556609393 13.370217513046
1113 2 -1.200000000000 44.995500000000 11.765791411480 10.161365309915
1114 2 -1.200000000000 47.722500000000 11.765791411480 10.161365309915
1115 2 -1.200000000000 44.995500000000 12.300600112002 12.835408812524
1116 2 -1.200000000000 47.722500000000 12.300600112002 12.835408812524
1117 1 2.400000000000 49.086000000000 7.487321807306 9.626556609393
1118 1 2.400000000000 51.813000000000 8.022130507827 12.300600112002
1119 1 2.400000000000 51.813000000000 10.161365309915 9.091747908871
1120 1 2.400000000000 49.086000000000 10.696174010437 11.765791411480
1121 2 -1.200000000000 50.449500000000 9.091747908871 10.696174010437
1122 2 -1.200000000000 53.176500000000 9.091747908871 10.696174010437
1123 2 -1.200000000000 50.449500000000 9.626556609393 13.370217513046
1124 2 -1.200000000000 53.176500000000 9.626556609393 13.370217513046
1125 2 -1.200000000000 50.449500000000 11.765791411480 10.161365309915
1126 2 -1.200000000000 53.176500000000 11.765791411480 10.161365309915
1127 2 -1.200000000000 50.449500000000 12.300600112002 12.835408812524
1128 2 -1.200000000000 53.176500000000 12.300600112002 12.835408812524
1129 1 2.400000000000 54.540000000000 7.487321807306 9.626556609393
1130 1 2.400000000000 57.267000000000 8.022130507827 12.300600112002
1131 1 2.400000000000 57.267000000000 10.161365309915 9.091747908871
1132 1 2.400000000000 54.540000000000 10.696174010437 11.765791411480
1133 2 -1.200000000000 55.903500000000 9.091747908871 10.696174010437
1134 2 -1.200000000000 58.630500000000 9.091747908871 10.696174010437
1135 2 -1.200000000000 55.903500000000 9.626556609393 13.370217513046
1136 2 -1.200000000000 58.630500000000 9.626556609393 13.370217513046
1137 2 -1.200000000000 55.903500000000 11.765791411480 10.161365309915
1138 2 -1.200000000000 58.630500000000 11.765791411480 10.161365309915
1139 2 -1.200000000000 55.903500000000 12.300600112002 12.835408812524
1140 2 -1.200000000000 58.630500000000 12.300600112002 12.835408812524
1141 1 2.400000000000 59.994000000000 7.487321807306 9.626556609393
1142 1 2.400000000000 62.721000000000 8.022130507827 12.300600112002
1143 1 2.400000000000 62.721000000000 10.161365309915 9.091747908871
1144 1 2.400000000000 59.994000000000 10.696174010437 11.765791411480
1145 2 -1.200000000000 61.357500000000 9.091747908871 10.696174010437
1146 2 -1.200000000000 64.084500000000 9.091747908871 10.696174010437
1147 2 -1.200000000000 61.357500000000 9.626556609393 13.370217513046
1148 2 -1.200000000000 64.084500000000 9.626556609393 13.370217513046
1149 2 -1.200000000000 61.357500000000 11.765791411480 10.161365309915
1150 2 -1.200000000000 64.084500000000 11.765791411480 10.161365309915
1151 2 -1.200000000000 61.357500000000 12.300600112002 12.835408812524
1152 2 -1.200000000000 64.084500000000 12.300600112002 12.835408812524
1153 1 2.400000000000 0.000000000000 8.556939208349 14.974643614611
1154 1 2.400000000000 2.727000000000 9.091747908871 17.648687117220
1155 1 2.400000000000 2.727000000000 11.230982710958 14.439834914089
1156 1 2.400000000000 0.000000000000 11.765791411480 17.113878416698
1157 2 -1.200000000000 1.363500000000 10.161365309915 16.044261015655
1158 2 -1.200000000000 4.090500000000 10.161365309915 16.044261015655
1159 2 -1.200000000000 1.363500000000 10.696174010437 18.718304518264
1160 2 -1.200000000000 4.090500000000 10.696174010437 18.718304518264
1161 2 -1.200000000000 1.363500000000 12.835408812524 15.509452315133
1162 2 -1.200000000000 4.090500000000 12.835408812524 15.509452315133
1163 2 -1.200000000000 1.363500000000 13.370217513046 18.183495817742
1164 2 -1.200000000000 4.090500000000 13.370217513046 18.183495817742
1165 1 2.400000000000 5.454000000000 8.556939208349 14.974643614611
1166 1 2.400000000000 8.181000000000 9.091747908871 17.648687117220
1167 1 2.400000000000 8.181000000000 11.230982710958 14.439834914089
1168 1 2.400000000000 5.454000000000 11.765791411480 17.113878416698
1169 2 -1.200000000000 6.817500000000 10.161365309915 16.044261015655
1170 2 -1.200000000000 9.544500000000 10.161365309915 16.044261015655
1171 2 -1.200000000000 6.817500000000 10.696174010437 18.718304518264
1172 2 -1.200000000000 9.544500000000 10.696174010437 18.718304518264
1173 2 -1.200000000000 6.817500000000 12.835408812524 15.509452315133
1174 2 -1.200000000000 9.544500000000 12.835408812524 15.509452315133
1175 2 -1.200000000000 6.817500000000 13.370217513046 18.183495817742
1176 2 -1.200000000000 9.544500000000 13.370217513046 18.183495817742
1177 1 2.400000000000 10.908000000000 8.556939208349 14.974643614611
1178 1 2.400000000000 13.635000000000 9.091747908871 17.648687117220
1179 1 2.400000000000 13.635000000000 11.230982710958 14.439834914089
1180 1 2.400000000000 10.908000000000 11.765791411480 17.113878416698
1181 2 -1.200000000000 12.271500000000 10.161365309915 16.044261015655
1182 2 -1.200000000000 14.998500000000 10.161365309915 16.044261015655
1183 2 -1.200000000000 12.271500000000 10.696174010437 18.718304518264
1184 2 -1.200000000000 14.998500000000 10.696174010437 18.718304518264
1185 2 -1.200000000000 12.271500000000 12.835408812524 15.509452315133
1186 2 -1.200000000000 14.998500000000 12.835408812524 15.509452315133
1187 2 -1.200000000000 12.271500000000 13.370217513046 18.183495817742
1188 2 -1.200000000000 14.998500000000 13.370217513046 18.183495817742
1189 1 2.400000000000 16.362000000000 8.556939208349 14.974643614611
1190 1 2.400000000000 19.089000000000 9.091747908871 17.648687117220
1191 1 2.400000000000 19.089000000000 11.230982710958 14.439834914089
1192 1 2.400000000000 16.362000000000 11.765791411480 17.113878416698
1193 2 -1.200000000000 17.725500000000 10.161365309915 16.044261015655
1194 2 -1.200000000000 20.452500000000 10.161365309915 16.044261015655
1195 2 -1.200000000000 17.725500000000 10.696174010437 18.718304518264
1196 2 -1.200000000000 20.452500000000 10.696174010437 18.718304518264
1197 2 -1.200000000000 17.725500000000 12.835408812524 15.509452315133
1198 2 -1.200000000000 20.452500000000 12.835408812524 15.509452315133
1199 2 -1.200000000000 17.725500000000 13.370217513046 18.183495817742
1200 2 -1.200000000000 20.452500000000 13.370217513046 18.183495817742
1201 1 2.400000000000 21.816000000000 8.556939208349 14.974643614611
1202 1 2.400000000000 24.543000000000 9.091747908871 17.648687117220
1203 1 2.400000000000 24.543000000000 11.230982710958 14.439834914089
1204 1 2.400000000000 21.816000000000 11.765791411480 17.113878416698
1205 2 -1.200000000000 23.179500000000 10.161365309915 16.044261015655
1206 2 -1.200000000000 25.906500000000 10.161365309915 16.044261015655
1207 2 -1.200000000000 23.179500000000 10.696174010437 18.718304518264
1208 2 -1.200000000000 25.906500000000 10.696174010437 18.718304518264
1209 2 -1.200000000000 23.179500000000 12.835408812524 15.509452315133
1210 2 -1.200000000000 25.906500000000 12.835408812524 15.509452315133
1211 2 -1.200000000000 23.179500000000 13.370217513046 18.183495817742
1212 2 -1.200000000000 25.906500000000 13.370217513046 18.183495817742
1213 1 2.400000000000 27.270000000000 8.556939208349 14.974643614611
1214 1 2.400000000000 29.997000000000 9.091747908871 17.648687117220
1215 1 2.400000000000 29.997000000000 11.230982710958 14.439834914089
1216 1 2.400000000000 27.270000000000 11.765791411480 17.113878416698
1217 2 -1.200000000000 28.633500000000 10.161365309915 16.044261015655
1218 2 -1.200000000000 31.360500000000 10.161365309915 16.044261015655
1219 2 -1.200000000000 28.633500000000 10.696174010437 18.718304518264
1220 2 -1.200000000000 31.360500000000 10.696174010437 18.718304518264
1221 2 -1.200000000000 28.633500000000 12.835408812524 15.509452315133
1222 2 -1.200000000000 31.360500000000 12.835408812524 15.509452315133
1223 2 -1.200000000000 28.633500000000 13.370217513046 18.183495817742
1224 2 -1.200000000000 31.360500000000 13.370217513046 18.183495817742
1225 1 2.400000000000 32.724000000000 8.556939208349 14.974643614611
1226 1 2.400000000000 35.451000000000 9.091747908871 17.648687117220
1227 1 2.400000000000 35.451000000000 11.230982710958 14.439834914089
1228 1 2.400000000000 32.724000000000 11.765791411480 17.113878416698
1229 2 -1.200000000000 34.087500000000 10.161365309915 16.044261015655
1230 2 -1.200000000000 36.814500000000 10.161365309915 16.044261015655
1231 2 -1.200000000000 34.087500000000 10.696174010437 18.718304518264
1232 2 -1.200000000000 36.814500000000 10.696174010437 18.718304518264
1233 2 -1.200000000000 34.087500000000 12.835408812524 15.509452315133
1234 2 -1.200000000000 36.814500000000 12.835408812524 15.509452315133
1235 2 -1.200000000000 34.087500000000 13.370217513046 18.183495817742
1236 2 -1.200000000000 36.814500000000 13.370217513046 18.183495817742
1237 1 2.400000000000 38.178000000000 8.556939208349 14.974643614611
1238 1 2.400000000000 40.905000000000 9.091747908871 17.648687117220
1239 1 2.400000000000 40.905000000000 11.230982710958 14.439834914089
1240 1 2.400000000000 38.178000000000 11.765791411480 17.113878416698
1241 2 -1.200000000000 39.541500000000 10.161365309915 16.044261015655
1242 2 -1.200000000000 42.268500000000 10.161365309915 16.044261015655
1243 2 -1.200000000000 39.541500000000 10.696174010437 18.718304518264
1244 2 -1.200000000000 42.268500000000 10.696174010437 18.718304518264
1245 2 -1.200000000000 39.541500000000 12.835408812524 15.509452315133
1246 2 -1.200000000000 42.268500000000 12.835408812524 15.509452315133
1247 2 -1.200000000000 39.541500000000 13.370217513046 18.183495817742
1248 2 -1.200000000000 42.268500000000 13.370217513046 18.183495817742
1249 1 2.400000000000 43.632000000000 8.556939208349 14.974643614611
1250 1 2.400000000000 46.359000000000 9.091747908871 17.648687117220
1251 1 2.400000000000 46.359000000000 11.230982710958 14.439834914089
1252 1 2.400000000000 43.632000000000 11.765791411480 17.113878416698
1253 2 -1.200000000000 44.995500000000 10.161365309915 16.044261015655
1254 2 -1.200000000000 47.722500000000 10.161365309915 16.044261015655
1255 2 -1.200000000000 44.995500000000 10.696174010437 18.718304518264
1256 2 -1.200000000000 47.722500000000 10.696174010437 18.718304518264
1257 2 -1.200000000000 44.995500000000 12.835408812524 15.509452315133
1258 2 -1.200000000000 47.722500000000 12.835408812524 15.509452315133
1259 2 -1.200000000000 44.995500000000 13.370217513046 18.183495817742
1260 2 -1.200000000000 47.722500000000 13.370217513046 18.183495817742
1261 1 2.400000000000 49.086000000000 8.556939208349 14.974643614611
1262 1 2.400000000000 51.813000000000 9.091747908871 17.648687117220
1263 1 2.400000000000 51.813000000000 11.230982710958 14.439834914089
1264 1 2.400000000000 49.086000000000 11.765791411480 17.113878416698
1265 2 -1.200000000000 50.449500000000 10.161365309915 16.044261015655
1266 2 -1.200000000000 53.176500000000 10.161365309915 16.044261015655
1267 2 -1.200000000000 50.449500000000 10.696174010437 18.718304518264
1268 2 -1.200000000000 53.176500000000 10.696174010437 18.718304518264
1269 2 -1.200000000000 50.449500000000 12.835408812524 15.509452315133
1270 2 -1.200000000000 53.176500000000 12.835408812524 15.509452315133
1271 2 -1.200000000000 50.449500000000 13.370217513046 18.183495817742
1272 2 -1.200000000000 53.176500000000 13.370217513046 18.183495817742
1273 1 2.400000000000 54.540000000000 8.556939208349 14.974643614611
1274 1 2.400000000000 57.267000000000 9.091747908871 17.648687117220
1275 1 2.400000000000 57.267000000000 11.230982710958 14.439834914089
1276 1 2.400000000000 54.540000000000 11.765791411480 17.113878416698
1277 2 -1.200000000000 55.903500000000 10.161365309915 16.044261015655
1278 2 -1.200000000000 58.630500000000 10.161365309915 16.044261015655
1279 2 -1.200000000000 55.903500000000 10.696174010437 18.718304518264
1280 2 -1.200000000000 58.630500000000 10.696174010437 18.718304518264
1281 2 -1.200000000000 55.903500000000 12.835408812524 15.509452315133
1282 2 -1.200000000000 58.630500000000 12.835408812524 15.509452315133
1283 2 -1.200000000000 55.903500000000 13.370217513046 18.183495817742
1284 2 -1.200000000000 58.630500000000 13.370217513046 18.183495817742
1285 1 2.400000000000 59.994000000000 8.556939208349 14.974643614611
1286 1 2.400000000000 62.721000000000 9.091747908871 17.648687117220
1287 1 2.400000000000 62.721000000000 11.230982710958 14.439834914089
1288 1 2.400000000000 59.994000000000 11.765791411480 17.113878416698
1289 2 -1.200000000000 61.357500000000 10.161365309915 16.044261015655
1290 2 -1.200000000000 64.084500000000 10.161365309915 16.044261015655
1291 2 -1.200000000000 61.357500000000 10.696174010437 18.718304518264
1292 2 -1.200000000000 64.084500000000 10.696174010437 18.718304518264
1293 2 -1.200000000000 61.357500000000 12.835408812524 15.509452315133
1294 2 -1.200000000000 64.084500000000 12.835408812524 15.509452315133
1295 2 -1.200000000000 61.357500000000 13.370217513046 18.183495817742
1296 2 -1.200000000000 64.084500000000 13.370217513046 18.183495817742
1297 1 2.400000000000 0.000000000000 9.626556609393 20.322730619829
1298 1 2.400000000000 2.727000000000 10.161365309915 22.996774122439
1299 1 2.400000000000 2.727000000000 12.300600112002 19.787921919308
1300 1 2.400000000000 0.000000000000 12.835408812524 22.461965421917
1301 2 -1.200000000000 1.363500000000 11.230982710958 21.392348020873
1302 2 -1.200000000000 4.090500000000 11.230982710958 21.392348020873
1303 2 -1.200000000000 1.363500000000 11.765791411480 24.066391523482
1304 2 -1.200000000000 4.090500000000 11.765791411480 24.066391523482
1305 2 -1.200000000000 1.363500000000 13.905026213568 20.857539320351
1306 2 -1.200000000000 4.090500000000 13.905026213568 20.857539320351
1307 2 -1.200000000000 1.363500000000 14.439834914089 23.531582822960
1308 2 -1.200000000000 4.090500000000 14.439834914089 23.531582822960
1309 1 2.400000000000 5.454000000000 9.626556609393 20.322730619829
1310 1 2.400000000000 8.181000000000 10.161365309915 22.996774122439
1311 1 2.400000000000 8.181000000000 12.300600112002 19.787921919308
1312 1 2.400000000000 5.454000000000 12.835408812524 22.461965421917
1313 2 -1.200000000000 6.817500000000 11.230982710958 21.392348020873
1314 2 -1.200000000000 9.544500000000 11.230982710958 21.392348020873
1315 2 -1.200000000000 6.817500000000 11.765791411480 24.066391523482
1316 2 -1.200000000000 9.544500000000 11.765791411480 24.066391523482
1317 2 -1.200000000000 6.817500000000 13.905026213568 20.857539320351
1318 2 -1.200000000000 9.544500000000 13.905026213568 20.857539320351
1319 2 -1.200000000000 6.817500000000 14.439834914089 23.531582822960
1320 2 -1.200000000000 9.544500000000 14.439834914089 23.531582822960
1321 1 2.400000000000 10.908000000000 9.626556609393 20.322730619829
1322 1 2.400000000000 13.635000000000 10.161365309915 22.996774122439
1323 1 2.400000000000 13.635000000000 12.300600112002 19.787921919308
1324 1 2.400000000000 10.908000000000 12.835408812524 22.461965421917
1325 2 -1.200000000000 12.271500000000 11.230982710958 21.392348020873
1326 2 -1.200000000000 14.998500000000 11.230982710958 21.392348020873
1327 2 -1.200000000000 12.271500000000 11.765791411480 24.066391523482
1328 2 -1.200000000000 14.998500000000 11.765791411480 24.066391523482
1329 2 -1.200000000000 12.271500000000 13.905026213568 20.857539320351
1330 2 -1.200000000000 14.998500000000 13.905026213568 20.857539320351
1331 2 -1.200000000000 12.271500000000 14.439834914089 23.531582822960
1332 2 -1.200000000000 14.998500000000 14.439834914089 23.531582822960
1333 1 2.400000000000 16.362000000000 9.626556609393 20.322730619829
1334 1 2.400000000000 19.089000000000 10.161365309915 22.996774122439
1335 1 2.400000000000 19.089000000000 12.300600112002 19.787921919308
1336 1 2.400000000000 16.362000000000 12.835408812524 22.461965421917
1337 2 -1.200000000000 17.725500000000 11.230982710958 21.392348020873
1338 2 -1.200000000000 20.452500000000 11.230982710958 21.392348020873
1339 2 -1.200000000000 17.725500000000 11.765791411480 24.066391523482
1340 2 -1.200000000000 20.452500000000 11.765791411480 24.066391523482
1341 2 -1.200000000000 17.725500000000 13.905026213568 20.857539320351
1342 2 -1.200000000000 20.452500000000 13.905026213568 20.857539320351
1343 2 -1.200000000000 17.725500000000 14.439834914089 23.531582822960
1344 2 -1.200000000000 20.452500000000 14.439834914089 23.531582822960
1345 1 2.400000000000 21.816000000000 9.626556609393 20.322730619829
1346 1 2.400000000000 24.543000000000 10.161365309915 22.996774122439
1347 1 2.400000000000 24.543000000000 12.300600112002 19.787921919308
1348 1 2.400000000000 21.816000000000 12.835408812524 22.461965421917
1349 2 -1.200000000000 23.179500000000 11.230982710958 21.392348020873
1350 2 -1.200000000000 25.906500000000 11.230982710958 21.392348020873
1351 2 -1.200000000000 23.179500000000 11.765791411480 24.066391523482
1352 2 -1.200000000000 25.906500000000 11.765791411480 24.066391523482
1353 2 -1.200000000000 23.179500000000 13.905026213568 20.857539320351
1354 2 -1.200000000000 25.906500000000 13.905026213568 20.857539320351
1355 2 -1.200000000000 23.179500000000 14.439834914089 23.531582822960
1356 2 -1.200000000000 25.906500000000 14.439834914089 23.531582822960
1357 1 2.400000000000 27.270000000000 9.626556609393 20.322730619829
1358 1 2.400000000000 29.997000000000 10.161365309915 22.996774122439
1359 1 2.400000000000 29.997000000000 12.300600112002 19.787921919308
1360 1 2.400000000000 27.270000000000 12.835408812524 22.461965421917
1361 2 -1.200000000000 28.633500000000 11.230982710958 21.392348020873
1362 2 -1.200000000000 31.360500000000 11.230982710958 21.392348020873
1363 2 -1.200000000000 28.633500000000 11.765791411480 24.066391523482
1364 2 -1.200000000000 31.360500000000 11.765791411480 24.066391523482
1365 2 -1.200000000000 28.633500000000 13.905026213568 20.857539320351
1366 2 -1.200000000000 31.360500000000 13.905026213568 20.857539320351
1367 2 -1.200000000000 28.633500000000 14.439834914089 23.531582822960
1368 2 -1.200000000000 31.360500000000 14.439834914089 23.531582822960
1369 1 2.400000000000 32.724000000000 9.626556609393 20.322730619829
1370 1 2.400000000000 35.451000000000 10.161365309915 22.996774122439
1371 1 2.400000000000 35.451000000000 12.300600112002 19.787921919308
1372 1 2.400000000000 32.724000000000 12.835408812524 22.461965421917
1373 2 -1.200000000000 34.087500000000 11.230982710958 21.392348020873
1374 2 -1.200000000000 36.814500000000 11.230982710958 21.392348020873
1375 2 -1.200000000000 34.087500000000 11.765791411480 24.066391523482
1376 2 -1.200000000000 36.814500000000 11.765791411480 24.066391523482
1377 2 -1.200000000000 34.087500000000 13.905026213568 20.857539320351
1378 2 -1.200000000000 36.814500000000 13.905026213568 20.857539320351
1379 2 -1.200000000000 34.087500000000 14.439834914089 23.531582822960
1380 2 -1.200000000000 36.814500000000 14.439834914089 23.531582822960
1381 1 2.400000000000 38.178000000000 9.626556609393 20.322730619829
1382 1 2.400000000000 40.905000000000 10.161365309915 22.996774122439
1383 1 2.400000000000 40.905000000000 12.300600112002 19.787921919308
1384 1 2.400000000000 38.178000000000 12.835408812524 22.461965421917
1385 2 -1.200000000000 39.541500000000 11.230982710958 21.392348020873
1386 2 -1.200000000000 42.268500000000 11.230982710958 21.392348020873
1387 2 -1.200000000000 39.541500000000 11.765791411480 24.066391523482
1388 2 -1.200000000000 42.268500000000 11.765791411480 24.066391523482
1389 2 -1.200000000000 39.541500000000 13.905026213568 20.857539320351
1390 2 -1.200000000000 42.268500000000 13.905026213568 20.857539320351
1391 2 -1.200000000000 39.541500000000 14.439834914089 23.531582822960
1392 2 -1.200000000000 42.268500000000 14.439834914089 23.531582822960
1393 1 2.400000000000 43.632000000000 9.626556609393 20.322730619829
1394 1 2.400000000000 46.359000000000 10.161365309915 22.996774122439
1395 1 2.400000000000 46.359000000000 12.300600112002 19.787921919308
1396 1 2.400000000000 43.632000000000 12.835408812524 22.461965421917
1397 2 -1.200000000000 44.995500000000 11.230982710958 21.392348020873
1398 2 -1.200000000000 47.722500000000 11.230982710958 21.392348020873
1399 2 -1.200000000000 44.995500000000 11.765791411480 24.066391523482
1400 2 -1.200000000000 47.722500000000 11.765791411480 24.066391523482
1401 2 -1.200000000000 44.995500000000 13.905026213568 20.857539320351
1402 2 -1.200000000000 47.722500000000 13.905026213568 20.857539320351
1403 2 -1.200000000000 44.995500000000 14.439834914089 23.531582822960
1404 2 -1.200000000000 47.722500000000 14.439834914089 23.531582822960
1405 1 2.400000000000 49.086000000000 9.626556609393 20.322730619829
1406 1 2.400000000000 51.813000000000 10.161365309915 22.996774122439
1407 1 2.400000000000 51.813000000000 12.300600112002 19.787921919308
1408 1 2.400000000000 49.086000000000 12.835408812524 22.461965421917
1409 2 -1.200000000000 50.449500000000 11.230982710958 21.392348020873
1410 2 -1.200000000000 53.176500000000 11.230982710958 21.392348020873
1411 2 -1.200000000000 50.449500000000 11.765791411480 24.066391523482
1412 2 -1.200000000000 53.176500000000 11.765791411480 24.066391523482
1413 2 -1.200000000000 50.449500000000 13.905026213568 20.857539320351
1414 2 -1.200000000000 53.176500000000 13.905026213568 20.857539320351
1415 2 -1.200000000000 50.449500000000 14.439834914089 23.531582822960
1416 2 -1.200000000000 53.176500000000 14.439834914089 23.531582822960
1417 1 2.400000000000 54.540000000000 9.626556609393 20.322730619829
1418 1 2.400000000000 57.267000000000 10.161365309915 22.996774122439
1419 1 2.400000000000 57.267000000000 12.300600112002 19.787921919308
1420 1 2.400000000000 54.540000000000 12.835408812524 22.461965421917
1421 2 -1.200000000000 55.903500000000 11.230982710958 21.392348020873
1422 2 -1.200000000000 58.630500000000 11.230982710958 21.392348020873
1423 2 -1.200000000000 55.903500000000 11.765791411480 24.066391523482
1424 2 -1.200000000000 58.630500000000 11.765791411480 24.066391523482
1425 2 -1.200000000000 55.903500000000 13.905026213568 20.857539320351
1426 2 -1.200000000000 58.630500000000 13.905026213568 20.857539320351
1427 2 -1.200000000000 55.903500000000 14.439834914089 23.531582822960
1428 2 -1.200000000000 58.630500000000 14.439834914089 23.531582822960
1429 1 2.400000000000 59.994000000000 9.626556609393 20.322730619829
1430 1 2.400000000000 62.721000000000 10.161365309915 22.996774122439
1431 1 2.400000000000 62.721000000000 12.300600112002 19.787921919308
1432 1 2.400000000000 59.994000000000 12.835408812524 22.461965421917
1433 2 -1.200000000000 61.357500000000 11.230982710958 21.392348020873
1434 2 -1.200000000000 64.084500000000 11.230982710958 21.392348020873
1435 2 -1.200000000000 61.357500000000 11.765791411480 24.066391523482
1436 2 -1.200000000000 64.084500000000 11.765791411480 24.066391523482
1437 2 -1.200000000000 61.357500000000 13.905026213568 20.857539320351
1438 2 -1.200000000000 64.084500000000 13.905026213568 20.857539320351
1439 2 -1.200000000000 61.357500000000 14.439834914089 23.531582822960
1440 2 -1.200000000000 64.084500000000 14.439834914089 23.531582822960
1441 1 2.400000000000 0.000000000000 10.696174010437 25.670817625048
1442 1 2.400000000000 2.727000000000 11.230982710958 0.534808700522
1443 1 2.400000000000 2.727000000000 13.370217513046 25.136008924526
1444 1 2.400000000000 0.000000000000 13.905026213568 0.000000000000
1445 2 -1.200000000000 1.363500000000 12.300600112002 26.740435026091
1446 2 -1.200000000000 4.090500000000 12.300600112002 26.740435026091
1447 2 -1.200000000000 1.363500000000 12.835408812524 1.604426101565
1448 2 -1.200000000000 4.090500000000 12.835408812524 1.604426101565
1449 2 -1.200000000000 1.363500000000 14.974643614611 26.205626325570
1450 2 -1.200000000000 4.090500000000 14.974643614611 26.205626325570
1451 2 -1.200000000000 1.363500000000 15.509452315133 1.069617401044
1452 2 -1.200000000000 4.090500000000 15.509452315133 1.069617401044
1453 1 2.400000000000 5.454000000000 10.696174010437 25.670817625048
1454 1 2.400000000000 8.181000000000 11.230982710958 0.534808700522
1455 1 2.400000000000 8.181000000000 13.370217513046 25.136008924526
1456 1 2.400000000000 5.454000000000 13.905026213568 0.000000000000
1457 2 -1.200000000000 6.817500000000 12.300600112002 26.740435026091
1458 2 -1.200000000000 9.544500000000 12.300600112002 26.740435026091
1459 2 -1.200000000000 6.817500000000 12.835408812524 1.604426101565
1460 2 -1.200000000000 9.544500000000 12.835408812524 1.604426101565
1461 2 -1.200000000000 6.817500000000 14.974643614611 26.205626325570
1462 2 -1.200000000000 9.544500000000 14.974643614611 26.205626325570
1463 2 -1.200000000000 6.817500000000 15.509452315133 1.069617401044
1464 2 -1.200000000000 9.544500000000 15.509452315133 1.069617401044
1465 1 2.400000000000 10.908000000000 10.696174010437 25.670817625048
1466 1 2.400000000000 13.635000000000 11.230982710958 0.534808700522
1467 1 2.400000000000 13.635000000000 13.370217513046 25.136008924526
1468 1 2.400000000000 10.908000000000 13.905026213568 0.000000000000
1469 2 -1.200000000000 12.271500000000 12.300600112002 26.740435026091
1470 2 -1.200000000000 14.998500000000 12.300600112002 26.740435026091
1471 2 -1.200000000000 12.271500000000 12.835408812524 1.604426101565
1472 2 -1.200000000000 14.998500000000 12.835408812524 1.604426101565
1473 2 -1.200000000000 12.271500000000 14.974643614611 26.205626325570
1474 2 -1.200000000000 14.998500000000 14.974643614611 26.205626325570
1475 2 -1.200000000000 12.271500000000 15.509452315133 1.069617401044
1476 2 -1.200000000000 14.998500000000 15.509452315133 1.069617401044
1477 1 2.400000000000 16.362000000000 10.696174010437 25.670817625048
1478 1 2.400000000000 19.089000000000 11.230982710958 0.534808700522
1479 1 2.400000000000 19.089000000000 13.370217513046 25.136008924526
1480 1 2.400000000000 16.362000000000 13.905026213568 0.000000000000
1481 2 -1.200000000000 17.725500000000 12.300600112002 26.740435026091
1482 2 -1.200000000000 20.452500000000 12.300600112002 26.740435026091
1483 2 -1.200000000000 17.725500000000 12.835408812524 1.604426101565
1484 2 -1.200000000000 20.452500000000 12.835408812524 1.604426101565
1485 2 -1.200000000000 17.725500000000 14.974643614611 26.205626325570
1486 2 -1.200000000000 20.452500000000 14.974643614611 26.205626325570
1487 2 -1.200000000000 17.725500000000 15.509452315133 1.069617401044
1488 2 -1.200000000000 20.452500000000 15.509452315133 1.069617401044
1489 1 2.400000000000 21.816000000000 10.696174010437 25.670817625048
1490 1 2.400000000000 24.543000000000 11.230982710958 0.534808700522
1491 1 2.400000000000 24.543000000000 13.370217513046 25.136008924526
1492 1 2.400000000000 21.816000000000 13.905026213568 0.000000000000
1493 2 -1.200000000000 23.179500000000 12.300600112002 26.740435026091
1494 2 -1.200000000000 25.906500000000 12.300600112002 26.740435026091
1495 2 -1.200000000000 23.179500000000 12.835408812524 1.604426101565
1496 2 -1.200000000000 25.906500000000 12.835408812524 1.604426101565
1497 2 -1.200000000000 23.179500000000 14.974643614611 26.205626325570
1498 2 -1.200000000000 25.906500000000 14.974643614611 26.205626325570
1499 2 -1.200000000000 23.179500000000 15.509452315133 1.069617401044
1500 2 -1.200000000000 25.906500000000 15.509452315133 1.069617401044
1501 1 2.400000000000 27.270000000000 10.696174010437 25.670817625048
1502 1 2.400000000000 29.997000000000 11.230982710958 0.534808700522
1503 1 2.400000000000 29.997000000000 13.370217513046 25.136008924526
1504 1 2.400000000000 27.270000000000 13.905026213568 0.000000000000
1505 2 -1.200000000000 28.633500000000 12.300600112002 26.740435026091
1506 2 -1.200000000000 31.360500000000 12.300600112002 26.740435026091
1507 2 -1.200000000000 28.633500000000 12.835408812524 1.604426101565
1508 2 -1.200000000000 31.360500000000 12.835408812524 1.604426101565
1509 2 -1.200000000000 28.633500000000 14.974643614611 26.205626325570
1510 2 -1.200000000000 31.360500000000 14.974643614611 26.205626325570
1511 2 -1.200000000000 28.633500000000 15.509452315133 1.069617401044
1512 2 -1.200000000000 31.360500000000 15.509452315133 1.069617401044
1513 1 2.400000000000 32.724000000000 10.696174010437 25.670817625048
1514 1 2.400000000000 35.451000000000 11.230982710958 0.534808700522
1515 1 2.400000000000 35.451000000000 13.370217513046 25.136008924526
1516 1 2.400000000000 32.724000000000 13.905026213568 0.000000000000
1517 2 -1.200000000000 34.087500000000 12.300600112002 26.740435026091
1518 2 -1.200000000000 36.814500000000 12.300600112002 26.740435026091
1519 2 -1.200000000000 34.087500000000 12.835408812524 1.604426101565
1520 2 -1.200000000000 36.814500000000 12.835408812524 1.604426101565
1521 2 -1.200000000000 34.087500000000 14.974643614611 26.205626325570
1522 2 -1.200000000000 36.814500000000 14.974643614611 26.205626325570
1523 2 -1.200000000000 34.087500000000 15.509452315133 1.069617401044
1524 2 -1.200000000000 36.814500000000 15.509452315133 1.069617401044
1525 1 2.400000000000 38.178000000000 10.696174010437 25.670817625048
1526 1 2.400000000000 40.905000000000 11.230982710958 0.534808700522
1527 1 2.400000000000 40.905000000000 13.370217513046 25.136008924526
1528 1 2.400000000000 38.178000000000 13.905026213568 0.000000000000
1529 2 -1.200000000000 39.541500000000 12.300600112002 26.740435026091
1530 2 -1.200000000000 42.268500000000 12.300600112002 26.740435026091
1531 2 -1.200000000000 39.541500000000 12.835408812524 1.604426101565
1532 2 -1.200000000000 42.268500000000 12.835408812524 1.604426101565
1533 2 -1.200000000000 39.541500000000 14.974643614611 26.205626325570
1534 2 -1.200000000000 42.268500000000 14.974643614611 26.205626325570
1535 2 -1.200000000000 39.541500000000 15.509452315133 1.069617401044
1536 2 -1.200000000000 42.268500000000 15.509452315133 1.069617401044
1537 1 2.400000000000 43.632000000000 10.696174010437 25.670817625048
1538 1 2.400000000000 46.359000000000 11.230982710958 0.534808700522
1539 1 2.400000000000 46.359000000000 13.370217513046 25.136008924526
1540 1 2.400000000000 43.632000000000 13.905026213568 0.000000000000
1541 2 -1.200000000000 44.995500000000 12.300600112002 26.740435026091
1542 2 -1.200000000000 47.722500000000 12.300600112002 26.740435026091
1543 2 -1.200000000000 44.995500000000 12.835408812524 1.604426101565
1544 2 -1.200000000000 47.722500000000 12.835408812524 1.604426101565
1545 2 -1.200000000000 44.995500000000 14.974643614611 26.205626325570
1546 2 -1.200000000000 47.722500000000 14.974643614611 26.205626325570
1547 2 -1.200000000000 44.995500000000 15.509452315133 1.069617401044
1548 2 -1.200000000000 47.722500000000 15.509452315133 1.069617401044
1549 1 2.400000000000 49.086000000000 10.696174010437 25.670817625048
1550 1 2.400000000000 51.813000000000 11.230982710958 0.534808700522
1551 1 2.400000000000 51.813000000000 13.370217513046 25.136008924526
1552 1 2.400000000000 49.086000000000 13.905026213568 0.000000000000
1553 2 -1.200000000000 50.449500000000 12.300600112002 26.740435026091
1554 2 -1.200000000000 53.176500000000 12.300600112002 26.740435026091
1555 2 -1.200000000000 50.449500000000 12.835408812524 1.604426101565
1556 2 -1.200000000000 53.176500000000 12.835408812524 1.604426101565
1557 2 -1.200000000000 50.449500000000 14.974643614611 26.205626325570
1558 2 -1.200000000000 53.176500000000 14.974643614611 26.205626325570
1559 2 -1.200000000000 50.449500000000 15.509452315133 1.069617401044
1560 2 -1.200000000000 53.176500000000 15.509452315133 1.069617401044
1561 1 2.400000000000 54.540000000000 10.696174010437 25.670817625048
1562 1 2.400000000000 57.267000000000 11.230982710958 0.534808700522
1563 1 2.400000000000 57.267000000000 13.370217513046 25.136008924526
1564 1 2.400000000000 54.540000000000 13.905026213568 0.000000000000
1565 2 -1.200000000000 55.903500000000 12.300600112002 26.740435026091
1566 2 -1.200000000000 58.630500000000 12.300600112002 26.740435026091
1567 2 -1.200000000000 55.903500000000 12.835408812524 1.604426101565
1568 2 -1.200000000000 58.630500000000 12.835408812524 1.604426101565
1569 2 -1.200000000000 55.903500000000 14.974643614611 26.205626325570
1570 2 -1.200000000000 58.630500000000 14.974643614611 26.205626325570
1571 2 -1.200000000000 55.903500000000 15.509452315133 1.069617401044
1572 2 -1.200000000000 58.630500000000 15.509452315133 1.069617401044
1573 1 2.400000000000 59.994000000000 10.696174010437 25.670817625048
1574 1 2.400000000000 62.721000000000 11.230982710958 0.534808700522
1575 1 2.400000000000 62.721000000000 13.370217513046 25.136008924526
1576 1 2.400000000000 59.994000000000 13.905026213568 0.000000000000
1577 2 -1.200000000000 61.357500000000 12.300600112002 26.740435026091
1578 2 -1.200000000000 64.084500000000 12.300600112002 26.740435026091
1579 2 -1.200000000000 61.357500000000 12.835408812524 1.604426101565
1580 2 -1.200000000000 64.084500000000 12.835408812524 1.604426101565
1581 2 -1.200000000000 61.357500000000 14.974643614611 26.205626325570
1582 2 -1.200000000000 64.084500000000 14.974643614611 26.205626325570
1583 2 -1.200000000000 61.357500000000 15.509452315133 1.069617401044
1584 2 -1.200000000000 64.084500000000 15.509452315133 1.069617401044
1585 1 2.400000000000 0.000000000000 11.765791411480 3.208852203131
1586 1 2.400000000000 2.727000000000 12.300600112002 5.882895705740
1587 1 2.400000000000 2.727000000000 14.439834914089 2.674043502609
1588 1 2.400000000000 0.000000000000 14.974643614611 5.348087005218
1589 2 -1.200000000000 1.363500000000 13.370217513046 4.278469604175
1590 2 -1.200000000000 4.090500000000 13.370217513046 4.278469604175
1591 2 -1.200000000000 1.363500000000 13.905026213568 6.952513106784
1592 2 -1.200000000000 4.090500000000 13.905026213568 6.952513106784
1593 2 -1.200000000000 1.363500000000 16.044261015655 3.743660903653
1594 2 -1.200000000000 4.090500000000 16.044261015655 3.743660903653
1595 2 -1.200000000000 1.363500000000 16.579069716177 6.417704406262
1596 2 -1.200000000000 4.090500000000 16.579069716177 6.417704406262
1597 1 2.400000000000 5.454000000000 11.765791411480 3.208852203131
1598 1 2.400000000000 8.181000000000 12.300600112002 5.882895705740
1599 1 2.400000000000 8.181000000000 14.439834914089 2.674043502609
1600 1 2.400000000000 5.454000000000 14.974643614611 5.348087005218
1601 2 -1.200000000000 6.817500000000 13.370217513046 4.278469604175
1602 2 -1.200000000000 9.544500000000 13.370217513046 4.278469604175
1603 2 -1.200000000000 6.817500000000 13.905026213568 6.952513106784
1604 2 -1.200000000000 9.544500000000 13.905026213568 6.952513106784
1605 2 -1.200000000000 6.817500000000 16.044261015655 3.743660903653
1606 2 -1.200000000000 9.544500000000 16.044261015655 3.743660903653
1607 2 -1.200000000000 6.817500000000 16.579069716177 6.417704406262
1608 2 -1.200000000000 9.544500000000 16.579069716177 6.417704406262
1609 1 2.400000000000 10.908000000000 11.765791411480 3.208852203131
1610 1 2.400000000000 13.635000000000 12.300600112002 5.882895705740
1611 1 2.400000000000 13.635000000000 14.439834914089 2.674043502609
1612 1 2.400000000000 10.908000000000 14.974643614611 5.348087005218
1613 2 -1.200000000000 12.271500000000 13.370217513046 4.278469604175
1614 2 -1.200000000000 14.998500000000 13.370217513046 4.278469604175
1615 2 -1.200000000000 12.271500000000 13.905026213568 6.952513106784
1616 2 -1.200000000000 14.998500000000 13.905026213568 6.952513106784
1617 2 -1.200000000000 12.271500000000 16.044261015655 3.743660903653
1618 2 -1.200000000000 14.998500000000 16.044261015655 3.743660903653
1619 2 -1.200000000000 12.271500000000 16.579069716177 6.417704406262
1620 2 -1.200000000000 14.998500000000 16.579069716177 6.417704406262
1621 1 2.400000000000 16.362000000000 11.765791411480 3.208852203131
1622 1 2.400000000000 19.089000000000 12.300600112002 5.882895705740
1623 1 2.400000000000 19.089000000000 14.439834914089 2.674043502609
1624 1 2.400000000000 16.362000000000 14.974643614611 5.348087005218
1625 2 -1.200000000000 17.725500000000 13.370217513046 4.278469604175
1626 2 -1.200000000000 20.452500000000 13.370217513046 4.278469604175
1627 2 -1.200000000000 17.725500000000 13.905026213568 6.952513106784
1628 2 -1.200000000000 20.452500000000 13.905026213568 6.952513106784
1629 2 -1.200000000000 17.725500000000 16.044261015655 3.743660903653
1630 2 -1.200000000000 20.452500000000 16.044261015655 3.743660903653
1631 2 -1.200000000000 17.725500000000 16.579069716177 6.417704406262
1632 2 -1.200000000000 20.452500000000 16.579069716177 6.417704406262
1633 1 2.400000000000 21.816000000000 11.765791411480 3.208852203131
1634 1 2.400000000000 24.543000000000 12.300600112002 5.882895705740
1635 1 2.400000000000 24.543000000000 14.439834914089 2.674043502609
1636 1 2.400000000000 21.816000000000 14.974643614611 5.348087005218
1637 2 -1.200000000000 23.179500000000 13.370217513046 4.278469604175
1638 2 -1.200000000000 25.906500000000 13.370217513046 4.278469604175
1639 2 -1.200000000000 23.179500000000 13.905026213568 6.952513106784
1640 2 -1.200000000000 25.906500000000 13.905026213568 6.952513106784
1641 2 -1.200000000000 23.179500000000 16.044261015655 3.743660903653
1642 2 -1.200000000000 25.906500000000 16.044261015655 3.743660903653
1643 2 -1.200000000000 23.179500000000 16.579069716177 6.417704406262
1644 2 -1.200000000000 25.906500000000 16.579069716177 6.417704406262
1645 1 2.400000000000 27.270000000000 11.765791411480 3.208852203131
1646 1 2.400000000000 29.997000000000 12.300600112002 5.882895705740
1647 1 2.400000000000 29.997000000000 14.439834914089 2.674043502609
1648 1 2.400000000000 27.270000000000 14.974643614611 5.348087005218
1649 2 -1.200000000000 28.633500000000 13.370217513046 4.278469604175
1650 2 -1.200000000000 31.360500000000 13.370217513046 4.278469604175
1651 2 -1.200000000000 28.633500000000 13.905026213568 6.952513106784
1652 2 -1.200000000000 31.360500000000 13.905026213568 6.952513106784
1653 2 -1.200000000000 28.633500000000 16.044261015655 3.743660903653
1654 2 -1.200000000000 31.360500000000 16.044261015655 3.743660903653
1655 2 -1.200000000000 28.633500000000 16.579069716177 6.417704406262
1656 2 -1.200000000000 31.360500000000 16.579069716177 6.417704406262
1657 1 2.400000000000 32.724000000000 11.765791411480 3.208852203131
1658 1 2.400000000000 35.451000000000 12.300600112002 5.882895705740
1659 1 2.400000000000 35.451000000000 14.439834914089 2.674043502609
1660 1 2.400000000000 32.724000000000 14.974643614611 5.348087005218
1661 2 -1.200000000000 34.087500000000 13.370217513046 4.278469604175
1662 2 -1.200000000000 36.814500000000 13.370217513046 4.278469604175
1663 2 -1.200000000000 34.087500000000 13.905026213568 6.952513106784
1664 2 -1.200000000000 36.814500000000 13.905026213568 6.952513106784
1665 2 -1.200000000000 34.087500000000 16.044261015655 3.743660903653
1666 2 -1.200000000000 36.814500000000 16.044261015655 3.743660903653
1667 2 -1.200000000000 34.087500000000 16.579069716177 6.417704406262
1668 2 -1.200000000000 36.814500000000 16.579069716177 6.417704406262
1669 1 2.400000000000 38.178000000000 11.765791411480 3.208852203131
1670 1 2.400000000000 40.905000000000 12.300600112002 5.882895705740
1671 1 2.400000000000 40.905000000000 14.439834914089 2.674043502609
1672 1 2.400000000000 38.178000000000 14.974643614611 5.348087005218
1673 2 -1.200000000000 39.541500000000 13.370217513046 4.278469604175
1674 2 -1.200000000000 42.268500000000 13.370217513046 4.278469604175
1675 2 -1.200000000000 39.541500000000 13.905026213568 6.952513106784
1676 2 -1.200000000000 42.268500000000 13.905026213568 6.952513106784
1677 2 -1.200000000000 39.541500000000 16.044261015655 3.743660903653
1678 2 -1.200000000000 42.268500000000 16.044261015655 3.743660903653
1679 2 -1.200000000000 39.541500000000 16.579069716177 6.417704406262
1680 2 -1.200000000000 42.268500000000 16.579069716177 6.417704406262
1681 1 2.400000000000 43.632000000000 11.765791411480 3.208852203131
1682 1 2.400000000000 46.359000000000 12.300600112002 5.882895705740
1683 1 2.400000000000 46.359000000000 14.439834914089 2.674043502609
1684 1 2.400000000000 43.632000000000 14.974643614611 5.348087005218
1685 2 -1.200000000000 44.995500000000 13.370217513046 4.278469604175
1686 2 -1.200000000000 47.722500000000 13.370217513046 4.278469604175
1687 2 -1.200000000000 44.995500000000 13.905026213568 6.952513106784
1688 2 -1.200000000000 47.722500000000 13.905026213568 6.952513106784
1689 2 -1.200000000000 44.995500000000 16.044261015655 3.743660903653
1690 2 -1.200000000000 47.722500000000 16.044261015655 3.743660903653
1691 2 -1.200000000000 44.995500000000 16.579069716177 6.417704406262
1692 2 -1.200000000000 47.722500000000 16.579069716177 6.417704406262
1693 1 2.400000000000 49.086000000000 11.765791411480 3.208852203131
1694 1 2.400000000000 51.813000000000 12.300600112002 5.882895705740
1695 1 2.400000000000 51.813000000000 14.439834914089 2.674043502609
1696 1 2.400000000000 49.086000000000 14.974643614611 5.348087005218
1697 2 -1.200000000000 50.449500000000 13.370217513046 4.278469604175
1698 2 -1.200000000000 53.176500000000 13.370217513046 4.278469604175
1699 2 -1.200000000000 50.449500000000 13.905026213568 6.952513106784
1700 2 -1.200000000000 53.176500000000 13.905026213568 6.952513106784
1701 2 -1.200000000000 50.449500000000 16.044261015655 3.743660903653
1702 2 -1.200000000000 53.176500000000 16.044261015655 3.743660903653
1703 2 -1.200000000000 50.449500000000 16.579069716177 6.417704406262
1704 2 -1.200000000000 53.176500000000 16.579069716177 6.417704406262
1705 1 2.400000000000 54.540000000000 11.765791411480 3.208852203131
1706 1 2.400000000000 57.267000000000 12.300600112002 5.882895705740
1707 1 2.400000000000 57.267000000000 14.439834914089 2.674043502609
1708 1 2.400000000000 54.540000000000 14.974643614611 5.348087005218
1709 2 -1.200000000000 55.903500000000 13.370217513046 4.278469604175
1710 2 -1.200000000000 58.630500000000 13.370217513046 4.278469604175
1711 2 -1.200000000000 55.903500000000 13.905026213568 6.952513106784
1712 2 -1.200000000000 58.630500000000 13.905026213568 6.952513106784
1713 2 -1.200000000000 55.903500000000 16.044261015655 3.743660903653
1714 2 -1.200000000000 58.630500000000 16.044261015655 3.743660903653
1715 2 -1.200000000000 55.903500000000 16.579069716177 6.417704406262
1716 2 -1.200000000000 58.630500000000 16.579069716177 6.417704406262
1717 1 2.400000000000 59.994000000000 11.765791411480 3.208852203131
1718 1 2.400000000000 62.721000000000 12.300600112002 5.882895705740
1719 1 2.400000000000 62.721000000000 14.439834914089 2.674043502609
1720 1 2.400000000000 59.994000000000 14.974643614611 5.348087005218
1721 2 -1.200000000000 61.357500000000 13.370217513046 4.278469604175
1722 2 -1.200000000000 64.084500000000 13.370217513046 4.278469604175
1723 2 -1.200000000000 61.357500000000 13.905026213568 6.952513106784
1724 2 -1.200000000000 64.084500000000 13.905026213568 6.952513106784
1725 2 -1.200000000000 61.357500000000 16.044261015655 3.743660903653
1726 2 -1.200000000000 64.084500000000 16.044261015655 3.743660903653
1727 2 -1.200000000000 61.357500000000 16.579069716177 6.417704406262
1728 2 -1.200000000000 64.084500000000 16.579069716177 6.417704406262
1729 1 2.400000000000 0.000000000000 12.835408812524 8.556939208349
1730 1 2.400000000000 2.727000000000 13.370217513046 11.230982710958
1731 1 2.400000000000 2.727000000000 15.509452315133 8.022130507827
1732 1 2.400000000000 0.000000000000 16.044261015655 10.696174010437
1733 2 -1.200000000000 1.363500000000 14.439834914089 9.626556609393
1734 2 -1.200000000000 4.090500000000 14.439834914089 9.626556609393
1735 2 -1.200000000000 1.363500000000 14.974643614611 12.300600112002
1736 2 -1.200000000000 4.090500000000 14.974643614611 12.300600112002
1737 2 -1.200000000000 1.363500000000 17.113878416698 9.091747908871
1738 2 -1.200000000000 4.090500000000 17.113878416698 9.091747908871
1739 2 -1.200000000000 1.363500000000 17.648687117220 11.765791411480
1740 2 -1.200000000000 4.090500000000 17.648687117220 11.765791411480
1741 1 2.400000000000 5.454000000000 12.835408812524 8.556939208349
1742 1 2.400000000000 8.181000000000 13.370217513046 11.230982710958
1743 1 2.400000000000 8.181000000000 15.509452315133 8.022130507827
1744 1 2.400000000000 5.454000000000 16.044261015655 10.696174010437
1745 2 -1.200000000000 6.817500000000 14.439834914089 9.626556609393
1746 2 -1.200000000000 9.544500000000 14.439834914089 9.626556609393
1747 2 -1.200000000000 6.817500000000 14.974643614611 12.300600112002
1748 2 -1.200000000000 9.544500000000 14.974643614611 12.300600112002
1749 2 -1.200000000000 6.817500000000 17.113878416698 9.091747908871
1750 2 -1.200000000000 9.544500000000 17.113878416698 9.091747908871
1751 2 -1.200000000000 6.817500000000 17.648687117220 11.765791411480
1752 2 -1.200000000000 9.544500000000 17.648687117220 11.765791411480
1753 1 2.400000000000 10.908000000000 12.835408812524 8.556939208349
1754 1 2.400000000000 13.635000000000 13.370217513046 11.230982710958
1755 1 2.400000000000 13.635000000000 15.509452315133 8.022130507827
1756 1 2.400000000000 10.908000000000 16.044261015655 10.696174010437
1757 2 -1.200000000000 12.271500000000 14.439834914089 9.626556609393
1758 2 -1.200000000000 14.998500000000 14.439834914089 9.626556609393
1759 2 -1.200000000000 12.271500000000 14.974643614611 12.300600112002
1760 2 -1.200000000000 14.998500000000 14.974643614611 12.300600112002
1761 2 -1.200000000000 12.271500000000 17.113878416698 9.091747908871
1762 2 -1.200000000000 14.998500000000 17.113878416698 9.091747908871
1763 2 -1.200000000000 12.271500000000 17.648687117220 11.765791411480
1764 2 -1.200000000000 14.998500000000 17.648687117220 11.765791411480
1765 1 2.400000000000 16.362000000000 12.835408812524 8.556939208349
1766 1 2.400000000000 19.089000000000 13.370217513046 11.230982710958
1767 1 2.400000000000 19.089000000000 15.509452315133 8.022130507827
1768 1 2.400000000000 16.362000000000 16.044261015655 10.696174010437
1769 2 -1.200000000000 17.725500000000 14.439834914089 9.626556609393
1770 2 -1.200000000000 20.452500000000 14.439834914089 9.626556609393
1771 2 -1.200000000000 17.725500000000 14.974643614611 12.300600112002
1772 2 -1.200000000000 20.452500000000 14.974643614611 12.300600112002
1773 2 -1.200000000000 17.725500000000 17.113878416698 9.091747908871
1774 2 -1.200000000000 20.452500000000 17.113878416698 9.091747908871
1775 2 -1.200000000000 17.725500000000 17.648687117220 11.765791411480
1776 2 -1.200000000000 20.452500000000 17.648687117220 11.765791411480
1777 1 2.400000000000 21.816000000000 12.835408812524 8.556939208349
1778 1 2.400000000000 24.543000000000 13.370217513046 11.230982710958
1779 1 2.400000000000 24.543000000000 15.509452315133 8.022130507827
1780 1 2.400000000000 21.816000000000 16.044261015655 10.696174010437
1781 2 -1.200000000000 23.179500000000 14.439834914089 9.626556609393
1782 2 -1.200000000000 25.906500000000 14.439834914089 9.626556609393
1783 2 -1.200000000000 23.179500000000 14.974643614611 12.300600112002
1784 2 -1.200000000000 25.906500000000 14.974643614611 12.300600112002
1785 2 -1.200000000000 23.179500000000 17.113878416698 9.091747908871
1786 2 -1.200000000000 25.906500000000 17.113878416698 9.091747908871
1787 2 -1.200000000000 23.179500000000 17.648687117220 11.765791411480
1788 2 -1.200000000000 25.906500000000 17.648687117220 11.765791411480
1789 1 2.400000000000 27.270000000000 12.835408812524 8.556939208349
1790 1 2.400000000000 29.997000000000 13.370217513046 11.230982710958
1791 1 2.400000000000 29.997000000000 15.509452315133 8.022130507827
1792 1 2.400000000000 27.270000000000 16.044261015655 10.696174010437
1793 2 -1.200000000000 28.633500000000 14.439834914089 9.626556609393
1794 2 -1.200000000000 31.360500000000 14.439834914089 9.626556609393
1795 2 -1.200000000000 28.633500000000 14.974643614611 12.300600112002
1796 2 -1.200000000000 31.360500000000 14.974643614611 12.300600112002
1797 2 -1.200000000000 28.633500000000 17.113878416698 9.091747908871
1798 2 -1.200000000000 31.360500000000 17.113878416698 9.091747908871
1799 2 -1.200000000000 28.633500000000 17.648687117220 11.765791411480
1800 2 -1.200000000000 31.360500000000 17.648687117220 11.765791411480
1801 1 2.400000000000 32.724000000000 12.835408812524 8.556939208349
1802 1 2.400000000000 35.451000000000 13.370217513046 11.230982710958
1803 1 2.400000000000 35.451000000000 15.509452315133 8.022130507827
1804 1 2.400000000000 32.724000000000 16.044261015655 10.696174010437
1805 2 -1.200000000000 34.087500000000 14.439834914089 9.626556609393
1806 2 -1.200000000000 36.814500000000 14.439834914089 9.626556609393
1807 2 -1.200000000000 34.087500000000 14.974643614611 12.300600112002
1808 2 -1.200000000000 36.814500000000 14.974643614611 12.300600112002
1809 2 -1.200000000000 34.087500000000 17.113878416698 9.091747908871
1810 2 -1.200000000000 36.814500000000 17.113878416698 9.091747908871
1811 2 -1.200000000000 34.087500000000 17.648687117220 11.765791411480
1812 2 -1.200000000000 36.814500000000 17.648687117220 11.765791411480
1813 1 2.400000000000 38.178000000000 12.835408812524 8.556939208349
1814 1 2.400000000000 40.905000000000 13.370217513046 11.230982710958
1815 1 2.400000000000 40.905000000000 15.509452315133 8.022130507827
1816 1 2.400000000000 38.178000000000 16.044261015655 10.696174010437
1817 2 -1.200000000000 39.541500000000 14.439834914089 9.626556609393
1818 2 -1.200000000000 42.268500000000 14.439834914089 9.626556609393
1819 2 -1.200000000000 39.541500000000 14.974643614611 12.300600112002
1820 2 -1.200000000000 42.268500000000 14.974643614611 12.300600112002
1821 2 -1.200000000000 39.541500000000 17.113878416698 9.091747908871
1822 2 -1.200000000000 42.268500000000 17.113878416698 9.091747908871
1823 2 -1.200000000000 39.541500000000 17.648687117220 11.765791411480
1824 2 -1.200000000000 42.268500000000 17.648687117220 11.765791411480
1825 1 2.400000000000 43.632000000000 12.835408812524 8.556939208349
1826 1 2.400000000000 46.359000000000 13.370217513046 11.230982710958
1827 1 2.400000000000 46.359000000000 15.509452315133 8.022130507827
1828 1 2.400000000000 43.632000000000 16.044261015655 10.696174010437
1829 2 -1.200000000000 44.995500000000 14.439834914089 9.626556609393
1830 2 -1.200000000000 47.722500000000 14.439834914089 9.626556609393
1831 2 -1.200000000000 44.995500000000 14.974643614611 12.300600112002
1832 2 -1.200000000000 47.722500000000 14.974643614611 12.300600112002
1833 2 -1.200000000000 44.995500000000 17.113878416698 9.091747908871
1834 2 -1.200000000000 47.722500000000 17.113878416698 9.091747908871
1835 2 -1.200000000000 44.995500000000 17.648687117220 11.765791411480
1836 2 -1.200000000000 47.722500000000 17.648687117220 11.765791411480
1837 1 2.400000000000 49.086000000000 12.835408812524 8.556939208349
1838 1 2.400000000000 51.813000000000 13.370217513046 11.230982710958
1839 1 2.400000000000 51.813000000000 15.509452315133 8.022130507827
1840 1 2.400000000000 49.086000000000 16.044261015655 10.696174010437
1841 2 -1.200000000000 50.449500000000 14.439834914089 9.626556609393
1842 2 -1.200000000000 53.176500000000 14.439834914089 9.626556609393
1843 2 -1.200000000000 50.449500000000 14.974643614611 12.300600112002
1844 2 -1.200000000000 53.176500000000 14.974643614611 12.300600112002
1845 2 -1.200000000000 50.449500000000 17.113878416698 9.091747908871
1846 2 -1.200000000000 53.176500000000 17.113878416698 9.091747908871
1847 2 -1.200000000000 50.449500000000 17.648687117220 11.765791411480
1848 2 -1.200000000000 53.176500000000 17.648687117220 11.765791411480
1849 1 2.400000000000 54.540000000000 12.835408812524 8.556939208349
1850 1 2.400000000000 57.267000000000 13.370217513046 11.230982710958
1851 1 2.400000000000 57.267000000000 15.509452315133 8.022130507827
1852 1 2.400000000000 54.540000000000 16.044261015655 10.696174010437
1853 2 -1.200000000000 55.903500000000 14.439834914089 9.626556609393
1854 2 -1.200000000000 58.630500000000 14.439834914089 9.626556609393
1855 2 -1.200000000000 55.903500000000 14.974643614611 12.300600112002
1856 2 -1.200000000000 58.630500000000 14.974643614611 12.300600112002
1857 2 -1.200000000000 55.903500000000 17.113878416698 9.091747908871
1858 2 -1.200000000000 58.630500000000 17.113878416698 9.091747908871
1859 2 -1.200000000000 55.903500000000 17.648687117220 11.765791411480
1860 2 -1.200000000000 58.630500000000 17.648687117220 11.765791411480
1861 1 2.400000000000 59.994000000000 12.835408812524 8.556939208349
1862 1 2.400000000000 62.721000000000 13.370217513046 11.230982710958
1863 1 2.400000000000 62.721000000000 15.509452315133 8.022130507827
1864 1 2.400000000000 59.994000000000 16.044261015655 10.696174010437
1865 2 -1.200000000000 61.357500000000 14.439834914089 9.626556609393
1866 2 -1.200000000000 64.084500000000 14.439834914089 9.626556609393
1867 2 -1.200000000000 61.357500000000 14.974643614611 12.300600112002
1868 2 -1.200000000000 64.084500000000 14.974643614611 12.300600112002
1869 2 -1.200000000000 61.357500000000 17.113878416698 9.091747908871
1870 2 -1.200000000000 64.084500000000 17.113878416698 9.091747908871
1871 2 -1.200000000000 61.357500000000 17.648687117220 11.765791411480
1872 2 -1.200000000000 64.084500000000 17.648687117220 11.765791411480
1873 1 2.400000000000 0.000000000000 13.905026213568 13.905026213568
1874 1 2.400000000000 2.727000000000 14.439834914089 16.579069716177
1875 1 2.400000000000 2.727000000000 16.579069716177 13.370217513046
1876 1 2.400000000000 0.000000000000 17.113878416698 16.044261015655
1877 2 -1.200000000000 1.363500000000 15.509452315133 14.974643614611
1878 2 -1.200000000000 4.090500000000 15.509452315133 14.974643614611
1879 2 -1.200000000000 1.363500000000 16.044261015655 17.648687117220
1880 2 -1.200000000000 4.090500000000 16.044261015655 17.648687117220
1881 2 -1.200000000000 1.363500000000 18.183495817742 14.439834914089
1882 2 -1.200000000000 4.090500000000 18.183495817742 14.439834914089
1883 2 -1.200000000000 1.363500000000 18.718304518264 17.113878416698
1884 2 -1.200000000000 4.090500000000 18.718304518264 17.113878416698
1885 1 2.400000000000 5.454000000000 13.905026213568 13.905026213568
1886 1 2.400000000000 8.181000000000 14.439834914089 16.579069716177
1887 1 2.400000000000 8.181000000000 16.579069716177 13.370217513046
1888 1 2.400000000000 5.454000000000 17.113878416698 16.044261015655
1889 2 -1.200000000000 6.817500000000 15.509452315133 14.974643614611
1890 2 -1.200000000000 9.544500000000 15.509452315133 14.974643614611
1891 2 -1.200000000000 6.817500000000 16.044261015655 17.648687117220
1892 2 -1.200000000000 9.544500000000 16.044261015655 17.648687117220
1893 2 -1.200000000000 6.817500000000 18.183495817742 14.439834914089
1894 2 -1.200000000000 9.544500000000 18.183495817742 14.439834914089
1895 2 -1.200000000000 6.817500000000 18.718304518264 17.113878416698
1896 2 -1.200000000000 9.544500000000 18.718304518264 17.113878416698
1897 1 2.400000000000 10.908000000000 13.905026213568 13.905026213568
1898 1 2.400000000000 13.635000000000 14.439834914089 16.579069716177
1899 1 2.400000000000 13.635000000000 16.579069716177 13.370217513046
1900 1 2.400000000000 10.908000000000 17.113878416698 16.044261015655
1901 2 -1.200000000000 12.271500000000 15.509452315133 14.974643614611
1902 2 -1.200000000000 14.998500000000 15.509452315133 14.974643614611
1903 2 -1.200000000000 12.271500000000 16.044261015655 17.648687117220
1904 2 -1.200000000000 14.998500000000 16.044261015655 17.648687117220
1905 2 -1.200000000000 12.271500000000 18.183495817742 14.439834914089
1906 2 -1.200000000000 14.998500000000 18.183495817742 14.439834914089
1907 2 -1.200000000000 12.271500000000 18.718304518264 17.113878416698
1908 2 -1.200000000000 14.998500000000 18.718304518264 17.113878416698
1909 1 2.400000000000 16.362000000000 13.905026213568 13.905026213568
1910 1 2.400000000000 19.089000000000 14.439834914089 16.579069716177
1911 1 2.400000000000 19.089000000000 16.579069716177 13.370217513046
1912 1 2.400000000000 16.362000000000 17.113878416698 16.044261015655
1913 2 -1.200000000000 17.725500000000 15.509452315133 14.974643614611
1914 2 -1.200000000000 20.452500000000 15.509452315133 14.974643614611
1915 2 -1.200000000000 17.725500000000 16.044261015655 17.648687117220
1916 2 -1.200000000000 20.452500000000 16.044261015655 17.648687117220
1917 2 -1.200000000000 17.725500000000 18.183495817742 14.439834914089
1918 2 -1.200000000000 20.452500000000 18.183495817742 14.439834914089
1919 2 -1.200000000000 17.725500000000 18.718304518264 17.113878416698
1920 2 -1.200000000000 20.452500000000 18.718304518264 17.113878416698
1921 1 2.400000000000 21.816000000000 13.905026213568 13.905026213568
1922 1 2.400000000000 24.543000000000 14.439834914089 16.579069716177
1923 1 2.400000000000 24.543000000000 16.579069716177 13.370217513046
1924 1 2.400000000000 21.816000000000 17.113878416698 16.044261015655
1925 2 -1.200000000000 23.179500000000 15.509452315133 14.974643614611
1926 2 -1.200000000000 25.906500000000 15.509452315133 14.974643614611
1927 2 -1.200000000000 23.179500000000 16.044261015655 17.648687117220
1928 2 -1.200000000000 25.906500000000 16.044261015655 17.648687117220
1929 2 -1.200000000000 23.179500000000 18.183495817742 14.439834914089
1930 2 -1.200000000000 25.906500000000 18.183495817742 14.439834914089
1931 2 -1.200000000000 23.179500000000 18.718304518264 17.113878416698
1932 2 -1.200000000000 25.906500000000 18.718304518264 17.113878416698
1933 1 2.400000000000 27.270000000000 13.905026213568 13.905026213568
1934 1 2.400000000000 29.997000000000 14.439834914089 16.579069716177
1935 1 2.400000000000 29.997000000000 16.579069716177 13.370217513046
1936 1 2.400000000000 27.270000000000 17.113878416698 16.044261015655
1937 2 -1.200000000000 28.633500000000 15.509452315133 14.974643614611
1938 2 -1.200000000000 31.360500000000 15.509452315133 14.974643614611
1939 2 -1.200000000000 28.633500000000 16.044261015655 17.648687117220
1940 2 -1.200000000000 31.360500000000 16.044261015655 17.648687117220
1941 2 -1.200000000000 28.633500000000 18.183495817742 14.439834914089
1942 2 -1.200000000000 31.360500000000 18.183495817742 14.439834914089
1943 2 -1.200000000000 28.633500000000 18.718304518264 17.113878416698
1944 2 -1.200000000000 31.360500000000 18.718304518264 17.113878416698
1945 1 2.400000000000 32.724000000000 13.905026213568 13.905026213568
1946 1 2.400000000000 35.451000000000 14.439834914089 16.579069716177
1947 1 2.400000000000 35.451000000000 16.579069716177 13.370217513046
1948 1 2.400000000000 32.724000000000 17.113878416698 16.044261015655
1949 2 -1.200000000000 34.087500000000 15.509452315133 14.974643614611
1950 2 -1.200000000000 36.814500000000 15.509452315133 14.974643614611
1951 2 -1.200000000000 34.087500000000 16.044261015655 17.648687117220
1952 2 -1.200000000000 36.814500000000 16.044261015655 17.648687117220
1953 2 -1.200000000000 34.087500000000 18.183495817742 14.439834914089
1954 2 -1.200000000000 36.814500000000 18.183495817742 14.439834914089
1955 2 -1.200000000000 34.087500000000 18.718304518264 17.113878416698
1956 2 -1.200000000000 36.814500000000 18.718304518264 17.113878416698
1957 1 2.400000000000 38.178000000000 13.905026213568 13.905026213568
1958 1 2.400000000000 40.905000000000 14.439834914089 16.579069716177
1959 1 2.400000000000 40.905000000000 16.579069716177 13.370217513046
1960 1 2.400000000000 38.178000000000 17.113878416698 16.044261015655
1961 2 -1.200000000000 39.541500000000 15.509452315133 14.974643614611
1962 2 -1.200000000000 42.268500000000 15.509452315133 14.974643614611
1963 2 -1.200000000000 39.541500000000 16.044261015655 17.648687117220
1964 2 -1.200000000000 42.268500000000 16.044261015655 17.648687117220
1965 2 -1.200000000000 39.541500000000 18.183495817742 14.439834914089
1966 2 -1.200000000000 42.268500000000 18.183495817742 14.439834914089
1967 2 -1.200000000000 39.541500000000 18.718304518264 17.113878416698
1968 2 -1.200000000000 42.268500000000 18.718304518264 17.113878416698
1969 1 2.400000000000 43.632000000000 13.905026213568 13.905026213568
1970 1 2.400000000000 46.359000000000 14.439834914089 16.579069716177
1971 1 2.400000000000 46.359000000000 16.579069716177 13.370217513046
1972 1 2.400000000000 43.632000000000 17.113878416698 16.044261015655
1973 2 -1.200000000000 44.995500000000 15.509452315133 14.974643614611
1974 2 -1.200000000000 47.722500000000 15.509452315133 14.974643614611
1975 2 -1.200000000000 44.995500000000 16.044261015655 17.648687117220
1976 2 -1.200000000000 47.722500000000 16.044261015655 17.648687117220
1977 2 -1.200000000000 44.995500000000 18.183495817742 14.439834914089
1978 2 -1.200000000000 47.722500000000 18.183495817742 14.439834914089
1979 2 -1.200000000000 44.995500000000 18.718304518264 17.113878416698
1980 2 -1.200000000000 47.722500000000 18.718304518264 17.113878416698
1981 1 2.400000000000 49.086000000000 13.905026213568 13.905026213568
1982 1 2.400000000000 51.813000000000 14.439834914089 16.579069716177
1983 1 2.400000000000 51.813000000000 16.579069716177 13.370217513046
1984 1 2.400000000000 49.086000000000 17.113878416698 16.044261015655
1985 2 -1.200000000000 50.449500000000 15.509452315133 14.974643614611
1986 2 -1.200000000000 53.176500000000 15.509452315133 14.974643614611
1987 2 -1.200000000000 50.449500000000 16.044261015655 17.648687117220
1988 2 -1.200000000000 53.176500000000 16.044261015655 17.648687117220
1989 2 -1.200000000000 50.449500000000 18.183495817742 14.439834914089
1990 2 -1.200000000000 53.176500000000 18.183495817742 14.439834914089
1991 2 -1.200000000000 50.449500000000 18.718304518264 17.113878416698
1992 2 -1.200000000000 53.176500000000 18.718304518264 17.113878416698
1993 1 2.400000000000 54.540000000000 13.905026213568 13.905026213568
1994 1 2.400000000000 57.267000000000 14.439834914089 16.579069716177
1995 1 2.400000000000 57.267000000000 16.579069716177 13.370217513046
1996 1 2.400000000000 54.540000000000 17.113878416698 16.044261015655
1997 2 -1.200000000000 55.903500000000 15.509452315133 14.974643614611
1998 2 -1.200000000000 58.630500000000 15.509452315133 14.974643614611
1999 2 -1.200000000000 55.903500000000 16.044261015655 17.648687117220
2000 2 -1.200000000000 58.630500000000 16.044261015655 17.648687117220
2001 2 -1.200000000000 55.903500000000 18.183495817742 14.439834914089
2002 2 -1.200000000000 58.630500000000 18.183495817742 14.439834914089
2003 2 -1.200000000000 55.903500000000 18.718304518264 17.113878416698
2004 2 -1.200000000000 58.630500000000 18.718304518264 17.113878416698
2005 1 2.400000000000 59.994000000000 13.905026213568 13.905026213568
2006 1 2.400000000000 62.721000000000 14.439834914089 16.579069716177
2007 1 2.400000000000 62.721000000000 16.579069716177 13.370217513046
2008 1 2.400000000000 59.994000000000 17.113878416698 16.044261015655
2009 2 -1.200000000000 61.357500000000 15.509452315133 14.974643614611
2010 2 -1.200000000000 64.084500000000 15.509452315133 14.974643614611
2011 2 -1.200000000000 61.357500000000 16.044261015655 17.648687117220
2012 2 -1.200000000000 64.084500000000 16.044261015655 17.648687117220
2013 2 -1.200000000000 61.357500000000 18.183495817742 14.439834914089
2014 2 -1.200000000000 64.084500000000 18.183495817742 14.439834914089
2015 2 -1.200000000000 61.357500000000 18.718304518264 17.113878416698
2016 2 -1.200000000000 64.084500000000 18.718304518264 17.113878416698
2017 1 2.400000000000 0.000000000000 14.974643614611 19.253113218786
2018 1 2.400000000000 2.727000000000 15.509452315133 21.927156721395
2019 1 2.400000000000 2.727000000000 17.648687117220 18.718304518264
2020 1 2.400000000000 0.000000000000 18.183495817742 21.392348020873
2021 2 -1.200000000000 1.363500000000 16.579069716177 20.322730619829
2022 2 -1.200000000000 4.090500000000 16.579069716177 20.322730619829
2023 2 -1.200000000000 1.363500000000 17.113878416698 22.996774122439
2024 2 -1.200000000000 4.090500000000 17.113878416698 22.996774122439
2025 2 -1.200000000000 1.363500000000 19.253113218786 19.787921919308
2026 2 -1.200000000000 4.090500000000 19.253113218786 19.787921919308
2027 2 -1.200000000000 1.363500000000 19.787921919308 22.461965421917
2028 2 -1.200000000000 4.090500000000 19.787921919308 22.461965421917
2029 1 2.400000000000 5.454000000000 14.974643614611 19.253113218786
2030 1 2.400000000000 8.181000000000 15.509452315133 21.927156721395
2031 1 2.400000000000 8.181000000000 17.648687117220 18.718304518264
2032 1 2.400000000000 5.454000000000 18.183495817742 21.392348020873
2033 2 -1.200000000000 6.817500000000 16.579069716177 20.322730619829
2034 2 -1.200000000000 9.544500000000 16.579069716177 20.322730619829
2035 2 -1.200000000000 6.817500000000 17.113878416698 22.996774122439
2036 2 -1.200000000000 9.544500000000 17.113878416698 22.996774122439
2037 2 -1.200000000000 6.817500000000 19.253113218786 19.787921919308
2038 2 -1.200000000000 9.544500000000 19.253113218786 19.787921919308
2039 2 -1.200000000000 6.817500000000 19.787921919308 22.461965421917
2040 2 -1.200000000000 9.544500000000 19.787921919308 22.461965421917
2041 1 2.400000000000 10.908000000000 14.974643614611 19.253113218786
2042 1 2.400000000000 13.635000000000 15.509452315133 21.927156721395
2043 1 2.400000000000 13.635000000000 17.648687117220 18.718304518264
2044 1 2.400000000000 10.908000000000 18.183495817742 21.392348020873
2045 2 -1.200000000000 12.271500000000 16.579069716177 20.322730619829
2046 2 -1.200000000000 14.998500000000 16.579069716177 20.322730619829
2047 2 -1.200000000000 12.271500000000 17.113878416698 22.996774122439
2048 2 -1.200000000000 14.998500000000 17.113878416698 22.996774122439
2049 2 -1.200000000000 12.271500000000 19.253113218786 19.787921919308
2050 2 -1.200000000000 14.998500000000 19.253113218786 19.787921919308
2051 2 -1.200000000000 12.271500000000 19.787921919308 22.461965421917
2052 2 -1.200000000000 14.998500000000 19.787921919308 22.461965421917
2053 1 2.400000000000 16.362000000000 14.974643614611 19.253113218786
2054 1 2.400000000000 19.089000000000 15.509452315133 21.927156721395
2055 1 2.400000000000 19.089000000000 17.648687117220 18.718304518264
2056 1 2.400000000000 16.362000000000 18.183495817742 21.392348020873
2057 2 -1.200000000000 17.725500000000 16.579069716177 20.322730619829
2058 2 -1.200000000000 20.452500000000 16.579069716177 20.322730619829
2059 2 -1.200000000000 17.725500000000 17.113878416698 22.996774122439
2060 2 -1.200000000000 20.452500000000 17.113878416698 22.996774122439
2061 2 -1.200000000000 17.725500000000 19.253113218786 19.787921919308
2062 2 -1.200000000000 20.452500000000 19.253113218786 19.787921919308
2063 2 -1.200000000000 17.725500000000 19.787921919308 22.461965421917
2064 2 -1.200000000000 20.452500000000 19.787921919308 22.461965421917
2065 1 2.400000000000 21.816000000000 14.974643614611 19.253113218786
2066 1 2.400000000000 24.543000000000 15.509452315133 21.927156721395
2067 1 2.400000000000 24.543000000000 17.648687117220 18.718304518264
2068 1 2.400000000000 21.816000000000 18.183495817742 21.392348020873
2069 2 -1.200000000000 23.179500000000 16.579069716177 20.322730619829
2070 2 -1.200000000000 25.906500000000 16.579069716177 20.322730619829
2071 2 -1.200000000000 23.179500000000 17.113878416698 22.996774122439
2072 2 -1.200000000000 25.906500000000 17.113878416698 22.996774122439
2073 2 -1.200000000000 23.179500000000 19.253113218786 19.787921919308
2074 2 -1.200000000000 25.906500000000 19.253113218786 19.787921919308
2075 2 -1.200000000000 23.179500000000 19.787921919308 22.461965421917
2076 2 -1.200000000000 25.906500000000 19.787921919308 22.461965421917
2077 1 2.400000000000 27.270000000000 14.974643614611 19.253113218786
2078 1 2.400000000000 29.997000000000 15.509452315133 21.927156721395
2079 1 2.400000000000 29.997000000000 17.648687117220 18.718304518264
2080 1 2.400000000000 27.270000000000 18.183495817742 21.392348020873
2081 2 -1.200000000000 28.633500000000 16.579069716177 20.322730619829
2082 2 -1.200000000000 31.360500000000 16.579069716177 20.322730619829
2083 2 -1.200000000000 28.633500000000 17.113878416698 22.996774122439
2084 2 -1.200000000000 31.360500000000 17.113878416698 22.996774122439
2085 2 -1.200000000000 28.633500000000 19.253113218786 19.787921919308
2086 2 -1.200000000000 31.360500000000 19.253113218786 19.787921919308
2087 2 -1.200000000000 28.633500000000 19.787921919308 22.461965421917
2088 2 -1.200000000000 31.360500000000 19.787921919308 22.461965421917
2089 1 2.400000000000 32.724000000000 14.974643614611 19.253113218786
2090 1 2.400000000000 35.451000000000 15.509452315133 21.927156721395
2091 1 2.400000000000 35.451000000000 17.648687117220 18.718304518264
2092 1 2.400000000000 32.724000000000 18.183495817742 21.392348020873
2093 2 -1.200000000000 34.087500000000 16.579069716177 20.322730619829
2094 2 -1.200000000000 36.814500000000 16.579069716177 20.322730619829
2095 2 -1.200000000000 34.087500000000 17.113878416698 22.996774122439
2096 2 -1.200000000000 36.814500000000 17.113878416698 22.996774122439
2097 2 -1.200000000000 34.087500000000 19.253113218786 19.787921919308
2098 2 -1.200000000000 36.814500000000 19.253113218786 19.787921919308
2099 2 -1.200000000000 34.087500000000 19.787921919308 22.461965421917
2100 2 -1.200000000000 36.814500000000 19.787921919308 22.461965421917
2101 1 2.400000000000 38.178000000000 14.974643614611 19.253113218786
2102 1 2.400000000000 40.905000000000 15.509452315133 21.927156721395
2103 1 2.400000000000 40.905000000000 17.648687117220 18.718304518264
2104 1 2.400000000000 38.178000000000 18.183495817742 21.392348020873
2105 2 -1.200000000000 39.541500000000 16.579069716177 20.322730619829
2106 2 -1.200000000000 42.268500000000 16.579069716177 20.322730619829
2107 2 -1.200000000000 39.541500000000 17.113878416698 22.996774122439
2108 2 -1.200000000000 42.268500000000 17.113878416698 22.996774122439
2109 2 -1.200000000000 39.541500000000 19.253113218786 19.787921919308
2110 2 -1.200000000000 42.268500000000 19.253113218786 19.787921919308
2111 2 -1.200000000000 39.541500000000 19.787921919308 22.461965421917
2112 2 -1.200000000000 42.268500000000 19.787921919308 22.461965421917
2113 1 2.400000000000 43.632000000000 14.974643614611 19.253113218786
2114 1 2.400000000000 46.359000000000 15.509452315133 21.927156721395
2115 1 2.400000000000 46.359000000000 17.648687117220 18.718304518264
2116 1 2.400000000000 43.632000000000 18.183495817742 21.392348020873
2117 2 -1.200000000000 44.995500000000 16.579069716177 20.322730619829
2118 2 -1.200000000000 47.722500000000 16.579069716177 20.322730619829
2119 2 -1.200000000000 44.995500000000 17.113878416698 22.996774122439
2120 2 -1.200000000000 47.722500000000 17.113878416698 22.996774122439
2121 2 -1.200000000000 44.995500000000 19.253113218786 19.787921919308
2122 2 -1.200000000000 47.722500000000 19.253113218786 19.787921919308
2123 2 -1.200000000000 44.995500000000 19.787921919308 22.461965421917
2124 2 -1.200000000000 47.722500000000 19.787921919308 22.461965421917
2125 1 2.400000000000 49.086000000000 14.974643614611 19.253113218786
2126 1 2.400000000000 51.813000000000 15.509452315133 21.927156721395
2127 1 2.400000000000 51.813000000000 17.648687117220 18.718304518264
2128 1 2.400000000000 49.086000000000 18.183495817742 21.392348020873
2129 2 -1.200000000000 50.449500000000 16.579069716177 20.322730619829
2130 2 -1.200000000000 53.176500000000 16.579069716177 20.322730619829
2131 2 -1.200000000000 50.449500000000 17.113878416698 22.996774122439
2132 2 -1.200000000000 53.176500000000 17.113878416698 22.996774122439
2133 2 -1.200000000000 50.449500000000 19.253113218786 19.787921919308
2134 2 -1.200000000000 53.176500000000 19.253113218786 19.787921919308
2135 2 -1.200000000000 50.449500000000 19.787921919308 22.461965421917
2136 2 -1.200000000000 53.176500000000 19.787921919308 22.461965421917
2137 1 2.400000000000 54.540000000000 14.974643614611 19.253113218786
2138 1 2.400000000000 57.267000000000 15.509452315133 21.927156721395
2139 1 2.400000000000 57.267000000000 17.648687117220 18.718304518264
2140 1 2.400000000000 54.540000000000 18.183495817742 21.392348020873
2141 2 -1.200000000000 55.903500000000 16.579069716177 20.322730619829
2142 2 -1.200000000000 58.630500000000 16.579069716177 20.322730619829
2143 2 -1.200000000000 55.903500000000 17.113878416698 22.996774122439
2144 2 -1.200000000000 58.630500000000 17.113878416698 22.996774122439
2145 2 -1.200000000000 55.903500000000 19.253113218786 19.787921919308
2146 2 -1.200000000000 58.630500000000 19.253113218786 19.787921919308
2147 2 -1.200000000000 55.903500000000 19.787921919308 22.461965421917
2148 2 -1.200000000000 58.630500000000 19.787921919308 22.461965421917
2149 1 2.400000000000 59.994000000000 14.974643614611 19.253113218786
2150 1 2.400000000000 62.721000000000 15.509452315133 21.927156721395
2151 1 2.400000000000 62.721000000000 17.648687117220 18.718304518264
2152 1 2.400000000000 59.994000000000 18.183495817742 21.392348020873
2153 2 -1.200000000000 61.357500000000 16.579069716177 20.322730619829
2154 2 -1.200000000000 64.084500000000 16.579069716177 20.322730619829
2155 2 -1.200000000000 61.357500000000 17.113878416698 22.996774122439
2156 2 -1.200000000000 64.084500000000 17.113878416698 22.996774122439
2157 2 -1.200000000000 61.357500000000 19.253113218786 19.787921919308
2158 2 -1.200000000000 64.084500000000 19.253113218786 19.787921919308
2159 2 -1.200000000000 61.357500000000 19.787921919308 22.461965421917
2160 2 -1.200000000000 64.084500000000 19.787921919308 22.461965421917
2161 1 2.400000000000 0.000000000000 16.044261015655 24.601200224004
2162 1 2.400000000000 2.727000000000 16.579069716177 27.275243726613
2163 1 2.400000000000 2.727000000000 18.718304518264 24.066391523482
2164 1 2.400000000000 0.000000000000 19.253113218786 26.740435026091
2165 2 -1.200000000000 1.363500000000 17.648687117220 25.670817625048
2166 2 -1.200000000000 4.090500000000 17.648687117220 25.670817625048
2167 2 -1.200000000000 1.363500000000 18.183495817742 0.534808700522
2168 2 -1.200000000000 4.090500000000 18.183495817742 0.534808700522
2169 2 -1.200000000000 1.363500000000 20.322730619829 25.136008924526
2170 2 -1.200000000000 4.090500000000 20.322730619829 25.136008924526
2171 2 -1.200000000000 1.363500000000 20.857539320351 0.000000000000
2172 2 -1.200000000000 4.090500000000 20.857539320351 0.000000000000
2173 1 2.400000000000 5.454000000000 16.044261015655 24.601200224004
2174 1 2.400000000000 8.181000000000 16.579069716177 27.275243726613
2175 1 2.400000000000 8.181000000000 18.718304518264 24.066391523482
2176 1 2.400000000000 5.454000000000 19.253113218786 26.740435026091
2177 2 -1.200000000000 6.817500000000 17.648687117220 25.670817625048
2178 2 -1.200000000000 9.544500000000 17.648687117220 25.670817625048
2179 2 -1.200000000000 6.817500000000 18.183495817742 0.534808700522
2180 2 -1.200000000000 9.544500000000 18.183495817742 0.534808700522
2181 2 -1.200000000000 6.817500000000 20.322730619829 25.136008924526
2182 2 -1.200000000000 9.544500000000 20.322730619829 25.136008924526
2183 2 -1.200000000000 6.817500000000 20.857539320351 0.000000000000
2184 2 -1.200000000000 9.544500000000 20.857539320351 0.000000000000
2185 1 2.400000000000 10.908000000000 16.044261015655 24.601200224004
2186 1 2.400000000000 13.635000000000 16.579069716177 27.275243726613
2187 1 2.400000000000 13.635000000000 18.718304518264 24.066391523482
2188 1 2.400000000000 10.908000000000 19.253113218786 26.740435026091
2189 2 -1.200000000000 12.271500000000 17.648687117220 25.670817625048
2190 2 -1.200000000000 14.998500000000 17.648687117220 25.670817625048
2191 2 -1.200000000000 12.271500000000 18.183495817742 0.534808700522
2192 2 -1.200000000000 14.998500000000 18.183495817742 0.534808700522
2193 2 -1.200000000000 12.271500000000 20.322730619829 25.136008924526
2194 2 -1.200000000000 14.998500000000 20.322730619829 25.136008924526
2195 2 -1.200000000000 12.271500000000 20.857539320351 0.000000000000
2196 2 -1.200000000000 14.998500000000 20.857539320351 0.000000000000
2197 1 2.400000000000 16.362000000000 16.044261015655 24.601200224004
2198 1 2.400000000000 19.089000000000 16.579069716177 27.275243726613
2199 1 2.400000000000 19.089000000000 18.718304518264 24.066391523482
2200 1 2.400000000000 16.362000000000 19.253113218786 26.740435026091
2201 2 -1.200000000000 17.725500000000 17.648687117220 25.670817625048
2202 2 -1.200000000000 20.452500000000 17.648687117220 25.670817625048
2203 2 -1.200000000000 17.725500000000 18.183495817742 0.534808700522
2204 2 -1.200000000000 20.452500000000 18.183495817742 0.534808700522
2205 2 -1.200000000000 17.725500000000 20.322730619829 25.136008924526
2206 2 -1.200000000000 20.452500000000 20.322730619829 25.136008924526
2207 2 -1.200000000000 17.725500000000 20.857539320351 0.000000000000
2208 2 -1.200000000000 20.452500000000 20.857539320351 0.000000000000
2209 1 2.400000000000 21.816000000000 16.044261015655 24.601200224004
2210 1 2.400000000000 24.543000000000 16.579069716177 27.275243726613
2211 1 2.400000000000 24.543000000000 18.718304518264 24.066391523482
2212 1 2.400000000000 21.816000000000 19.253113218786 26.740435026091
2213 2 -1.200000000000 23.179500000000 17.648687117220 25.670817625048
2214 2 -1.200000000000 25.906500000000 17.648687117220 25.670817625048
2215 2 -1.200000000000 23.179500000000 18.183495817742 0.534808700522
2216 2 -1.200000000000 25.906500000000 18.183495817742 0.534808700522
2217 2 -1.200000000000 23.179500000000 20.322730619829 25.136008924526
2218 2 -1.200000000000 25.906500000000 20.322730619829 25.136008924526
2219 2 -1.200000000000 23.179500000000 20.857539320351 0.000000000000
2220 2 -1.200000000000 25.906500000000 20.857539320351 0.000000000000
2221 1 2.400000000000 27.270000000000 16.044261015655 24.601200224004
2222 1 2.400000000000 29.997000000000 16.579069716177 27.275243726613
2223 1 2.400000000000 29.997000000000 18.718304518264 24.066391523482
2224 1 2.400000000000 27.270000000000 19.253113218786 26.740435026091
2225 2 -1.200000000000 28.633500000000 17.648687117220 25.670817625048
2226 2 -1.200000000000 31.360500000000 17.648687117220 25.670817625048
2227 2 -1.200000000000 28.633500000000 18.183495817742 0.534808700522
2228 2 -1.200000000000 31.360500000000 18.183495817742 0.534808700522
2229 2 -1.200000000000 28.633500000000 20.322730619829 25.136008924526
2230 2 -1.200000000000 31.360500000000 20.322730619829 25.136008924526
2231 2 -1.200000000000 28.633500000000 20.857539320351 0.000000000000
2232 2 -1.200000000000 31.360500000000 20.857539320351 0.000000000000
2233 1 2.400000000000 32.724000000000 16.044261015655 24.601200224004
2234 1 2.400000000000 35.451000000000 16.579069716177 27.275243726613
2235 1 2.400000000000 35.451000000000 18.718304518264 24.066391523482
2236 1 2.400000000000 32.724000000000 19.253113218786 26.740435026091
2237 2 -1.200000000000 34.087500000000 17.648687117220 25.670817625048
2238 2 -1.200000000000 36.814500000000 17.648687117220 25.670817625048
2239 2 -1.200000000000 34.087500000000 18.183495817742 0.534808700522
2240 2 -1.200000000000 36.814500000000 18.183495817742 0.534808700522
2241 2 -1.200000000000 34.087500000000 20.322730619829 25.136008924526
2242 2 -1.200000000000 36.814500000000 20.322730619829 25.136008924526
2243 2 -1.200000000000 34.087500000000 20.857539320351 0.000000000000
2244 2 -1.200000000000 36.814500000000 20.857539320351 0.000000000000
2245 1 2.400000000000 38.178000000000 16.044261015655 24.601200224004
2246 1 2.400000000000 40.905000000000 16.579069716177 27.275243726613
2247 1 2.400000000000 40.905000000000 18.718304518264 24.066391523482
2248 1 2.400000000000 38.178000000000 19.253113218786 26.740435026091
2249 2 -1.200000000000 39.541500000000 17.648687117220 25.670817625048
2250 2 -1.200000000000 42.268500000000 17.648687117220 25.670817625048
2251 2 -1.200000000000 39.541500000000 18.183495817742 0.534808700522
2252 2 -1.200000000000 42.268500000000 18.183495817742 0.534808700522
2253 2 -1.200000000000 39.541500000000 20.322730619829 25.136008924526
2254 2 -1.200000000000 42.268500000000 20.322730619829 25.136008924526
2255 2 -1.200000000000 39.541500000000 20.857539320351 0.000000000000
2256 2 -1.200000000000 42.268500000000 20.857539320351 0.000000000000
2257 1 2.400000000000 43.632000000000 16.044261015655 24.601200224004
2258 1 2.400000000000 46.359000000000 16.579069716177 27.275243726613
2259 1 2.400000000000 46.359000000000 18.718304518264 24.066391523482
2260 1 2.400000000000 43.632000000000 19.253113218786 26.740435026091
2261 2 -1.200000000000 44.995500000000 17.648687117220 25.670817625048
2262 2 -1.200000000000 47.722500000000 17.648687117220 25.670817625048
2263 2 -1.200000000000 44.995500000000 18.183495817742 0.534808700522
2264 2 -1.200000000000 47.722500000000 18.183495817742 0.534808700522
2265 2 -1.200000000000 44.995500000000 20.322730619829 25.136008924526
2266 2 -1.200000000000 47.722500000000 20.322730619829 25.136008924526
2267 2 -1.200000000000 44.995500000000 20.857539320351 0.000000000000
2268 2 -1.200000000000 47.722500000000 20.857539320351 0.000000000000
2269 1 2.400000000000 49.086000000000 16.044261015655 24.601200224004
2270 1 2.400000000000 51.813000000000 16.579069716177 27.275243726613
2271 1 2.400000000000 51.813000000000 18.718304518264 24.066391523482
2272 1 2.400000000000 49.086000000000 19.253113218786 26.740435026091
2273 2 -1.200000000000 50.449500000000 17.648687117220 25.670817625048
2274 2 -1.200000000000 53.176500000000 17.648687117220 25.670817625048
2275 2 -1.200000000000 50.449500000000 18.183495817742 0.534808700522
2276 2 -1.200000000000 53.176500000000 18.183495817742 0.534808700522
2277 2 -1.200000000000 50.449500000000 20.322730619829 25.136008924526
2278 2 -1.200000000000 53.176500000000 20.322730619829 25.136008924526
2279 2 -1.200000000000 50.449500000000 20.857539320351 0.000000000000
2280 2 -1.200000000000 53.176500000000 20.857539320351 0.000000000000
2281 1 2.400000000000 54.540000000000 16.044261015655 24.601200224004
2282 1 2.400000000000 57.267000000000 16.579069716177 27.275243726613
2283 1 2.400000000000 57.267000000000 18.718304518264 24.066391523482
2284 1 2.400000000000 54.540000000000 19.253113218786 26.740435026091
2285 2 -1.200000000000 55.903500000000 17.648687117220 25.670817625048
2286 2 -1.200000000000 58.630500000000 17.648687117220 25.670817625048
2287 2 -1.200000000000 55.903500000000 18.183495817742 0.534808700522
2288 2 -1.200000000000 58.630500000000 18.183495817742 0.534808700522
2289 2 -1.200000000000 55.903500000000 20.322730619829 25.136008924526
2290 2 -1.200000000000 58.630500000000 20.322730619829 25.136008924526
2291 2 -1.200000000000 55.903500000000 20.857539320351 0.000000000000
2292 2 -1.200000000000 58.630500000000 20.857539320351 0.000000000000
2293 1 2.400000000000 59.994000000000 16.044261015655 24.601200224004
2294 1 2.400000000000 62.721000000000 16.579069716177 27.275243726613
2295 1 2.400000000000 62.721000000000 18.718304518264 24.066391523482
2296 1 2.400000000000 59.994000000000 19.253113218786 26.740435026091
2297 2 -1.200000000000 61.357500000000 17.648687117220 25.670817625048
2298 2 -1.200000000000 64.084500000000 17.648687117220 25.670817625048
2299 2 -1.200000000000 61.357500000000 18.183495817742 0.534808700522
2300 2 -1.200000000000 64.084500000000 18.183495817742 0.534808700522
2301 2 -1.200000000000 61.357500000000 20.322730619829 25.136008924526
2302 2 -1.200000000000 64.084500000000 20.322730619829 25.136008924526
2303 2 -1.200000000000 61.357500000000 20.857539320351 0.000000000000
2304 2 -1.200000000000 64.084500000000 20.857539320351 0.000000000000
2305 1 2.400000000000 0.000000000000 17.113878416698 2.139234802087
2306 1 2.400000000000 2.727000000000 17.648687117220 4.813278304696
2307 1 2.400000000000 2.727000000000 19.787921919308 1.604426101565
2308 1 2.400000000000 0.000000000000 20.322730619829 4.278469604175
2309 2 -1.200000000000 1.363500000000 18.718304518264 3.208852203131
2310 2 -1.200000000000 4.090500000000 18.718304518264 3.208852203131
2311 2 -1.200000000000 1.363500000000 19.253113218786 5.882895705740
2312 2 -1.200000000000 4.090500000000 19.253113218786 5.882895705740
2313 2 -1.200000000000 1.363500000000 21.392348020873 2.674043502609
2314 2 -1.200000000000 4.090500000000 21.392348020873 2.674043502609
2315 2 -1.200000000000 1.363500000000 21.927156721395 5.348087005218
2316 2 -1.200000000000 4.090500000000 21.927156721395 5.348087005218
2317 1 2.400000000000 5.454000000000 17.113878416698 2.139234802087
2318 1 2.400000000000 8.181000000000 17.648687117220 4.813278304696
2319 1 2.400000000000 8.181000000000 19.787921919308 1.604426101565
2320 1 2.400000000000 5.454000000000 20.322730619829 4.278469604175
2321 2 -1.200000000000 6.817500000000 18.718304518264 3.208852203131
2322 2 -1.200000000000 9.544500000000 18.718304518264 3.208852203131
2323 2 -1.200000000000 6.817500000000 19.253113218786 5.882895705740
2324 2 -1.200000000000 9.544500000000 19.253113218786 5.882895705740
2325 2 -1.200000000000 6.817500000000 21.392348020873 2.674043502609
2326 2 -1.200000000000 9.544500000000 21.392348020873 2.674043502609
2327 2 -1.200000000000 6.817500000000 21.927156721395 5.348087005218
2328 2 -1.200000000000 9.544500000000 21.927156721395 5.348087005218
2329 1 2.400000000000 10.908000000000 17.113878416698 2.139234802087
2330 1 2.400000000000 13.635000000000 17.648687117220 4.813278304696
2331 1 2.400000000000 13.635000000000 19.787921919308 1.604426101565
2332 1 2.400000000000 10.908000000000 20.322730619829 4.278469604175
2333 2 -1.200000000000 12.271500000000 18.718304518264 3.208852203131
2334 2 -1.200000000000 14.998500000000 18.718304518264 3.208852203131
2335 2 -1.200000000000 12.271500000000 19.253113218786 5.882895705740
2336 2 -1.200000000000 14.998500000000 19.253113218786 5.882895705740
2337 2 -1.200000000000 12.271500000000 21.392348020873 2.674043502609
2338 2 -1.200000000000 14.998500000000 21.392348020873 2.674043502609
2339 2 -1.200000000000 12.271500000000 21.927156721395 5.348087005218
2340 2 -1.200000000000 14.998500000000 21.927156721395 5.348087005218
2341 1 2.400000000000 16.362000000000 17.113878416698 2.139234802087
2342 1 2.400000000000 19.089000000000 17.648687117220 4.813278304696
2343 1 2.400000000000 19.089000000000 19.787921919308 1.604426101565
2344 1 2.400000000000 16.362000000000 20.322730619829 4.278469604175
2345 2 -1.200000000000 17.725500000000 18.718304518264 3.208852203131
2346 2 -1.200000000000 20.452500000000 18.718304518264 3.208852203131
2347 2 -1.200000000000 17.725500000000 19.253113218786 5.882895705740
2348 2 -1.200000000000 20.452500000000 19.253113218786 5.882895705740
2349 2 -1.200000000000 17.725500000000 21.392348020873 2.674043502609
2350 2 -1.200000000000 20.452500000000 21.392348020873 2.674043502609
2351 2 -1.200000000000 17.725500000000 21.927156721395 5.348087005218
2352 2 -1.200000000000 20.452500000000 21.927156721395 5.348087005218
2353 1 2.400000000000 21.816000000000 17.113878416698 2.139234802087
2354 1 2.400000000000 24.543000000000 17.648687117220 4.813278304696
2355 1 2.400000000000 24.543000000000 19.787921919308 1.604426101565
2356 1 2.400000000000 21.816000000000 20.322730619829 4.278469604175
2357 2 -1.200000000000 23.179500000000 18.718304518264 3.208852203131
2358 2 -1.200000000000 25.906500000000 18.718304518264 3.208852203131
2359 2 -1.200000000000 23.179500000000 19.253113218786 5.882895705740
2360 2 -1.200000000000 25.906500000000 19.253113218786 5.882895705740
2361 2 -1.200000000000 23.179500000000 21.392348020873 2.674043502609
2362 2 -1.200000000000 25.906500000000 21.392348020873 2.674043502609
2363 2 -1.200000000000 23.179500000000 21.927156721395 5.348087005218
2364 2 -1.200000000000 25.906500000000 21.927156721395 5.348087005218
2365 1 2.400000000000 27.270000000000 17.113878416698 2.139234802087
2366 1 2.400000000000 29.997000000000 17.648687117220 4.813278304696
2367 1 2.400000000000 29.997000000000 19.787921919308 1.604426101565
2368 1 2.400000000000 27.270000000000 20.322730619829 4.278469604175
2369 2 -1.200000000000 28.633500000000 18.718304518264 3.208852203131
2370 2 -1.200000000000 31.360500000000 18.718304518264 3.208852203131
2371 2 -1.200000000000 28.633500000000 19.253113218786 5.882895705740
2372 2 -1.200000000000 31.360500000000 19.253113218786 5.882895705740
2373 2 -1.200000000000 28.633500000000 21.392348020873 2.674043502609
2374 2 -1.200000000000 31.360500000000 21.392348020873 2.674043502609
2375 2 -1.200000000000 28.633500000000 21.927156721395 5.348087005218
2376 2 -1.200000000000 31.360500000000 21.927156721395 5.348087005218
2377 1 2.400000000000 32.724000000000 17.113878416698 2.139234802087
2378 1 2.400000000000 35.451000000000 17.648687117220 4.813278304696
2379 1 2.400000000000 35.451000000000 19.787921919308 1.604426101565
2380 1 2.400000000000 32.724000000000 20.322730619829 4.278469604175
2381 2 -1.200000000000 34.087500000000 18.718304518264 3.208852203131
2382 2 -1.200000000000 36.814500000000 18.718304518264 3.208852203131
2383 2 -1.200000000000 34.087500000000 19.253113218786 5.882895705740
2384 2 -1.200000000000 36.814500000000 19.253113218786 5.882895705740
2385 2 -1.200000000000 34.087500000000 21.392348020873 2.674043502609
2386 2 -1.200000000000 36.814500000000 21.392348020873 2.674043502609
2387 2 -1.200000000000 34.087500000000 21.927156721395 5.348087005218
2388 2 -1.200000000000 36.814500000000 21.927156721395 5.348087005218
2389 1 2.400000000000 38.178000000000 17.113878416698 2.139234802087
2390 1 2.400000000000 40.905000000000 17.648687117220 4.813278304696
2391 1 2.400000000000 40.905000000000 19.787921919308 1.604426101565
2392 1 2.400000000000 38.178000000000 20.322730619829 4.278469604175
2393 2 -1.200000000000 39.541500000000 18.718304518264 3.208852203131
2394 2 -1.200000000000 42.268500000000 18.718304518264 3.208852203131
2395 2 -1.200000000000 39.541500000000 19.253113218786 5.882895705740
2396 2 -1.200000000000 42.268500000000 19.253113218786 5.882895705740
2397 2 -1.200000000000 39.541500000000 21.392348020873 2.674043502609
2398 2 -1.200000000000 42.268500000000 21.392348020873 2.674043502609
2399 2 -1.200000000000 39.541500000000 21.927156721395 5.348087005218
2400 2 -1.200000000000 42.268500000000 21.927156721395 5.348087005218
2401 1 2.400000000000 43.632000000000 17.113878416698 2.139234802087
2402 1 2.400000000000 46.359000000000 17.648687117220 4.813278304696
2403 1 2.400000000000 46.359000000000 19.787921919308 1.604426101565
2404 1 2.400000000000 43.632000000000 20.322730619829 4.278469604175
2405 2 -1.200000000000 44.995500000000 18.718304518264 3.208852203131
2406 2 -1.200000000000 47.722500000000 18.718304518264 3.208852203131
2407 2 -1.200000000000 44.995500000000 19.253113218786 5.882895705740
2408 2 -1.200000000000 47.722500000000 19.253113218786 5.882895705740
2409 2 -1.200000000000 44.995500000000 21.392348020873 2.674043502609
2410 2 -1.200000000000 47.722500000000 21.392348020873 2.674043502609
2411 2 -1.200000000000 44.995500000000 21.927156721395 5.348087005218
2412 2 -1.200000000000 47.722500000000 21.927156721395 5.348087005218
2413 1 2.400000000000 49.086000000000 17.113878416698 2.139234802087
2414 1 2.400000000000 51.813000000000 17.648687117220 4.813278304696
2415 1 2.400000000000 51.813000000000 19.787921919308 1.604426101565
2416 1 2.400000000000 49.086000000000 20.322730619829 4.278469604175
2417 2 -1.200000000000 50.449500000000 18.718304518264 3.208852203131
2418 2 -1.200000000000 53.176500000000 18.718304518264 3.208852203131
2419 2 -1.200000000000 50.449500000000 19.253113218786 5.882895705740
2420 2 -1.200000000000 53.176500000000 19.253113218786 5.882895705740
2421 2 -1.200000000000 50.449500000000 21.392348020873 2.674043502609
2422 2 -1.200000000000 53.176500000000 21.392348020873 2.674043502609
2423 2 -1.200000000000 50.449500000000 21.927156721395 5.348087005218
2424 2 -1.200000000000 53.176500000000 21.927156721395 5.348087005218
2425 1 2.400000000000 54.540000000000 17.113878416698 2.139234802087
2426 1 2.400000000000 57.267000000000 17.648687117220 4.813278304696
2427 1 2.400000000000 57.267000000000 19.787921919308 1.604426101565
2428 1 2.400000000000 54.540000000000 20.322730619829 4.278469604175
2429 2 -1.200000000000 55.903500000000 18.718304518264 3.208852203131
2430 2 -1.200000000000 58.630500000000 18.718304518264 3.208852203131
2431 2 -1.200000000000 55.903500000000 19.253113218786 5.882895705740
2432 2 -1.200000000000 58.630500000000 19.253113218786 5.882895705740
2433 2 -1.200000000000 55.903500000000 21.392348020873 2.674043502609
2434 2 -1.200000000000 58.630500000000 21.392348020873 2.674043502609
2435 2 -1.200000000000 55.903500000000 21.927156721395 5.348087005218
2436 2 -1.200000000000 58.630500000000 21.927156721395 5.348087005218
2437 1 2.400000000000 59.994000000000 17.113878416698 2.139234802087
2438 1 2.400000000000 62.721000000000 17.648687117220 4.813278304696
2439 1 2.400000000000 62.721000000000 19.787921919308 1.604426101565
2440 1 2.400000000000 59.994000000000 20.322730619829 4.278469604175
2441 2 -1.200000000000 61.357500000000 18.718304518264 3.208852203131
2442 2 -1.200000000000 64.084500000000 18.718304518264 3.208852203131
2443 2 -1.200000000000 61.357500000000 19.253113218786 5.882895705740
2444 2 -1.200000000000 64.084500000000 19.253113218786 5.882895705740
2445 2 -1.200000000000 61.357500000000 21.392348020873 2.674043502609
2446 2 -1.200000000000 64.084500000000 21.392348020873 2.674043502609
2447 2 -1.200000000000 61.357500000000 21.927156721395 5.348087005218
2448 2 -1.200000000000 64.084500000000 21.927156721395 5.348087005218
2449 1 2.400000000000 0.000000000000 18.183495817742 7.487321807306
2450 1 2.400000000000 2.727000000000 18.718304518264 10.161365309915
2451 1 2.400000000000 2.727000000000 20.857539320351 6.952513106784
2452 1 2.400000000000 0.000000000000 21.392348020873 9.626556609393
2453 2 -1.200000000000 1.363500000000 19.787921919308 8.556939208349
2454 2 -1.200000000000 4.090500000000 19.787921919308 8.556939208349
2455 2 -1.200000000000 1.363500000000 20.322730619829 11.230982710958
2456 2 -1.200000000000 4.090500000000 20.322730619829 11.230982710958
2457 2 -1.200000000000 1.363500000000 22.461965421917 8.022130507827
2458 2 -1.200000000000 4.090500000000 22.461965421917 8.022130507827
2459 2 -1.200000000000 1.363500000000 22.996774122439 10.696174010437
2460 2 -1.200000000000 4.090500000000 22.996774122439 10.696174010437
2461 1 2.400000000000 5.454000000000 18.183495817742 7.487321807306
2462 1 2.400000000000 8.181000000000 18.718304518264 10.161365309915
2463 1 2.400000000000 8.181000000000 20.857539320351 6.952513106784
2464 1 2.400000000000 5.454000000000 21.392348020873 9.626556609393
2465 2 -1.200000000000 6.817500000000 19.787921919308 8.556939208349
2466 2 -1.200000000000 9.544500000000 19.787921919308 8.556939208349
2467 2 -1.200000000000 6.817500000000 20.322730619829 11.230982710958
2468 2 -1.200000000000 9.544500000000 20.322730619829 11.230982710958
2469 2 -1.200000000000 6.817500000000 22.461965421917 8.022130507827
2470 2 -1.200000000000 9.544500000000 22.461965421917 8.022130507827
2471 2 -1.200000000000 6.817500000000 22.996774122439 10.696174010437
2472 2 -1.200000000000 9.544500000000 22.996774122439 10.696174010437
2473 1 2.400000000000 10.908000000000 18.183495817742 7.487321807306
2474 1 2.400000000000 13.635000000000 18.718304518264 10.161365309915
2475 1 2.400000000000 13.635000000000 20.857539320351 6.952513106784
2476 1 2.400000000000 10.908000000000 21.392348020873 9.626556609393
2477 2 -1.200000000000 12.271500000000 19.787921919308 8.556939208349
2478 2 -1.200000000000 14.998500000000 19.787921919308 8.556939208349
2479 2 -1.200000000000 12.271500000000 20.322730619829 11.230982710958
2480 2 -1.200000000000 14.998500000000 20.322730619829 11.230982710958
2481 2 -1.200000000000 12.271500000000 22.461965421917 8.022130507827
2482 2 -1.200000000000 14.998500000000 22.461965421917 8.022130507827
2483 2 -1.200000000000 12.271500000000 22.996774122439 10.696174010437
2484 2 -1.200000000000 14.998500000000 22.996774122439 10.696174010437
2485 1 2.400000000000 16.362000000000 18.183495817742 7.487321807306
2486 1 2.400000000000 19.089000000000 18.718304518264 10.161365309915
2487 1 2.400000000000 19.089000000000 20.857539320351 6.952513106784
2488 1 2.400000000000 16.362000000000 21.392348020873 9.626556609393
2489 2 -1.200000000000 17.725500000000 19.787921919308 8.556939208349
2490 2 -1.200000000000 20.452500000000 19.787921919308 8.556939208349
2491 2 -1.200000000000 17.725500000000 20.322730619829 11.230982710958
2492 2 -1.200000000000 20.452500000000 20.322730619829 11.230982710958
2493 2 -1.200000000000 17.725500000000 22.461965421917 8.022130507827
2494 2 -1.200000000000 20.452500000000 22.461965421917 8.022130507827
2495 2 -1.200000000000 17.725500000000 22.996774122439 10.696174010437
2496 2 -1.200000000000 20.452500000000 22.996774122439 10.696174010437
2497 1 2.400000000000 21.816000000000 18.183495817742 7.487321807306
2498 1 2.400000000000 24.543000000000 18.718304518264 10.161365309915
2499 1 2.400000000000 24.543000000000 20.857539320351 6.952513106784
2500 1 2.400000000000 21.816000000000 21.392348020873 9.626556609393
2501 2 -1.200000000000 23.179500000000 19.787921919308 8.556939208349
2502 2 -1.200000000000 25.906500000000 19.787921919308 8.556939208349
2503 2 -1.200000000000 23.179500000000 20.322730619829 11.230982710958
2504 2 -1.200000000000 25.906500000000 20.322730619829 11.230982710958
2505 2 -1.200000000000 23.179500000000 22.461965421917 8.022130507827
2506 2 -1.200000000000 25.906500000000 22.461965421917 8.022130507827
2507 2 -1.200000000000 23.179500000000 22.996774122439 10.696174010437
2508 2 -1.200000000000 25.906500000000 22.996774122439 10.696174010437
2509 1 2.400000000000 27.270000000000 18.183495817742 7.487321807306
2510 1 2.400000000000 29.997000000000 18.718304518264 10.161365309915
2511 1 2.400000000000 29.997000000000 20.857539320351 6.952513106784
2512 1 2.400000000000 27.270000000000 21.392348020873 9.626556609393
2513 2 -1.200000000000 28.633500000000 19.787921919308 8.556939208349
2514 2 -1.200000000000 31.360500000000 19.787921919308 8.556939208349
2515 2 -1.200000000000 28.633500000000 20.322730619829 11.230982710958
2516 2 -1.200000000000 31.360500000000 20.322730619829 11.230982710958
2517 2 -1.200000000000 28.633500000000 22.461965421917 8.022130507827
2518 2 -1.200000000000 31.360500000000 22.461965421917 8.022130507827
2519 2 -1.200000000000 28.633500000000 22.996774122439 10.696174010437
2520 2 -1.200000000000 31.360500000000 22.996774122439 10.696174010437
2521 1 2.400000000000 32.724000000000 18.183495817742 7.487321807306
2522 1 2.400000000000 35.451000000000 18.718304518264 10.161365309915
2523 1 2.400000000000 35.451000000000 20.857539320351 6.952513106784
2524 1 2.400000000000 32.724000000000 21.392348020873 9.626556609393
2525 2 -1.200000000000 34.087500000000 19.787921919308 8.556939208349
2526 2 -1.200000000000 36.814500000000 19.787921919308 8.556939208349
2527 2 -1.200000000000 34.087500000000 20.322730619829 11.230982710958
2528 2 -1.200000000000 36.814500000000 20.322730619829 11.230982710958
2529 2 -1.200000000000 34.087500000000 22.461965421917 8.022130507827
2530 2 -1.200000000000 36.814500000000 22.461965421917 8.022130507827
2531 2 -1.200000000000 34.087500000000 22.996774122439 10.696174010437
2532 2 -1.200000000000 36.814500000000 22.996774122439 10.696174010437
2533 1 2.400000000000 38.178000000000 18.183495817742 7.487321807306
2534 1 2.400000000000 40.905000000000 18.718304518264 10.161365309915
2535 1 2.400000000000 40.905000000000 20.857539320351 6.952513106784
2536 1 2.400000000000 38.178000000000 21.392348020873 9.626556609393
2537 2 -1.200000000000 39.541500000000 19.787921919308 8.556939208349
2538 2 -1.200000000000 42.268500000000 19.787921919308 8.556939208349
2539 2 -1.200000000000 39.541500000000 20.322730619829 11.230982710958
2540 2 -1.200000000000 42.268500000000 20.322730619829 11.230982710958
2541 2 -1.200000000000 39.541500000000 22.461965421917 8.022130507827
2542 2 -1.200000000000 42.268500000000 22.461965421917 8.022130507827
2543 2 -1.200000000000 39.541500000000 22.996774122439 10.696174010437
2544 2 -1.200000000000 42.268500000000 22.996774122439 10.696174010437
2545 1 2.400000000000 43.632000000000 18.183495817742 7.487321807306
2546 1 2.400000000000 46.359000000000 18.718304518264 10.161365309915
2547 1 2.400000000000 46.359000000000 20.857539320351 6.952513106784
2548 1 2.400000000000 43.632000000000 21.392348020873 9.626556609393
2549 2 -1.200000000000 44.995500000000 19.787921919308 8.556939208349
2550 2 -1.200000000000 47.722500000000 19.787921919308 8.556939208349
2551 2 -1.200000000000 44.995500000000 20.322730619829 11.230982710958
2552 2 -1.200000000000 47.722500000000 20.322730619829 11.230982710958
2553 2 -1.200000000000 44.995500000000 22.461965421917 8.022130507827
2554 2 -1.200000000000 47.722500000000 22.461965421917 8.022130507827
2555 2 -1.200000000000 44.995500000000 22.996774122439 10.696174010437
2556 2 -1.200000000000 47.722500000000 22.996774122439 10.696174010437
2557 1 2.400000000000 49.086000000000 18.183495817742 7.487321807306
2558 1 2.400000000000 51.813000000000 18.718304518264 10.161365309915
2559 1 2.400000000000 51.813000000000 20.857539320351 6.952513106784
2560 1 2.400000000000 49.086000000000 21.392348020873 9.626556609393
2561 2 -1.200000000000 50.449500000000 19.787921919308 8.556939208349
2562 2 -1.200000000000 53.176500000000 19.787921919308 8.556939208349
2563 2 -1.200000000000 50.449500000000 20.322730619829 11.230982710958
2564 2 -1.200000000000 53.176500000000 20.322730619829 11.230982710958
2565 2 -1.200000000000 50.449500000000 22.461965421917 8.022130507827
2566 2 -1.200000000000 53.176500000000 22.461965421917 8.022130507827
2567 2 -1.200000000000 50.449500000000 22.996774122439 10.696174010437
2568 2 -1.200000000000 53.176500000000 22.996774122439 10.696174010437
2569 1 2.400000000000 54.540000000000 18.183495817742 7.487321807306
2570 1 2.400000000000 57.267000000000 18.718304518264 10.161365309915
2571 1 2.400000000000 57.267000000000 20.857539320351 6.952513106784
2572 1 2.400000000000 54.540000000000 21.392348020873 9.626556609393
2573 2 -1.200000000000 55.903500000000 19.787921919308 8.556939208349
2574 2 -1.200000000000 58.630500000000 19.787921919308 8.556939208349
2575 2 -1.200000000000 55.903500000000 20.322730619829 11.230982710958
2576 2 -1.200000000000 58.630500000000 20.322730619829 11.230982710958
2577 2 -1.200000000000 55.903500000000 22.461965421917 8.022130507827
2578 2 -1.200000000000 58.630500000000 22.461965421917 8.022130507827
2579 2 -1.200000000000 55.903500000000 22.996774122439 10.696174010437
2580 2 -1.200000000000 58.630500000000 22.996774122439 10.696174010437
2581 1 2.400000000000 59.994000000000 18.183495817742 7.487321807306
2582 1 2.400000000000 62.721000000000 18.718304518264 10.161365309915
2583 1 2.400000000000 62.721000000000 20.857539320351 6.952513106784
2584 1 2.400000000000 59.994000000000 21.392348020873 9.626556609393
2585 2 -1.200000000000 61.357500000000 19.787921919308 8.556939208349
2586 2 -1.200000000000 64.084500000000 19.787921919308 8.556939208349
2587 2 -1.200000000000 61.357500000000 20.322730619829 11.230982710958
2588 2 -1.200000000000 64.084500000000 20.322730619829 11.230982710958
2589 2 -1.200000000000 61.357500000000 22.461965421917 8.022130507827
2590 2 -1.200000000000 64.084500000000 22.461965421917 8.022130507827
2591 2 -1.200000000000 61.357500000000 22.996774122439 10.696174010437
2592 2 -1.200000000000 64.084500000000 22.996774122439 10.696174010437
2593 1 2.400000000000 0.000000000000 19.253113218786 12.835408812524
2594 1 2.400000000000 2.727000000000 19.787921919308 15.509452315133
2595 1 2.400000000000 2.727000000000 21.927156721395 12.300600112002
2596 1 2.400000000000 0.000000000000 22.461965421917 14.974643614611
2597 2 -1.200000000000 1.363500000000 20.857539320351 13.905026213568
2598 2 -1.200000000000 4.090500000000 20.857539320351 13.905026213568
2599 2 -1.200000000000 1.363500000000 21.392348020873 16.579069716177
2600 2 -1.200000000000 4.090500000000 21.392348020873 16.579069716177
2601 2 -1.200000000000 1.363500000000 23.531582822960 13.370217513046
2602 2 -1.200000000000 4.090500000000 23.531582822960 13.370217513046
2603 2 -1.200000000000 1.363500000000 24.066391523482 16.044261015655
2604 2 -1.200000000000 4.090500000000 24.066391523482 16.044261015655
2605 1 2.400000000000 5.454000000000 19.253113218786 12.835408812524
2606 1 2.400000000000 8.181000000000 19.787921919308 15.509452315133
2607 1 2.400000000000 8.181000000000 21.927156721395 12.300600112002
2608 1 2.400000000000 5.454000000000 22.461965421917 14.974643614611
2609 2 -1.200000000000 6.817500000000 20.857539320351 13.905026213568
2610 2 -1.200000000000 9.544500000000 20.857539320351 13.905026213568
2611 2 -1.200000000000 6.817500000000 21.392348020873 16.579069716177
2612 2 -1.200000000000 9.544500000000 21.392348020873 16.579069716177
2613 2 -1.200000000000 6.817500000000 23.531582822960 13.370217513046
2614 2 -1.200000000000 9.544500000000 23.531582822960 13.370217513046
2615 2 -1.200000000000 6.817500000000 24.066391523482 16.044261015655
2616 2 -1.200000000000 9.544500000000 24.066391523482 16.044261015655
2617 1 2.400000000000 10.908000000000 19.253113218786 12.835408812524
2618 1 2.400000000000 13.635000000000 19.787921919308 15.509452315133
2619 1 2.400000000000 13.635000000000 21.927156721395 12.300600112002
2620 1 2.400000000000 10.908000000000 22.461965421917 14.974643614611
2621 2 -1.200000000000 12.271500000000 20.857539320351 13.905026213568
2622 2 -1.200000000000 14.998500000000 20.857539320351 13.905026213568
2623 2 -1.200000000000 12.271500000000 21.392348020873 16.579069716177
2624 2 -1.200000000000 14.998500000000 21.392348020873 16.579069716177
2625 2 -1.200000000000 12.271500000000 23.531582822960 13.370217513046
2626 2 -1.200000000000 14.998500000000 23.531582822960 13.370217513046
2627 2 -1.200000000000 12.271500000000 24.066391523482 16.044261015655
2628 2 -1.200000000000 14.998500000000 24.066391523482 16.044261015655
2629 1 2.400000000000 16.362000000000 19.253113218786 12.835408812524
2630 1 2.400000000000 19.089000000000 19.787921919308 15.509452315133
2631 1 2.400000000000 19.089000000000 21.927156721395 12.300600112002
2632 1 2.400000000000 16.362000000000 22.461965421917 14.974643614611
2633 2 -1.200000000000 17.725500000000 20.857539320351 13.905026213568
2634 2 -1.200000000000 20.452500000000 20.857539320351 13.905026213568
2635 2 -1.200000000000 17.725500000000 21.392348020873 16.579069716177
2636 2 -1.200000000000 20.452500000000 21.392348020873 16.579069716177
2637 2 -1.200000000000 17.725500000000 23.531582822960 13.370217513046
2638 2 -1.200000000000 20.452500000000 23.531582822960 13.370217513046
2639 2 -1.200000000000 17.725500000000 24.066391523482 16.044261015655
2640 2 -1.200000000000 20.452500000000 24.066391523482 16.044261015655
2641 1 2.400000000000 21.816000000000 19.253113218786 12.835408812524
2642 1 2.400000000000 24.543000000000 19.787921919308 15.509452315133
2643 1 2.400000000000 24.543000000000 21.927156721395 12.300600112002
2644 1 2.400000000000 21.816000000000 22.461965421917 14.974643614611
2645 2 -1.200000000000 23.179500000000 20.857539320351 13.905026213568
2646 2 -1.200000000000 25.906500000000 20.857539320351 13.905026213568
2647 2 -1.200000000000 23.179500000000 21.392348020873 16.579069716177
2648 2 -1.200000000000 25.906500000000 21.392348020873 16.579069716177
2649 2 -1.200000000000 23.179500000000 23.531582822960 13.370217513046
2650 2 -1.200000000000 25.906500000000 23.531582822960 13.370217513046
2651 2 -1.200000000000 23.179500000000 24.066391523482 16.044261015655
2652 2 -1.200000000000 25.906500000000 24.066391523482 16.044261015655
2653 1 2.400000000000 27.270000000000 19.253113218786 12.835408812524
2654 1 2.400000000000 29.997000000000 19.787921919308 15.509452315133
2655 1 2.400000000000 29.997000000000 21.927156721395 12.300600112002
2656 1 2.400000000000 27.270000000000 22.461965421917 14.974643614611
2657 2 -1.200000000000 28.633500000000 20.857539320351 13.905026213568
2658 2 -1.200000000000 31.360500000000 20.857539320351 13.905026213568
2659 2 -1.200000000000 28.633500000000 21.392348020873 16.579069716177
2660 2 -1.200000000000 31.360500000000 21.392348020873 16.579069716177
2661 2 -1.200000000000 28.633500000000 23.531582822960 13.370217513046
2662 2 -1.200000000000 31.360500000000 23.531582822960 13.370217513046
2663 2 -1.200000000000 28.633500000000 24.066391523482 16.044261015655
2664 2 -1.200000000000 31.360500000000 24.066391523482 16.044261015655
2665 1 2.400000000000 32.724000000000 19.253113218786 12.835408812524
2666 1 2.400000000000 35.451000000000 19.787921919308 15.509452315133
2667 1 2.400000000000 35.451000000000 21.927156721395 12.300600112002
2668 1 2.400000000000 32.724000000000 22.461965421917 14.974643614611
2669 2 -1.200000000000 34.087500000000 20.857539320351 13.905026213568
2670 2 -1.200000000000 36.814500000000 20.857539320351 13.905026213568
2671 2 -1.200000000000 34.087500000000 21.392348020873 16.579069716177
2672 2 -1.200000000000 36.814500000000 21.392348020873 16.579069716177
2673 2 -1.200000000000 34.087500000000 23.531582822960 13.370217513046
2674 2 -1.200000000000 36.814500000000 23.531582822960 13.370217513046
2675 2 -1.200000000000 34.087500000000 24.066391523482 16.044261015655
2676 2 -1.200000000000 36.814500000000 24.066391523482 16.044261015655
2677 1 2.400000000000 38.178000000000 19.253113218786 12.835408812524
2678 1 2.400000000000 40.905000000000 19.787921919308 15.509452315133
2679 1 2.400000000000 40.905000000000 21.927156721395 12.300600112002
2680 1 2.400000000000 38.178000000000 22.461965421917 14.974643614611
2681 2 -1.200000000000 39.541500000000 20.857539320351 13.905026213568
2682 2 -1.200000000000 42.268500000000 20.857539320351 13.905026213568
2683 2 -1.200000000000 39.541500000000 21.392348020873 16.579069716177
2684 2 -1.200000000000 42.268500000000 21.392348020873 16.579069716177
2685 2 -1.200000000000 39.541500000000 23.531582822960 13.370217513046
2686 2 -1.200000000000 42.268500000000 23.531582822960 13.370217513046
2687 2 -1.200000000000 39.541500000000 24.066391523482 16.044261015655
2688 2 -1.200000000000 42.268500000000 24.066391523482 16.044261015655
2689 1 2.400000000000 43.632000000000 19.253113218786 12.835408812524
2690 1 2.400000000000 46.359000000000 19.787921919308 15.509452315133
2691 1 2.400000000000 46.359000000000 21.927156721395 12.300600112002
2692 1 2.400000000000 43.632000000000 22.461965421917 14.974643614611
2693 2 -1.200000000000 44.995500000000 20.857539320351 13.905026213568
2694 2 -1.200000000000 47.722500000000 20.857539320351 13.905026213568
2695 2 -1.200000000000 44.995500000000 21.392348020873 16.579069716177
2696 2 -1.200000000000 47.722500000000 21.392348020873 16.579069716177
2697 2 -1.200000000000 44.995500000000 23.531582822960 13.370217513046
2698 2 -1.200000000000 47.722500000000 23.531582822960 13.370217513046
2699 2 -1.200000000000 44.995500000000 24.066391523482 16.044261015655
2700 2 -1.200000000000 47.722500000000 24.066391523482 16.044261015655
2701 1 2.400000000000 49.086000000000 19.253113218786 12.835408812524
2702 1 2.400000000000 51.813000000000 19.787921919308 15.509452315133
2703 1 2.400000000000 51.813000000000 21.927156721395 12.300600112002
2704 1 2.400000000000 49.086000000000 22.461965421917 14.974643614611
2705 2 -1.200000000000 50.449500000000 20.857539320351 13.905026213568
2706 2 -1.200000000000 53.176500000000 20.857539320351 13.905026213568
2707 2 -1.200000000000 50.449500000000 21.392348020873 16.579069716177
2708 2 -1.200000000000 53.176500000000 21.392348020873 16.579069716177
2709 2 -1.200000000000 50.449500000000 23.531582822960 13.370217513046
2710 2 -1.200000000000 53.176500000000 23.531582822960 13.370217513046
2711 2 -1.200000000000 50.449500000000 24.066391523482 16.044261015655
2712 2 -1.200000000000 53.176500000000 24.066391523482 16.044261015655
2713 1 2.400000000000 54.540000000000 19.253113218786 12.835408812524
2714 1 2.400000000000 57.267000000000 19.787921919308 15.509452315133
2715 1 2.400000000000 57.267000000000 21.927156721395 12.300600112002
2716 1 2.400000000000 54.540000000000 22.461965421917 14.974643614611
2717 2 -1.200000000000 55.903500000000 20.857539320351 13.905026213568
2718 2 -1.200000000000 58.630500000000 20.857539320351 13.905026213568
2719 2 -1.200000000000 55.903500000000 21.392348020873 16.579069716177
2720 2 -1.200000000000 58.630500000000 21.392348020873 16.579069716177
2721 2 -1.200000000000 55.903500000000 23.531582822960 13.370217513046
2722 2 -1.200000000000 58.630500000000 23.531582822960 13.370217513046
2723 2 -1.200000000000 55.903500000000 24.066391523482 16.044261015655
2724 2 -1.200000000000 58.630500000000 24.066391523482 16.044261015655
2725 1 2.400000000000 59.994000000000 19.253113218786 12.835408812524
2726 1 2.400000000000 62.721000000000 19.787921919308 15.509452315133
2727 1 2.400000000000 62.721000000000 21.927156721395 12.300600112002
2728 1 2.400000000000 59.994000000000 22.461965421917 14.974643614611
2729 2 -1.200000000000 61.357500000000 20.857539320351 13.905026213568
2730 2 -1.200000000000 64.084500000000 20.857539320351 13.905026213568
2731 2 -1.200000000000 61.357500000000 21.392348020873 16.579069716177
2732 2 -1.200000000000 64.084500000000 21.392348020873 16.579069716177
2733 2 -1.200000000000 61.357500000000 23.531582822960 13.370217513046
2734 2 -1.200000000000 64.084500000000 23.531582822960 13.370217513046
2735 2 -1.200000000000 61.357500000000 24.066391523482 16.044261015655
2736 2 -1.200000000000 64.084500000000 24.066391523482 16.044261015655
2737 1 2.400000000000 0.000000000000 20.322730619829 18.183495817742
2738 1 2.400000000000 2.727000000000 20.857539320351 20.857539320351
2739 1 2.400000000000 2.727000000000 22.996774122439 17.648687117220
2740 1 2.400000000000 0.000000000000 23.531582822960 20.322730619829
2741 2 -1.200000000000 1.363500000000 21.927156721395 19.253113218786
2742 2 -1.200000000000 4.090500000000 21.927156721395 19.253113218786
2743 2 -1.200000000000 1.363500000000 22.461965421917 21.927156721395
2744 2 -1.200000000000 4.090500000000 22.461965421917 21.927156721395
2745 2 -1.200000000000 1.363500000000 24.601200224004 18.718304518264
2746 2 -1.200000000000 4.090500000000 24.601200224004 18.718304518264
2747 2 -1.200000000000 1.363500000000 25.136008924526 21.392348020873
2748 2 -1.200000000000 4.090500000000 25.136008924526 21.392348020873
2749 1 2.400000000000 5.454000000000 20.322730619829 18.183495817742
2750 1 2.400000000000 8.181000000000 20.857539320351 20.857539320351
2751 1 2.400000000000 8.181000000000 22.996774122439 17.648687117220
2752 1 2.400000000000 5.454000000000 23.531582822960 20.322730619829
2753 2 -1.200000000000 6.817500000000 21.927156721395 19.253113218786
2754 2 -1.200000000000 9.544500000000 21.927156721395 19.253113218786
2755 2 -1.200000000000 6.817500000000 22.461965421917 21.927156721395
2756 2 -1.200000000000 9.544500000000 22.461965421917 21.927156721395
2757 2 -1.200000000000 6.817500000000 24.601200224004 18.718304518264
2758 2 -1.200000000000 9.544500000000 24.601200224004 18.718304518264
2759 2 -1.200000000000 6.817500000000 25.136008924526 21.392348020873
2760 2 -1.200000000000 9.544500000000 25.136008924526 21.392348020873
2761 1 2.400000000000 10.908000000000 20.322730619829 18.183495817742
2762 1 2.400000000000 13.635000000000 20.857539320351 20.857539320351
2763 1 2.400000000000 13.635000000000 22.996774122439 17.648687117220
2764 1 2.400000000000 10.908000000000 23.531582822960 20.322730619829
2765 2 -1.200000000000 12.271500000000 21.927156721395 19.253113218786
2766 2 -1.200000000000 14.998500000000 21.927156721395 19.253113218786
2767 2 -1.200000000000 12.271500000000 22.461965421917 21.927156721395
2768 2 -1.200000000000 14.998500000000 22.461965421917 21.927156721395
2769 2 -1.200000000000 12.271500000000 24.601200224004 18.718304518264
2770 2 -1.200000000000 14.998500000000 24.601200224004 18.718304518264
2771 2 -1.200000000000 12.271500000000 25.136008924526 21.392348020873
2772 2 -1.200000000000 14.998500000000 25.136008924526 21.392348020873
2773 1 2.400000000000 16.362000000000 20.322730619829 18.183495817742
2774 1 2.400000000000 19.089000000000 20.857539320351 20.857539320351
2775 1 2.400000000000 19.089000000000 22.996774122439 17.648687117220
2776 1 2.400000000000 16.362000000000 23.531582822960 20.322730619829
2777 2 -1.200000000000 17.725500000000 21.927156721395 19.253113218786
2778 2 -1.200000000000 20.452500000000 21.927156721395 19.253113218786
2779 2 -1.200000000000 17.725500000000 22.461965421917 21.927156721395
2780 2 -1.200000000000 20.452500000000 22.461965421917 21.927156721395
2781 2 -1.200000000000 17.725500000000 24.601200224004 18.718304518264
2782 2 -1.200000000000 20.452500000000 24.601200224004 18.718304518264
2783 2 -1.200000000000 17.725500000000 25.136008924526 21.392348020873
2784 2 -1.200000000000 20.452500000000 25.136008924526 21.392348020873
2785 1 2.400000000000 21.816000000000 20.322730619829 18.183495817742
2786 1 2.400000000000 24.543000000000 20.857539320351 20.857539320351
2787 1 2.400000000000 24.543000000000 22.996774122439 17.648687117220
2788 1 2.400000000000 21.816000000000 23.531582822960 20.322730619829
2789 2 -1.200000000000 23.179500000000 21.927156721395 19.253113218786
2790 2 -1.200000000000 25.906500000000 21.927156721395 19.253113218786
2791 2 -1.200000000000 23.179500000000 22.461965421917 21.927156721395
2792 2 -1.200000000000 25.906500000000 22.461965421917 21.927156721395
2793 2 -1.200000000000 23.179500000000 24.601200224004 18.718304518264
2794 2 -1.200000000000 25.906500000000 24.601200224004 18.718304518264
2795 2 -1.200000000000 23.179500000000 25.136008924526 21.392348020873
2796 2 -1.200000000000 25.906500000000 25.136008924526 21.392348020873
2797 1 2.400000000000 27.270000000000 20.322730619829 18.183495817742
2798 1 2.400000000000 29.997000000000 20.857539320351 20.857539320351
2799 1 2.400000000000 29.997000000000 22.996774122439 17.648687117220
2800 1 2.400000000000 27.270000000000 23.531582822960 20.322730619829
2801 2 -1.200000000000 28.633500000000 21.927156721395 19.253113218786
2802 2 -1.200000000000 31.360500000000 21.927156721395 19.253113218786
2803 2 -1.200000000000 28.633500000000 22.461965421917 21.927156721395
2804 2 -1.200000000000 31.360500000000 22.461965421917 21.927156721395
2805 2 -1.200000000000 28.633500000000 24.601200224004 18.718304518264
2806 2 -1.200000000000 31.360500000000 24.601200224004 18.718304518264
2807 2 -1.200000000000 28.633500000000 25.136008924526 21.392348020873
2808 2 -1.200000000000 31.360500000000 25.136008924526 21.392348020873
2809 1 2.400000000000 32.724000000000 20.322730619829 18.183495817742
2810 1 2.400000000000 35.451000000000 20.857539320351 20.857539320351
2811 1 2.400000000000 35.451000000000 22.996774122439 17.648687117220
2812 1 2.400000000000 32.724000000000 23.531582822960 20.322730619829
2813 2 -1.200000000000 34.087500000000 21.927156721395 19.253113218786
2814 2 -1.200000000000 36.814500000000 21.927156721395 19.253113218786
2815 2 -1.200000000000 34.087500000000 22.461965421917 21.927156721395
2816 2 -1.200000000000 36.814500000000 22.461965421917 21.927156721395
2817 2 -1.200000000000 34.087500000000 24.601200224004 18.718304518264
2818 2 -1.200000000000 36.814500000000 24.601200224004 18.718304518264
2819 2 -1.200000000000 34.087500000000 25.136008924526 21.392348020873
2820 2 -1.200000000000 36.814500000000 25.136008924526 21.392348020873
2821 1 2.400000000000 38.178000000000 20.322730619829 18.183495817742
2822 1 2.400000000000 40.905000000000 20.857539320351 20.857539320351
2823 1 2.400000000000 40.905000000000 22.996774122439 17.648687117220
2824 1 2.400000000000 38.178000000000 23.531582822960 20.322730619829
2825 2 -1.200000000000 39.541500000000 21.927156721395 19.253113218786
2826 2 -1.200000000000 42.268500000000 21.927156721395 19.253113218786
2827 2 -1.200000000000 39.541500000000 22.461965421917 21.927156721395
2828 2 -1.200000000000 42.268500000000 22.461965421917 21.927156721395
2829 2 -1.200000000000 39.541500000000 24.601200224004 18.718304518264
2830 2 -1.200000000000 42.268500000000 24.601200224004 18.718304518264
2831 2 -1.200000000000 39.541500000000 25.136008924526 21.392348020873
2832 2 -1.200000000000 42.268500000000 25.136008924526 21.392348020873
2833 1 2.400000000000 43.632000000000 20.322730619829 18.183495817742
2834 1 2.400000000000 46.359000000000 20.857539320351 20.857539320351
2835 1 2.400000000000 46.359000000000 22.996774122439 17.648687117220
2836 1 2.400000000000 43.632000000000 23.531582822960 20.322730619829
2837 2 -1.200000000000 44.995500000000 21.927156721395 19.253113218786
2838 2 -1.200000000000 47.722500000000 21.927156721395 19.253113218786
2839 2 -1.200000000000 44.995500000000 22.461965421917 21.927156721395
2840 2 -1.200000000000 47.722500000000 22.461965421917 21.927156721395
2841 2 -1.200000000000 44.995500000000 24.601200224004 18.718304518264
2842 2 -1.200000000000 47.722500000000 24.601200224004 18.718304518264
2843 2 -1.200000000000 44.995500000000 25.136008924526 21.392348020873
2844 2 -1.200000000000 47.722500000000 25.136008924526 21.392348020873
2845 1 2.400000000000 49.086000000000 20.322730619829 18.183495817742
2846 1 2.400000000000 51.813000000000 20.857539320351 20.857539320351
2847 1 2.400000000000 51.813000000000 22.996774122439 17.648687117220
2848 1 2.400000000000 49.086000000000 23.531582822960 20.322730619829
2849 2 -1.200000000000 50.449500000000 21.927156721395 19.253113218786
2850 2 -1.200000000000 53.176500000000 21.927156721395 19.253113218786
2851 2 -1.200000000000 50.449500000000 22.461965421917 21.927156721395
2852 2 -1.200000000000 53.176500000000 22.461965421917 21.927156721395
2853 2 -1.200000000000 50.449500000000 24.601200224004 18.718304518264
2854 2 -1.200000000000 53.176500000000 24.601200224004 18.718304518264
2855 2 -1.200000000000 50.449500000000 25.136008924526 21.392348020873
2856 2 -1.200000000000 53.176500000000 25.136008924526 21.392348020873
2857 1 2.400000000000 54.540000000000 20.322730619829 18.183495817742
2858 1 2.400000000000 57.267000000000 20.857539320351 20.857539320351
2859 1 2.400000000000 57.267000000000 22.996774122439 17.648687117220
2860 1 2.400000000000 54.540000000000 23.531582822960 20.322730619829
2861 2 -1.200000000000 55.903500000000 21.927156721395 19.253113218786
2862 2 -1.200000000000 58.630500000000 21.927156721395 19.253113218786
2863 2 -1.200000000000 55.903500000000 22.461965421917 21.927156721395
2864 2 -1.200000000000 58.630500000000 22.461965421917 21.927156721395
2865 2 -1.200000000000 55.903500000000 24.601200224004 18.718304518264
2866 2 -1.200000000000 58.630500000000 24.601200224004 18.718304518264
2867 2 -1.200000000000 55.903500000000 25.136008924526 21.392348020873
2868 2 -1.200000000000 58.630500000000 25.136008924526 21.392348020873
2869 1 2.400000000000 59.994000000000 20.322730619829 18.183495817742
2870 1 2.400000000000 62.721000000000 20.857539320351 20.857539320351
2871 1 2.400000000000 62.721000000000 22.996774122439 17.648687117220
2872 1 2.400000000000 59.994000000000 23.531582822960 20.322730619829
2873 2 -1.200000000000 61.357500000000 21.927156721395 19.253113218786
2874 2 -1.200000000000 64.084500000000 21.927156721395 19.253113218786
2875 2 -1.200000000000 61.357500000000 22.461965421917 21.927156721395
2876 2 -1.200000000000 64.084500000000 22.461965421917 21.927156721395
2877 2 -1.200000000000 61.357500000000 24.601200224004 18.718304518264
2878 2 -1.200000000000 64.084500000000 24.601200224004 18.718304518264
2879 2 -1.200000000000 61.357500000000 25.136008924526 21.392348020873
2880 2 -1.200000000000 64.084500000000 25.136008924526 21.392348020873
2881 1 2.400000000000 0.000000000000 21.392348020873 23.531582822960
2882 1 2.400000000000 2.727000000000 21.927156721395 26.205626325570
2883 1 2.400000000000 2.727000000000 24.066391523482 22.996774122439
2884 1 2.400000000000 0.000000000000 24.601200224004 25.670817625048
2885 2 -1.200000000000 1.363500000000 22.996774122439 24.601200224004
2886 2 -1.200000000000 4.090500000000 22.996774122439 24.601200224004
2887 2 -1.200000000000 1.363500000000 23.531582822960 27.275243726613
2888 2 -1.200000000000 4.090500000000 23.531582822960 27.275243726613
2889 2 -1.200000000000 1.363500000000 25.670817625048 24.066391523482
2890 2 -1.200000000000 4.090500000000 25.670817625048 24.066391523482
2891 2 -1.200000000000 1.363500000000 26.205626325570 26.740435026091
2892 2 -1.200000000000 4.090500000000 26.205626325570 26.740435026091
2893 1 2.400000000000 5.454000000000 21.392348020873 23.531582822960
2894 1 2.400000000000 8.181000000000 21.927156721395 26.205626325570
2895 1 2.400000000000 8.181000000000 24.066391523482 22.996774122439
2896 1 2.400000000000 5.454000000000 24.601200224004 25.670817625048
2897 2 -1.200000000000 6.817500000000 22.996774122439 24.601200224004
2898 2 -1.200000000000 9.544500000000 22.996774122439 24.601200224004
2899 2 -1.200000000000 6.817500000000 23.531582822960 27.275243726613
2900 2 -1.200000000000 9.544500000000 23.531582822960 27.275243726613
2901 2 -1.200000000000 6.817500000000 25.670817625048 24.066391523482
2902 2 -1.200000000000 9.544500000000 25.670817625048 24.066391523482
2903 2 -1.200000000000 6.817500000000 26.205626325570 26.740435026091
2904 2 -1.200000000000 9.544500000000 26.205626325570 26.740435026091
2905 1 2.400000000000 10.908000000000 21.392348020873 23.531582822960
2906 1 2.400000000000 13.635000000000 21.927156721395 26.205626325570
2907 1 2.400000000000 13.635000000000 24.066391523482 22.996774122439
2908 1 2.400000000000 10.908000000000 24.601200224004 25.670817625048
2909 2 -1.200000000000 12.271500000000 22.996774122439 24.601200224004
2910 2 -1.200000000000 14.998500000000 22.996774122439 24.601200224004
2911 2 -1.200000000000 12.271500000000 23.531582822960 27.275243726613
2912 2 -1.200000000000 14.998500000000 23.531582822960 27.275243726613
2913 2 -1.200000000000 12.271500000000 25.670817625048 24.066391523482
2914 2 -1.200000000000 14.998500000000 25.670817625048 24.066391523482
2915 2 -1.200000000000 12.271500000000 26.205626325570 26.740435026091
2916 2 -1.200000000000 14.998500000000 26.205626325570 26.740435026091
2917 1 2.400000000000 16.362000000000 21.392348020873 23.531582822960
2918 1 2.400000000000 19.089000000000 21.927156721395 26.205626325570
2919 1 2.400000000000 19.089000000000 24.066391523482 22.996774122439
2920 1 2.400000000000 16.362000000000 24.601200224004 25.670817625048
2921 2 -1.200000000000 17.725500000000 22.996774122439 24.601200224004
2922 2 -1.200000000000 20.452500000000 22.996774122439 24.601200224004
2923 2 -1.200000000000 17.725500000000 23.531582822960 27.275243726613
2924 2 -1.200000000000 20.452500000000 23.531582822960 27.275243726613
2925 2 -1.200000000000 17.725500000000 25.670817625048 24.066391523482
2926 2 -1.200000000000 20.452500000000 25.670817625048 24.066391523482
2927 2 -1.200000000000 17.725500000000 26.205626325570 26.740435026091
2928 2 -1.200000000000 20.452500000000 26.205626325570 26.740435026091
2929 1 2.400000000000 21.816000000000 21.392348020873 23.531582822960
2930 1 2.400000000000 24.543000000000 21.927156721395 26.205626325570
2931 1 2.400000000000 24.543000000000 24.066391523482 22.996774122439
2932 1 2.400000000000 21.816000000000 24.601200224004 25.670817625048
2933 2 -1.200000000000 23.179500000000 22.996774122439 24.601200224004
2934 2 -1.200000000000 25.906500000000 22.996774122439 24.601200224004
2935 2 -1.200000000000 23.179500000000 23.531582822960 27.275243726613
2936 2 -1.200000000000 25.906500000000 23.531582822960 27.275243726613
2937 2 -1.200000000000 23.179500000000 25.670817625048 24.066391523482
2938 2 -1.200000000000 25.906500000000 25.670817625048 24.066391523482
2939 2 -1.200000000000 23.179500000000 26.205626325570 26.740435026091
2940 2 -1.200000000000 25.906500000000 26.205626325570 26.740435026091
2941 1 2.400000000000 27.270000000000 21.392348020873 23.531582822960
2942 1 2.400000000000 29.997000000000 21.927156721395 26.205626325570
2943 1 2.400000000000 29.997000000000 24.066391523482 22.996774122439
2944 1 2.400000000000 27.270000000000 24.601200224004 25.670817625048
2945 2 -1.200000000000 28.633500000000 22.996774122439 24.601200224004
2946 2 -1.200000000000 31.360500000000 22.996774122439 24.601200224004
2947 2 -1.200000000000 28.633500000000 23.531582822960 27.275243726613
2948 2 -1.200000000000 31.360500000000 23.531582822960 27.275243726613
2949 2 -1.200000000000 28.633500000000 25.670817625048 24.066391523482
2950 2 -1.200000000000 31.360500000000 25.670817625048 24.066391523482
2951 2 -1.200000000000 28.633500000000 26.205626325570 26.740435026091
2952 2 -1.200000000000 31.360500000000 26.205626325570 26.740435026091
2953 1 2.400000000000 32.724000000000 21.392348020873 23.531582822960
2954 1 2.400000000000 35.451000000000 21.927156721395 26.205626325570
2955 1 2.400000000000 35.451000000000 24.066391523482 22.996774122439
2956 1 2.400000000000 32.724000000000 24.601200224004 25.670817625048
2957 2 -1.200000000000 34.087500000000 22.996774122439 24.601200224004
2958 2 -1.200000000000 36.814500000000 22.996774122439 24.601200224004
2959 2 -1.200000000000 34.087500000000 23.531582822960 27.275243726613
2960 2 -1.200000000000 36.814500000000 23.531582822960 27.275243726613
2961 2 -1.200000000000 34.087500000000 25.670817625048 24.066391523482
2962 2 -1.200000000000 36.814500000000 25.670817625048 24.066391523482
2963 2 -1.200000000000 34.087500000000 26.205626325570 26.740435026091
2964 2 -1.200000000000 36.814500000000 26.205626325570 26.740435026091
2965 1 2.400000000000 38.178000000000 21.392348020873 23.531582822960
2966 1 2.400000000000 40.905000000000 21.927156721395 26.205626325570
2967 1 2.400000000000 40.905000000000 24.066391523482 22.996774122439
2968 1 2.400000000000 38.178000000000 24.601200224004 25.670817625048
2969 2 -1.200000000000 39.541500000000 22.996774122439 24.601200224004
2970 2 -1.200000000000 42.268500000000 22.996774122439 24.601200224004
2971 2 -1.200000000000 39.541500000000 23.531582822960 27.275243726613
2972 2 -1.200000000000 42.268500000000 23.531582822960 27.275243726613
2973 2 -1.200000000000 39.541500000000 25.670817625048 24.066391523482
2974 2 -1.200000000000 42.268500000000 25.670817625048 24.066391523482
2975 2 -1.200000000000 39.541500000000 26.205626325570 26.740435026091
2976 2 -1.200000000000 42.268500000000 26.205626325570 26.740435026091
2977 1 2.400000000000 43.632000000000 21.392348020873 23.531582822960
2978 1 2.400000000000 46.359000000000 21.927156721395 26.205626325570
2979 1 2.400000000000 46.359000000000 24.066391523482 22.996774122439
2980 1 2.400000000000 43.632000000000 24.601200224004 25.670817625048
2981 2 -1.200000000000 44.995500000000 22.996774122439 24.601200224004
2982 2 -1.200000000000 47.722500000000 22.996774122439 24.601200224004
2983 2 -1.200000000000 44.995500000000 23.531582822960 27.275243726613
2984 2 -1.200000000000 47.722500000000 23.531582822960 27.275243726613
2985 2 -1.200000000000 44.995500000000 25.670817625048 24.066391523482
2986 2 -1.200000000000 47.722500000000 25.670817625048 24.066391523482
2987 2 -1.200000000000 44.995500000000 26.205626325570 26.740435026091
2988 2 -1.200000000000 47.722500000000 26.205626325570 26.740435026091
2989 1 2.400000000000 49.086000000000 21.392348020873 23.531582822960
2990 1 2.400000000000 51.813000000000 21.927156721395 26.205626325570
2991 1 2.400000000000 51.813000000000 24.066391523482 22.996774122439
2992 1 2.400000000000 49.086000000000 24.601200224004 25.670817625048
2993 2 -1.200000000000 50.449500000000 22.996774122439 24.601200224004
2994 2 -1.200000000000 53.176500000000 22.996774122439 24.601200224004
2995 2 -1.200000000000 50.449500000000 23.531582822960 27.275243726613
2996 2 -1.200000000000 53.176500000000 23.531582822960 27.275243726613
2997 2 -1.200000000000 50.449500000000 25.670817625048 24.066391523482
2998 2 -1.200000000000 53.176500000000 25.670817625048 24.066391523482
2999 2 -1.200000000000 50.449500000000 26.205626325570 26.740435026091
3000 2 -1.200000000000 53.176500000000 26.205626325570 26.740435026091
3001 1 2.400000000000 54.540000000000 21.392348020873 23.531582822960
3002 1 2.400000000000 57.267000000000 21.927156721395 26.205626325570
3003 1 2.400000000000 57.267000000000 24.066391523482 22.996774122439
3004 1 2.400000000000 54.540000000000 24.601200224004 25.670817625048
3005 2 -1.200000000000 55.903500000000 22.996774122439 24.601200224004
3006 2 -1.200000000000 58.630500000000 22.996774122439 24.601200224004
3007 2 -1.200000000000 55.903500000000 23.531582822960 27.275243726613
3008 2 -1.200000000000 58.630500000000 23.531582822960 27.275243726613
3009 2 -1.200000000000 55.903500000000 25.670817625048 24.066391523482
3010 2 -1.200000000000 58.630500000000 25.670817625048 24.066391523482
3011 2 -1.200000000000 55.903500000000 26.205626325570 26.740435026091
3012 2 -1.200000000000 58.630500000000 26.205626325570 26.740435026091
3013 1 2.400000000000 59.994000000000 21.392348020873 23.531582822960
3014 1 2.400000000000 62.721000000000 21.927156721395 26.205626325570
3015 1 2.400000000000 62.721000000000 24.066391523482 22.996774122439
3016 1 2.400000000000 59.994000000000 24.601200224004 25.670817625048
3017 2 -1.200000000000 61.357500000000 22.996774122439 24.601200224004
3018 2 -1.200000000000 64.084500000000 22.996774122439 24.601200224004
3019 2 -1.200000000000 61.357500000000 23.531582822960 27.275243726613
3020 2 -1.200000000000 64.084500000000 23.531582822960 27.275243726613
3021 2 -1.200000000000 61.357500000000 25.670817625048 24.066391523482
3022 2 -1.200000000000 64.084500000000 25.670817625048 24.066391523482
3023 2 -1.200000000000 61.357500000000 26.205626325570 26.740435026091
3024 2 -1.200000000000 64.084500000000 26.205626325570 26.740435026091
3025 1 2.400000000000 0.000000000000 22.461965421917 1.069617401044
3026 1 2.400000000000 2.727000000000 22.996774122439 3.743660903653
3027 1 2.400000000000 2.727000000000 25.136008924526 0.534808700522
3028 1 2.400000000000 0.000000000000 25.670817625048 3.208852203131
3029 2 -1.200000000000 1.363500000000 24.066391523482 2.139234802087
3030 2 -1.200000000000 4.090500000000 24.066391523482 2.139234802087
3031 2 -1.200000000000 1.363500000000 24.601200224004 4.813278304696
3032 2 -1.200000000000 4.090500000000 24.601200224004 4.813278304696
3033 2 -1.200000000000 1.363500000000 26.740435026091 1.604426101565
3034 2 -1.200000000000 4.090500000000 26.740435026091 1.604426101565
3035 2 -1.200000000000 1.363500000000 27.275243726613 4.278469604175
3036 2 -1.200000000000 4.090500000000 27.275243726613 4.278469604175
3037 1 2.400000000000 5.454000000000 22.461965421917 1.069617401044
3038 1 2.400000000000 8.181000000000 22.996774122439 3.743660903653
3039 1 2.400000000000 8.181000000000 25.136008924526 0.534808700522
3040 1 2.400000000000 5.454000000000 25.670817625048 3.208852203131
3041 2 -1.200000000000 6.817500000000 24.066391523482 2.139234802087
3042 2 -1.200000000000 9.544500000000 24.066391523482 2.139234802087
3043 2 -1.200000000000 6.817500000000 24.601200224004 4.813278304696
3044 2 -1.200000000000 9.544500000000 24.601200224004 4.813278304696
3045 2 -1.200000000000 6.817500000000 26.740435026091 1.604426101565
3046 2 -1.200000000000 9.544500000000 26.740435026091 1.604426101565
3047 2 -1.200000000000 6.817500000000 27.275243726613 4.278469604175
3048 2 -1.200000000000 9.544500000000 27.275243726613 4.278469604175
3049 1 2.400000000000 10.908000000000 22.461965421917 1.069617401044
3050 1 2.400000000000 13.635000000000 22.996774122439 3.743660903653
3051 1 2.400000000000 13.635000000000 25.136008924526 0.534808700522
3052 1 2.400000000000 10.908000000000 25.670817625048 3.208852203131
3053 2 -1.200000000000 12.271500000000 24.066391523482 2.139234802087
3054 2 -1.200000000000 14.998500000000 24.066391523482 2.139234802087
3055 2 -1.200000000000 12.271500000000 24.601200224004 4.813278304696
3056 2 -1.200000000000 14.998500000000 24.601200224004 4.813278304696
3057 2 -1.200000000000 12.271500000000 26.740435026091 1.604426101565
3058 2 -1.200000000000 14.998500000000 26.740435026091 1.604426101565
3059 2 -1.200000000000 12.271500000000 27.275243726613 4.278469604175
3060 2 -1.200000000000 14.998500000000 27.275243726613 4.278469604175
3061 1 2.400000000000 16.362000000000 22.461965421917 1.069617401044
3062 1 2.400000000000 19.089000000000 22.996774122439 3.743660903653
3063 1 2.400000000000 19.089000000000 25.136008924526 0.534808700522
3064 1 2.400000000000 16.362000000000 25.670817625048 3.208852203131
3065 2 -1.200000000000 17.725500000000 24.066391523482 2.139234802087
3066 2 -1.200000000000 20.452500000000 24.066391523482 2.139234802087
3067 2 -1.200000000000 17.725500000000 24.601200224004 4.813278304696
3068 2 -1.200000000000 20.452500000000 24.601200224004 4.813278304696
3069 2 -1.200000000000 17.725500000000 26.740435026091 1.604426101565
3070 2 -1.200000000000 20.452500000000 26.740435026091 1.604426101565
3071 2 -1.200000000000 17.725500000000 27.275243726613 4.278469604175
3072 2 -1.200000000000 20.452500000000 27.275243726613 4.278469604175
3073 1 2.400000000000 21.816000000000 22.461965421917 1.069617401044
3074 1 2.400000000000 24.543000000000 22.996774122439 3.743660903653
3075 1 2.400000000000 24.543000000000 25.136008924526 0.534808700522
3076 1 2.400000000000 21.816000000000 25.670817625048 3.208852203131
3077 2 -1.200000000000 23.179500000000 24.066391523482 2.139234802087
3078 2 -1.200000000000 25.906500000000 24.066391523482 2.139234802087
3079 2 -1.200000000000 23.179500000000 24.601200224004 4.813278304696
3080 2 -1.200000000000 25.906500000000 24.601200224004 4.813278304696
3081 2 -1.200000000000 23.179500000000 26.740435026091 1.604426101565
3082 2 -1.200000000000 25.906500000000 26.740435026091 1.604426101565
3083 2 -1.200000000000 23.179500000000 27.275243726613 4.278469604175
3084 2 -1.200000000000 25.906500000000 27.275243726613 4.278469604175
3085 1 2.400000000000 27.270000000000 22.461965421917 1.069617401044
3086 1 2.400000000000 29.997000000000 22.996774122439 3.743660903653
3087 1 2.400000000000 29.997000000000 25.136008924526 0.534808700522
3088 1 2.400000000000 27.270000000000 25.670817625048 3.208852203131
3089 2 -1.200000000000 28.633500000000 24.066391523482 2.139234802087
3090 2 -1.200000000000 31.360500000000 24.066391523482 2.139234802087
3091 2 -1.200000000000 28.633500000000 24.601200224004 4.813278304696
3092 2 -1.200000000000 31.360500000000 24.601200224004 4.813278304696
3093 2 -1.200000000000 28.633500000000 26.740435026091 1.604426101565
3094 2 -1.200000000000 31.360500000000 26.740435026091 1.604426101565
3095 2 -1.200000000000 28.633500000000 27.275243726613 4.278469604175
3096 2 -1.200000000000 31.360500000000 27.275243726613 4.278469604175
3097 1 2.400000000000 32.724000000000 22.461965421917 1.069617401044
3098 1 2.400000000000 35.451000000000 22.996774122439 3.743660903653
3099 1 2.400000000000 35.451000000000 25.136008924526 0.534808700522
3100 1 2.400000000000 32.724000000000 25.670817625048 3.208852203131
3101 2 -1.200000000000 34.087500000000 24.066391523482 2.139234802087
3102 2 -1.200000000000 36.814500000000 24.066391523482 2.139234802087
3103 2 -1.200000000000 34.087500000000 24.601200224004 4.813278304696
3104 2 -1.200000000000 36.814500000000 24.601200224004 4.813278304696
3105 2 -1.200000000000 34.087500000000 26.740435026091 1.604426101565
3106 2 -1.200000000000 36.814500000000 26.740435026091 1.604426101565
3107 2 -1.200000000000 34.087500000000 27.275243726613 4.278469604175
3108 2 -1.200000000000 36.814500000000 27.275243726613 4.278469604175
3109 1 2.400000000000 38.178000000000 22.461965421917 1.069617401044
3110 1 2.400000000000 40.905000000000 22.996774122439 3.743660903653
3111 1 2.400000000000 40.905000000000 25.136008924526 0.534808700522
3112 1 2.400000000000 38.178000000000 25.670817625048 3.208852203131
3113 2 -1.200000000000 39.541500000000 24.066391523482 2.139234802087
3114 2 -1.200000000000 42.268500000000 24.066391523482 2.139234802087
3115 2 -1.200000000000 39.541500000000 24.601200224004 4.813278304696
3116 2 -1.200000000000 42.268500000000 24.601200224004 4.813278304696
3117 2 -1.200000000000 39.541500000000 26.740435026091 1.604426101565
3118 2 -1.200000000000 42.268500000000 26.740435026091 1.604426101565
3119 2 -1.200000000000 39.541500000000 27.275243726613 4.278469604175
3120 2 -1.200000000000 42.268500000000 27.275243726613 4.278469604175
3121 1 2.400000000000 43.632000000000 22.461965421917 1.069617401044
3122 1 2.400000000000 46.359000000000 22.996774122439 3.743660903653
3123 1 2.400000000000 46.359000000000 25.136008924526 0.534808700522
3124 1 2.400000000000 43.632000000000 25.670817625048 3.208852203131
3125 2 -1.200000000000 44.995500000000 24.066391523482 2.139234802087
3126 2 -1.200000000000 47.722500000000 24.066391523482 2.139234802087
3127 2 -1.200000000000 44.995500000000 24.601200224004 4.813278304696
3128 2 -1.200000000000 47.722500000000 24.601200224004 4.813278304696
3129 2 -1.200000000000 44.995500000000 26.740435026091 1.604426101565
3130 2 -1.200000000000 47.722500000000 26.740435026091 1.604426101565
3131 2 -1.200000000000 44.995500000000 27.275243726613 4.278469604175
3132 2 -1.200000000000 47.722500000000 27.275243726613 4.278469604175
3133 1 2.400000000000 49.086000000000 22.461965421917 1.069617401044
3134 1 2.400000000000 51.813000000000 22.996774122439 3.743660903653
3135 1 2.400000000000 51.813000000000 25.136008924526 0.534808700522
3136 1 2.400000000000 49.086000000000 25.670817625048 3.208852203131
3137 2 -1.200000000000 50.449500000000 24.066391523482 2.139234802087
3138 2 -1.200000000000 53.176500000000 24.066391523482 2.139234802087
3139 2 -1.200000000000 50.449500000000 24.601200224004 4.813278304696
3140 2 -1.200000000000 53.176500000000 24.601200224004 4.813278304696
3141 2 -1.200000000000 50.449500000000 26.740435026091 1.604426101565
3142 2 -1.200000000000 53.176500000000 26.740435026091 1.604426101565
3143 2 -1.200000000000 50.449500000000 27.275243726613 4.278469604175
3144 2 -1.200000000000 53.176500000000 27.275243726613 4.278469604175
3145 1 2.400000000000 54.540000000000 22.461965421917 1.069617401044
3146 1 2.400000000000 57.267000000000 22.996774122439 3.743660903653
3147 1 2.400000000000 57.267000000000 25.136008924526 0.534808700522
3148 1 2.400000000000 54.540000000000 25.670817625048 3.208852203131
3149 2 -1.200000000000 55.903500000000 24.066391523482 2.139234802087
3150 2 -1.200000000000 58.630500000000 24.066391523482 2.139234802087
3151 2 -1.200000000000 55.903500000000 24.601200224004 4.813278304696
3152 2 -1.200000000000 58.630500000000 24.601200224004 4.813278304696
3153 2 -1.200000000000 55.903500000000 26.740435026091 1.604426101565
3154 2 -1.200000000000 58.630500000000 26.740435026091 1.604426101565
3155 2 -1.200000000000 55.903500000000 27.275243726613 4.278469604175
3156 2 -1.200000000000 58.630500000000 27.275243726613 4.278469604175
3157 1 2.400000000000 59.994000000000 22.461965421917 1.069617401044
3158 1 2.400000000000 62.721000000000 22.996774122439 3.743660903653
3159 1 2.400000000000 62.721000000000 25.136008924526 0.534808700522
3160 1 2.400000000000 59.994000000000 25.670817625048 3.208852203131
3161 2 -1.200000000000 61.357500000000 24.066391523482 2.139234802087
3162 2 -1.200000000000 64.084500000000 24.066391523482 2.139234802087
3163 2 -1.200000000000 61.357500000000 24.601200224004 4.813278304696
3164 2 -1.200000000000 64.084500000000 24.601200224004 4.813278304696
3165 2 -1.200000000000 61.357500000000 26.740435026091 1.604426101565
3166 2 -1.200000000000 64.084500000000 26.740435026091 1.604426101565
3167 2 -1.200000000000 61.357500000000 27.275243726613 4.278469604175
3168 2 -1.200000000000 64.084500000000 27.275243726613 4.278469604175
3169 1 2.400000000000 0.000000000000 23.531582822960 6.417704406262
3170 1 2.400000000000 2.727000000000 24.066391523482 9.091747908871
3171 1 2.400000000000 2.727000000000 26.205626325570 5.882895705740
3172 1 2.400000000000 0.000000000000 26.740435026091 8.556939208349
3173 2 -1.200000000000 1.363500000000 25.136008924526 7.487321807306
3174 2 -1.200000000000 4.090500000000 25.136008924526 7.487321807306
3175 2 -1.200000000000 1.363500000000 25.670817625048 10.161365309915
3176 2 -1.200000000000 4.090500000000 25.670817625048 10.161365309915
3177 2 -1.200000000000 1.363500000000 -0.000000000000 6.952513106784
3178 2 -1.200000000000 4.090500000000 -0.000000000000 6.952513106784
3179 2 -1.200000000000 1.363500000000 0.534808700522 9.626556609393
3180 2 -1.200000000000 4.090500000000 0.534808700522 9.626556609393
3181 1 2.400000000000 5.454000000000 23.531582822960 6.417704406262
3182 1 2.400000000000 8.181000000000 24.066391523482 9.091747908871
3183 1 2.400000000000 8.181000000000 26.205626325570 5.882895705740
3184 1 2.400000000000 5.454000000000 26.740435026091 8.556939208349
3185 2 -1.200000000000 6.817500000000 25.136008924526 7.487321807306
3186 2 -1.200000000000 9.544500000000 25.136008924526 7.487321807306
3187 2 -1.200000000000 6.817500000000 25.670817625048 10.161365309915
3188 2 -1.200000000000 9.544500000000 25.670817625048 10.161365309915
3189 2 -1.200000000000 6.817500000000 -0.000000000000 6.952513106784
3190 2 -1.200000000000 9.544500000000 -0.000000000000 6.952513106784
3191 2 -1.200000000000 6.817500000000 0.534808700522 9.626556609393
3192 2 -1.200000000000 9.544500000000 0.534808700522 9.626556609393
3193 1 2.400000000000 10.908000000000 23.531582822960 6.417704406262
3194 1 2.400000000000 13.635000000000 24.066391523482 9.091747908871
3195 1 2.400000000000 13.635000000000 26.205626325570 5.882895705740
3196 1 2.400000000000 10.908000000000 26.740435026091 8.556939208349
3197 2 -1.200000000000 12.271500000000 25.136008924526 7.487321807306
3198 2 -1.200000000000 14.998500000000 25.136008924526 7.487321807306
3199 2 -1.200000000000 12.271500000000 25.670817625048 10.161365309915
3200 2 -1.200000000000 14.998500000000 25.670817625048 10.161365309915
3201 2 -1.200000000000 12.271500000000 -0.000000000000 6.952513106784
3202 2 -1.200000000000 14.998500000000 -0.000000000000 6.952513106784
3203 2 -1.200000000000 12.271500000000 0.534808700522 9.626556609393
3204 2 -1.200000000000 14.998500000000 0.534808700522 9.626556609393
3205 1 2.400000000000 16.362000000000 23.531582822960 6.417704406262
3206 1 2.400000000000 19.089000000000 24.066391523482 9.091747908871
3207 1 2.400000000000 19.089000000000 26.205626325570 5.882895705740
3208 1 2.400000000000 16.362000000000 26.740435026091 8.556939208349
3209 2 -1.200000000000 17.725500000000 25.136008924526 7.487321807306
3210 2 -1.200000000000 20.452500000000 25.136008924526 7.487321807306
3211 2 -1.200000000000 17.725500000000 25.670817625048 10.161365309915
3212 2 -1.200000000000 20.452500000000 25.670817625048 10.161365309915
3213 2 -1.200000000000 17.725500000000 -0.000000000000 6.952513106784
3214 2 -1.200000000000 20.452500000000 -0.000000000000 6.952513106784
3215 2 -1.200000000000 17.725500000000 0.534808700522 9.626556609393
3216 2 -1.200000000000 20.452500000000 0.534808700522 9.626556609393
3217 1 2.400000000000 21.816000000000 23.531582822960 6.417704406262
3218 1 2.400000000000 24.543000000000 24.066391523482 9.091747908871
3219 1 2.400000000000 24.543000000000 26.205626325570 5.882895705740
3220 1 2.400000000000 21.816000000000 26.740435026091 8.556939208349
3221 2 -1.200000000000 23.179500000000 25.136008924526 7.487321807306
3222 2 -1.200000000000 25.906500000000 25.136008924526 7.487321807306
3223 2 -1.200000000000 23.179500000000 25.670817625048 10.161365309915
3224 2 -1.200000000000 25.906500000000 25.670817625048 10.161365309915
3225 2 -1.200000000000 23.179500000000 -0.000000000000 6.952513106784
3226 2 -1.200000000000 25.906500000000 -0.000000000000 6.952513106784
3227 2 -1.200000000000 23.179500000000 0.534808700522 9.626556609393
3228 2 -1.200000000000 25.906500000000 0.534808700522 9.626556609393
3229 1 2.400000000000 27.270000000000 23.531582822960 6.417704406262
3230 1 2.400000000000 29.997000000000 24.066391523482 9.091747908871
3231 1 2.400000000000 29.997000000000 26.205626325570 5.882895705740
3232 1 2.400000000000 27.270000000000 26.740435026091 8.556939208349
3233 2 -1.200000000000 28.633500000000 25.136008924526 7.487321807306
3234 2 -1.200000000000 31.360500000000 25.136008924526 7.487321807306
3235 2 -1.200000000000 28.633500000000 25.670817625048 10.161365309915
3236 2 -1.200000000000 31.360500000000 25.670817625048 10.161365309915
3237 2 -1.200000000000 28.633500000000 -0.000000000000 6.952513106784
3238 2 -1.200000000000 31.360500000000 -0.000000000000 6.952513106784
3239 2 -1.200000000000 28.633500000000 0.534808700522 9.626556609393
3240 2 -1.200000000000 31.360500000000 0.534808700522 9.626556609393
3241 1 2.400000000000 32.724000000000 23.531582822960 6.417704406262
3242 1 2.400000000000 35.451000000000 24.066391523482 9.091747908871
3243 1 2.400000000000 35.451000000000 26.205626325570 5.882895705740
3244 1 2.400000000000 32.724000000000 26.740435026091 8.556939208349
3245 2 -1.200000000000 34.087500000000 25.136008924526 7.487321807306
3246 2 -1.200000000000 36.814500000000 25.136008924526 7.487321807306
3247 2 -1.200000000000 34.087500000000 25.670817625048 10.161365309915
3248 2 -1.200000000000 36.814500000000 25.670817625048 10.161365309915
3249 2 -1.200000000000 34.087500000000 -0.000000000000 6.952513106784
3250 2 -1.200000000000 36.814500000000 -0.000000000000 6.952513106784
3251 2 -1.200000000000 34.087500000000 0.534808700522 9.626556609393
3252 2 -1.200000000000 36.814500000000 0.534808700522 9.626556609393
3253 1 2.400000000000 38.178000000000 23.531582822960 6.417704406262
3254 1 2.400000000000 40.905000000000 24.066391523482 9.091747908871
3255 1 2.400000000000 40.905000000000 26.205626325570 5.882895705740
3256 1 2.400000000000 38.178000000000 26.740435026091 8.556939208349
3257 2 -1.200000000000 39.541500000000 25.136008924526 7.487321807306
3258 2 -1.200000000000 42.268500000000 25.136008924526 7.487321807306
3259 2 -1.200000000000 39.541500000000 25.670817625048 10.161365309915
3260 2 -1.200000000000 42.268500000000 25.670817625048 10.161365309915
3261 2 -1.200000000000 39.541500000000 -0.000000000000 6.952513106784
3262 2 -1.200000000000 42.268500000000 -0.000000000000 6.952513106784
3263 2 -1.200000000000 39.541500000000 0.534808700522 9.626556609393
3264 2 -1.200000000000 42.268500000000 0.534808700522 9.626556609393
3265 1 2.400000000000 43.632000000000 23.531582822960 6.417704406262
3266 1 2.400000000000 46.359000000000 24.066391523482 9.091747908871
3267 1 2.400000000000 46.359000000000 26.205626325570 5.882895705740
3268 1 2.400000000000 43.632000000000 26.740435026091 8.556939208349
3269 2 -1.200000000000 44.995500000000 25.136008924526 7.487321807306
3270 2 -1.200000000000 47.722500000000 25.136008924526 7.487321807306
3271 2 -1.200000000000 44.995500000000 25.670817625048 10.161365309915
3272 2 -1.200000000000 47.722500000000 25.670817625048 10.161365309915
3273 2 -1.200000000000 44.995500000000 -0.000000000000 6.952513106784
3274 2 -1.200000000000 47.722500000000 -0.000000000000 6.952513106784
3275 2 -1.200000000000 44.995500000000 0.534808700522 9.626556609393
3276 2 -1.200000000000 47.722500000000 0.534808700522 9.626556609393
3277 1 2.400000000000 49.086000000000 23.531582822960 6.417704406262
3278 1 2.400000000000 51.813000000000 24.066391523482 9.091747908871
3279 1 2.400000000000 51.813000000000 26.205626325570 5.882895705740
3280 1 2.400000000000 49.086000000000 26.740435026091 8.556939208349
3281 2 -1.200000000000 50.449500000000 25.136008924526 7.487321807306
3282 2 -1.200000000000 53.176500000000 25.136008924526 7.487321807306
3283 2 -1.200000000000 50.449500000000 25.670817625048 10.161365309915
3284 2 -1.200000000000 53.176500000000 25.670817625048 10.161365309915
3285 2 -1.200000000000 50.449500000000 -0.000000000000 6.952513106784
3286 2 -1.200000000000 53.176500000000 -0.000000000000 6.952513106784
3287 2 -1.200000000000 50.449500000000 0.534808700522 9.626556609393
3288 2 -1.200000000000 53.176500000000 0.534808700522 9.626556609393
3289 1 2.400000000000 54.540000000000 23.531582822960 6.417704406262
3290 1 2.400000000000 57.267000000000 24.066391523482 9.091747908871
3291 1 2.400000000000 57.267000000000 26.205626325570 5.882895705740
3292 1 2.400000000000 54.540000000000 26.740435026091 8.556939208349
3293 2 -1.200000000000 55.903500000000 25.136008924526 7.487321807306
3294 2 -1.200000000000 58.630500000000 25.136008924526 7.487321807306
3295 2 -1.200000000000 55.903500000000 25.670817625048 10.161365309915
3296 2 -1.200000000000 58.630500000000 25.670817625048 10.161365309915
3297 2 -1.200000000000 55.903500000000 -0.000000000000 6.952513106784
3298 2 -1.200000000000 58.630500000000 -0.000000000000 6.952513106784
3299 2 -1.200000000000 55.903500000000 0.534808700522 9.626556609393
3300 2 -1.200000000000 58.630500000000 0.534808700522 9.626556609393
3301 1 2.400000000000 59.994000000000 23.531582822960 6.417704406262
3302 1 2.400000000000 62.721000000000 24.066391523482 9.091747908871
3303 1 2.400000000000 62.721000000000 26.205626325570 5.882895705740
3304 1 2.400000000000 59.994000000000 26.740435026091 8.556939208349
3305 2 -1.200000000000 61.357500000000 25.136008924526 7.487321807306
3306 2 -1.200000000000 64.084500000000 25.136008924526 7.487321807306
3307 2 -1.200000000000 61.357500000000 25.670817625048 10.161365309915
3308 2 -1.200000000000 64.084500000000 25.670817625048 10.161365309915
3309 2 -1.200000000000 61.357500000000 -0.000000000000 6.952513106784
3310 2 -1.200000000000 64.084500000000 -0.000000000000 6.952513106784
3311 2 -1.200000000000 61.357500000000 0.534808700522 9.626556609393
3312 2 -1.200000000000 64.084500000000 0.534808700522 9.626556609393
3313 1 2.400000000000 0.000000000000 24.601200224004 11.765791411480
3314 1 2.400000000000 2.727000000000 25.136008924526 14.439834914089
3315 1 2.400000000000 2.727000000000 27.275243726613 11.230982710958
3316 1 2.400000000000 0.000000000000 -0.000000000000 13.905026213568
3317 2 -1.200000000000 1.363500000000 26.205626325570 12.835408812524
3318 2 -1.200000000000 4.090500000000 26.205626325570 12.835408812524
3319 2 -1.200000000000 1.363500000000 26.740435026091 15.509452315133
3320 2 -1.200000000000 4.090500000000 26.740435026091 15.509452315133
3321 2 -1.200000000000 1.363500000000 1.069617401044 12.300600112002
3322 2 -1.200000000000 4.090500000000 1.069617401044 12.300600112002
3323 2 -1.200000000000 1.363500000000 1.604426101565 14.974643614611
3324 2 -1.200000000000 4.090500000000 1.604426101565 14.974643614611
3325 1 2.400000000000 5.454000000000 24.601200224004 11.765791411480
3326 1 2.400000000000 8.181000000000 25.136008924526 14.439834914089
3327 1 2.400000000000 8.181000000000 27.275243726613 11.230982710958
3328 1 2.400000000000 5.454000000000 -0.000000000000 13.905026213568
3329 2 -1.200000000000 6.817500000000 26.205626325570 12.835408812524
3330 2 -1.200000000000 9.544500000000 26.205626325570 12.835408812524
3331 2 -1.200000000000 6.817500000000 26.740435026091 15.509452315133
3332 2 -1.200000000000 9.544500000000 26.740435026091 15.509452315133
3333 2 -1.200000000000 6.817500000000 1.069617401044 12.300600112002
3334 2 -1.200000000000 9.544500000000 1.069617401044 12.300600112002
3335 2 -1.200000000000 6.817500000000 1.604426101565 14.974643614611
3336 2 -1.200000000000 9.544500000000 1.604426101565 14.974643614611
3337 1 2.400000000000 10.908000000000 24.601200224004 11.765791411480
3338 1 2.400000000000 13.635000000000 25.136008924526 14.439834914089
3339 1 2.400000000000 13.635000000000 27.275243726613 11.230982710958
3340 1 2.400000000000 10.908000000000 -0.000000000000 13.905026213568
3341 2 -1.200000000000 12.271500000000 26.205626325570 12.835408812524
3342 2 -1.200000000000 14.998500000000 26.205626325570 12.835408812524
3343 2 -1.200000000000 12.271500000000 26.740435026091 15.509452315133
3344 2 -1.200000000000 14.998500000000 26.740435026091 15.509452315133
3345 2 -1.200000000000 12.271500000000 1.069617401044 12.300600112002
3346 2 -1.200000000000 14.998500000000 1.069617401044 12.300600112002
3347 2 -1.200000000000 12.271500000000 1.604426101565 14.974643614611
3348 2 -1.200000000000 14.998500000000 1.604426101565 14.974643614611
3349 1 2.400000000000 16.362000000000 24.601200224004 11.765791411480
3350 1 2.400000000000 19.089000000000 25.136008924526 14.439834914089
3351 1 2.400000000000 19.089000000000 27.275243726613 11.230982710958
3352 1 2.400000000000 16.362000000000 -0.000000000000 13.905026213568
3353 2 -1.200000000000 17.725500000000 26.205626325570 12.835408812524
3354 2 -1.200000000000 20.452500000000 26.205626325570 12.835408812524
3355 2 -1.200000000000 17.725500000000 26.740435026091 15.509452315133
3356 2 -1.200000000000 20.452500000000 26.740435026091 15.509452315133
3357 2 -1.200000000000 17.725500000000 1.069617401044 12.300600112002
3358 2 -1.200000000000 20.452500000000 1.069617401044 12.300600112002
3359 2 -1.200000000000 17.725500000000 1.604426101565 14.974643614611
3360 2 -1.200000000000 20.452500000000 1.604426101565 14.974643614611
3361 1 2.400000000000 21.816000000000 24.601200224004 11.765791411480
3362 1 2.400000000000 24.543000000000 25.136008924526 14.439834914089
3363 1 2.400000000000 24.543000000000 27.275243726613 11.230982710958
3364 1 2.400000000000 21.816000000000 -0.000000000000 13.905026213568
3365 2 -1.200000000000 23.179500000000 26.205626325570 12.835408812524
3366 2 -1.200000000000 25.906500000000 26.205626325570 12.835408812524
3367 2 -1.200000000000 23.179500000000 26.740435026091 15.509452315133
3368 2 -1.200000000000 25.906500000000 26.740435026091 15.509452315133
3369 2 -1.200000000000 23.179500000000 1.069617401044 12.300600112002
3370 2 -1.200000000000 25.906500000000 1.069617401044 12.300600112002
3371 2 -1.200000000000 23.179500000000 1.604426101565 14.974643614611
3372 2 -1.200000000000 25.906500000000 1.604426101565 14.974643614611
3373 1 2.400000000000 27.270000000000 24.601200224004 11.765791411480
3374 1 2.400000000000 29.997000000000 25.136008924526 14.439834914089
3375 1 2.400000000000 29.997000000000 27.275243726613 11.230982710958
3376 1 2.400000000000 27.270000000000 -0.000000000000 13.905026213568
3377 2 -1.200000000000 28.633500000000 26.205626325570 12.835408812524
3378 2 -1.200000000000 31.360500000000 26.205626325570 12.835408812524
3379 2 -1.200000000000 28.633500000000 26.740435026091 15.509452315133
3380 2 -1.200000000000 31.360500000000 26.740435026091 15.509452315133
3381 2 -1.200000000000 28.633500000000 1.069617401044 12.300600112002
3382 2 -1.200000000000 31.360500000000 1.069617401044 12.300600112002
3383 2 -1.200000000000 28.633500000000 1.604426101565 14.974643614611
3384 2 -1.200000000000 31.360500000000 1.604426101565 14.974643614611
3385 1 2.400000000000 32.724000000000 24.601200224004 11.765791411480
3386 1 2.400000000000 35.451000000000 25.136008924526 14.439834914089
3387 1 2.400000000000 35.451000000000 27.275243726613 11.230982710958
3388 1 2.400000000000 32.724000000000 -0.000000000000 13.905026213568
3389 2 -1.200000000000 34.087500000000 26.205626325570 12.835408812524
3390 2 -1.200000000000 36.814500000000 26.205626325570 12.835408812524
3391 2 -1.200000000000 34.087500000000 26.740435026091 15.509452315133
3392 2 -1.200000000000 36.814500000000 26.740435026091 15.509452315133
3393 2 -1.200000000000 34.087500000000 1.069617401044 12.300600112002
3394 2 -1.200000000000 36.814500000000 1.069617401044 12.300600112002
3395 2 -1.200000000000 34.087500000000 1.604426101565 14.974643614611
3396 2 -1.200000000000 36.814500000000 1.604426101565 14.974643614611
3397 1 2.400000000000 38.178000000000 24.601200224004 11.765791411480
3398 1 2.400000000000 40.905000000000 25.136008924526 14.439834914089
3399 1 2.400000000000 40.905000000000 27.275243726613 11.230982710958
3400 1 2.400000000000 38.178000000000 -0.000000000000 13.905026213568
3401 2 -1.200000000000 39.541500000000 26.205626325570 12.835408812524
3402 2 -1.200000000000 42.268500000000 26.205626325570 12.835408812524
3403 2 -1.200000000000 39.541500000000 26.740435026091 15.509452315133
3404 2 -1.200000000000 42.268500000000 26.740435026091 15.509452315133
3405 2 -1.200000000000 39.541500000000 1.069617401044 12.300600112002
3406 2 -1.200000000000 42.268500000000 1.069617401044 12.300600112002
3407 2 -1.200000000000 39.541500000000 1.604426101565 14.974643614611
3408 2 -1.200000000000 42.268500000000 1.604426101565 14.974643614611
3409 1 2.400000000000 43.632000000000 24.601200224004 11.765791411480
3410 1 2.400000000000 46.359000000000 25.136008924526 14.439834914089
3411 1 2.400000000000 46.359000000000 27.275243726613 11.230982710958
3412 1 2.400000000000 43.632000000000 -0.000000000000 13.905026213568
3413 2 -1.200000000000 44.995500000000 26.205626325570 12.835408812524
3414 2 -1.200000000000 47.722500000000 26.205626325570 12.835408812524
3415 2 -1.200000000000 44.995500000000 26.740435026091 15.509452315133
3416 2 -1.200000000000 47.722500000000 26.740435026091 15.509452315133
3417 2 -1.200000000000 44.995500000000 1.069617401044 12.300600112002
3418 2 -1.200000000000 47.722500000000 1.069617401044 12.300600112002
3419 2 -1.200000000000 44.995500000000 1.604426101565 14.974643614611
3420 2 -1.200000000000 47.722500000000 1.604426101565 14.974643614611
3421 1 2.400000000000 49.086000000000 24.601200224004 11.765791411480
3422 1 2.400000000000 51.813000000000 25.136008924526 14.439834914089
3423 1 2.400000000000 51.813000000000 27.275243726613 11.230982710958
3424 1 2.400000000000 49.086000000000 -0.000000000000 13.905026213568
3425 2 -1.200000000000 50.449500000000 26.205626325570 12.835408812524
3426 2 -1.200000000000 53.176500000000 26.205626325570 12.835408812524
3427 2 -1.200000000000 50.449500000000 26.740435026091 15.509452315133
3428 2 -1.200000000000 53.176500000000 26.740435026091 15.509452315133
3429 2 -1.200000000000 50.449500000000 1.069617401044 12.300600112002
3430 2 -1.200000000000 53.176500000000 1.069617401044 12.300600112002
3431 2 -1.200000000000 50.449500000000 1.604426101565 14.974643614611
3432 2 -1.200000000000 53.176500000000 1.604426101565 14.974643614611
3433 1 2.400000000000 54.540000000000 24.601200224004 11.765791411480
3434 1 2.400000000000 57.267000000000 25.136008924526 14.439834914089
3435 1 2.400000000000 57.267000000000 27.275243726613 11.230982710958
3436 1 2.400000000000 54.540000000000 -0.000000000000 13.905026213568
3437 2 -1.200000000000 55.903500000000 26.205626325570 12.835408812524
3438 2 -1.200000000000 58.630500000000 26.205626325570 12.835408812524
3439 2 -1.200000000000 55.903500000000 26.740435026091 15.509452315133
3440 2 -1.200000000000 58.630500000000 26.740435026091 15.509452315133
3441 2 -1.200000000000 55.903500000000 1.069617401044 12.300600112002
3442 2 -1.200000000000 58.630500000000 1.069617401044 12.300600112002
3443 2 -1.200000000000 55.903500000000 1.604426101565 14.974643614611
3444 2 -1.200000000000 58.630500000000 1.604426101565 14.974643614611
3445 1 2.400000000000 59.994000000000 24.601200224004 11.765791411480
3446 1 2.400000000000 62.721000000000 25.136008924526 14.439834914089
3447 1 2.400000000000 62.721000000000 27.275243726613 11.230982710958
3448 1 2.400000000000 59.994000000000 -0.000000000000 13.905026213568
3449 2 -1.200000000000 61.357500000000 26.205626325570 12.835408812524
3450 2 -1.200000000000 64.084500000000 26.205626325570 12.835408812524
3451 2 -1.200000000000 61.357500000000 26.740435026091 15.509452315133
3452 2 -1.200000000000 64.084500000000 26.740435026091 15.509452315133
3453 2 -1.200000000000 61.357500000000 1.069617401044 12.300600112002
3454 2 -1.200000000000 64.084500000000 1.069617401044 12.300600112002
3455 2 -1.200000000000 61.357500000000 1.604426101565 14.974643614611
3456 2 -1.200000000000 64.084500000000 1.604426101565 14.974643614611
3457 1 2.400000000000 0.000000000000 25.670817625048 17.113878416698
3458 1 2.400000000000 2.727000000000 26.205626325570 19.787921919308
3459 1 2.400000000000 2.727000000000 0.534808700522 16.579069716177
3460 1 2.400000000000 0.000000000000 1.069617401044 19.253113218786
3461 2 -1.200000000000 1.363500000000 27.275243726613 18.183495817742
3462 2 -1.200000000000 4.090500000000 27.275243726613 18.183495817742
3463 2 -1.200000000000 1.363500000000 -0.000000000000 20.857539320351
3464 2 -1.200000000000 4.090500000000 -0.000000000000 20.857539320351
3465 2 -1.200000000000 1.363500000000 2.139234802087 17.648687117220
3466 2 -1.200000000000 4.090500000000 2.139234802087 17.648687117220
3467 2 -1.200000000000 1.363500000000 2.674043502609 20.322730619829
3468 2 -1.200000000000 4.090500000000 2.674043502609 20.322730619829
3469 1 2.400000000000 5.454000000000 25.670817625048 17.113878416698
3470 1 2.400000000000 8.181000000000 26.205626325570 19.787921919308
3471 1 2.400000000000 8.181000000000 0.534808700522 16.579069716177
3472 1 2.400000000000 5.454000000000 1.069617401044 19.253113218786
3473 2 -1.200000000000 6.817500000000 27.275243726613 18.183495817742
3474 2 -1.200000000000 9.544500000000 27.275243726613 18.183495817742
3475 2 -1.200000000000 6.817500000000 -0.000000000000 20.857539320351
3476 2 -1.200000000000 9.544500000000 -0.000000000000 20.857539320351
3477 2 -1.200000000000 6.817500000000 2.139234802087 17.648687117220
3478 2 -1.200000000000 9.544500000000 2.139234802087 17.648687117220
3479 2 -1.200000000000 6.817500000000 2.674043502609 20.322730619829
3480 2 -1.200000000000 9.544500000000 2.674043502609 20.322730619829
3481 1 2.400000000000 10.908000000000 25.670817625048 17.113878416698
3482 1 2.400000000000 13.635000000000 26.205626325570 19.787921919308
3483 1 2.400000000000 13.635000000000 0.534808700522 16.579069716177
3484 1 2.400000000000 10.908000000000 1.069617401044 19.253113218786
3485 2 -1.200000000000 12.271500000000 27.275243726613 18.183495817742
3486 2 -1.200000000000 14.998500000000 27.275243726613 18.183495817742
3487 2 -1.200000000000 12.271500000000 -0.000000000000 20.857539320351
3488 2 -1.200000000000 14.998500000000 -0.000000000000 20.857539320351
3489 2 -1.200000000000 12.271500000000 2.139234802087 17.648687117220
3490 2 -1.200000000000 14.998500000000 2.139234802087 17.648687117220
3491 2 -1.200000000000 12.271500000000 2.674043502609 20.322730619829
3492 2 -1.200000000000 14.998500000000 2.674043502609 20.322730619829
3493 1 2.400000000000 16.362000000000 25.670817625048 17.113878416698
3494 1 2.400000000000 19.089000000000 26.205626325570 19.787921919308
3495 1 2.400000000000 19.089000000000 0.534808700522 16.579069716177
3496 1 2.400000000000 16.362000000000 1.069617401044 19.253113218786
3497 2 -1.200000000000 17.725500000000 27.275243726613 18.183495817742
3498 2 -1.200000000000 20.452500000000 27.275243726613 18.183495817742
3499 2 -1.200000000000 17.725500000000 -0.000000000000 20.857539320351
3500 2 -1.200000000000 20.452500000000 -0.000000000000 20.857539320351
3501 2 -1.200000000000 17.725500000000 2.139234802087 17.648687117220
3502 2 -1.200000000000 20.452500000000 2.139234802087 17.648687117220
3503 2 -1.200000000000 17.725500000000 2.674043502609 20.322730619829
3504 2 -1.200000000000 20.452500000000 2.674043502609 20.322730619829
3505 1 2.400000000000 21.816000000000 25.670817625048 17.113878416698
3506 1 2.400000000000 24.543000000000 26.205626325570 19.787921919308
3507 1 2.400000000000 24.543000000000 0.534808700522 16.579069716177
3508 1 2.400000000000 21.816000000000 1.069617401044 19.253113218786
3509 2 -1.200000000000 23.179500000000 27.275243726613 18.183495817742
3510 2 -1.200000000000 25.906500000000 27.275243726613 18.183495817742
3511 2 -1.200000000000 23.179500000000 -0.000000000000 20.857539320351
3512 2 -1.200000000000 25.906500000000 -0.000000000000 20.857539320351
3513 2 -1.200000000000 23.179500000000 2.139234802087 17.648687117220
3514 2 -1.200000000000 25.906500000000 2.139234802087 17.648687117220
3515 2 -1.200000000000 23.179500000000 2.674043502609 20.322730619829
3516 2 -1.200000000000 25.906500000000 2.674043502609 20.322730619829
3517 1 2.400000000000 27.270000000000 25.670817625048 17.113878416698
3518 1 2.400000000000 29.997000000000 26.205626325570 19.787921919308
3519 1 2.400000000000 29.997000000000 0.534808700522 16.579069716177
3520 1 2.400000000000 27.270000000000 1.069617401044 19.253113218786
3521 2 -1.200000000000 28.633500000000 27.275243726613 18.183495817742
3522 2 -1.200000000000 31.360500000000 27.275243726613 18.183495817742
3523 2 -1.200000000000 28.633500000000 -0.000000000000 20.857539320351
3524 2 -1.200000000000 31.360500000000 -0.000000000000 20.857539320351
3525 2 -1.200000000000 28.633500000000 2.139234802087 17.648687117220
3526 2 -1.200000000000 31.360500000000 2.139234802087 17.648687117220
3527 2 -1.200000000000 28.633500000000 2.674043502609 20.322730619829
3528 2 -1.200000000000 31.360500000000 2.674043502609 20.322730619829
3529 1 2.400000000000 32.724000000000 25.670817625048 17.113878416698
3530 1 2.400000000000 35.451000000000 26.205626325570 19.787921919308
3531 1 2.400000000000 35.451000000000 0.534808700522 16.579069716177
3532 1 2.400000000000 32.724000000000 1.069617401044 19.253113218786
3533 2 -1.200000000000 34.087500000000 27.275243726613 18.183495817742
3534 2 -1.200000000000 36.814500000000 27.275243726613 18.183495817742
3535 2 -1.200000000000 34.087500000000 -0.000000000000 20.857539320351
3536 2 -1.200000000000 36.814500000000 -0.000000000000 20.857539320351
3537 2 -1.200000000000 34.087500000000 2.139234802087 17.648687117220
3538 2 -1.200000000000 36.814500000000 2.139234802087 17.648687117220
3539 2 -1.200000000000 34.087500000000 2.674043502609 20.322730619829
3540 2 -1.200000000000 36.814500000000 2.674043502609 20.322730619829
3541 1 2.400000000000 38.178000000000 25.670817625048 17.113878416698
3542 1 2.400000000000 40.905000000000 26.205626325570 19.787921919308
3543 1 2.400000000000 40.905000000000 0.534808700522 16.579069716177
3544 1 2.400000000000 38.178000000000 1.069617401044 19.253113218786
3545 2 -1.200000000000 39.541500000000 27.275243726613 18.183495817742
3546 2 -1.200000000000 42.268500000000 27.275243726613 18.183495817742
3547 2 -1.200000000000 39.541500000000 -0.000000000000 20.857539320351
3548 2 -1.200000000000 42.268500000000 -0.000000000000 20.857539320351
3549 2 -1.200000000000 39.541500000000 2.139234802087 17.648687117220
3550 2 -1.200000000000 42.268500000000 2.139234802087 17.648687117220
3551 2 -1.200000000000 39.541500000000 2.674043502609 20.322730619829
3552 2 -1.200000000000 42.268500000000 2.674043502609 20.322730619829
3553 1 2.400000000000 43.632000000000 25.670817625048 17.113878416698
3554 1 2.400000000000 46.359000000000 26.205626325570 19.787921919308
3555 1 2.400000000000 46.359000000000 0.534808700522 16.579069716177
3556 1 2.400000000000 43.632000000000 1.069617401044 19.253113218786
3557 2 -1.200000000000 44.995500000000 27.275243726613 18.183495817742
3558 2 -1.200000000000 47.722500000000 27.275243726613 18.183495817742
3559 2 -1.200000000000 44.995500000000 -0.000000000000 20.857539320351
3560 2 -1.200000000000 47.722500000000 -0.000000000000 20.857539320351
3561 2 -1.200000000000 44.995500000000 2.139234802087 17.648687117220
3562 2 -1.200000000000 47.722500000000 2.139234802087 17.648687117220
3563 2 -1.200000000000 44.995500000000 2.674043502609 20.322730619829
3564 2 -1.200000000000 47.722500000000 2.674043502609 20.322730619829
3565 1 2.400000000000 49.086000000000 25.670817625048 17.113878416698
3566 1 2.400000000000 51.813000000000 26.205626325570 19.787921919308
3567 1 2.400000000000 51.813000000000 0.534808700522 16.579069716177
3568 1 2.400000000000 49.086000000000 1.069617401044 19.253113218786
3569 2 -1.200000000000 50.449500000000 27.275243726613 18.183495817742
3570 2 -1.200000000000 53.176500000000 27.275243726613 18.183495817742
3571 2 -1.200000000000 50.449500000000 -0.000000000000 20.857539320351
3572 2 -1.200000000000 53.176500000000 -0.000000000000 20.857539320351
3573 2 -1.200000000000 50.449500000000 2.139234802087 17.648687117220
3574 2 -1.200000000000 53.176500000000 2.139234802087 17.648687117220
3575 2 -1.200000000000 50.449500000000 2.674043502609 20.322730619829
3576 2 -1.200000000000 53.176500000000 2.674043502609 20.322730619829
3577 1 2.400000000000 54.540000000000 25.670817625048 17.113878416698
3578 1 2.400000000000 57.267000000000 26.205626325570 19.787921919308
3579 1 2.400000000000 57.267000000000 0.534808700522 16.579069716177
3580 1 2.400000000000 54.540000000000 1.069617401044 19.253113218786
3581 2 -1.200000000000 55.903500000000 27.275243726613 18.183495817742
3582 2 -1.200000000000 58.630500000000 27.275243726613 18.183495817742
3583 2 -1.200000000000 55.903500000000 -0.000000000000 20.857539320351
3584 2 -1.200000000000 58.630500000000 -0.000000000000 20.857539320351
3585 2 -1.200000000000 55.903500000000 2.139234802087 17.648687117220
3586 2 -1.200000000000 58.630500000000 2.139234802087 17.648687117220
3587 2 -1.200000000000 55.903500000000 2.674043502609 20.322730619829
3588 2 -1.200000000000 58.630500000000 2.674043502609 20.322730619829
3589 1 2.400000000000 59.994000000000 25.670817625048 17.113878416698
3590 1 2.400000000000 62.721000000000 26.205626325570 19.787921919308
3591 1 2.400000000000 62.721000000000 0.534808700522 16.579069716177
3592 1 2.400000000000 59.994000000000 1.069617401044 19.253113218786
3593 2 -1.200000000000 61.357500000000 27.275243726613 18.183495817742
3594 2 -1.200000000000 64.084500000000 27.275243726613 18.183495817742
3595 2 -1.200000000000 61.357500000000 -0.000000000000 20.857539320351
3596 2 -1.200000000000 64.084500000000 -0.000000000000 20.857539320351
3597 2 -1.200000000000 61.357500000000 2.139234802087 17.648687117220
3598 2 -1.200000000000 64.084500000000 2.139234802087 17.648687117220
3599 2 -1.200000000000 61.357500000000 2.674043502609 20.322730619829
3600 2 -1.200000000000 64.084500000000 2.674043502609 20.322730619829
3601 1 2.400000000000 0.000000000000 26.740435026091 22.461965421917
3602 1 2.400000000000 2.727000000000 27.275243726613 25.136008924526
3603 1 2.400000000000 2.727000000000 1.604426101565 21.927156721395
3604 1 2.400000000000 0.000000000000 2.139234802087 24.601200224004
3605 2 -1.200000000000 1.363500000000 0.534808700522 23.531582822960
3606 2 -1.200000000000 4.090500000000 0.534808700522 23.531582822960
3607 2 -1.200000000000 1.363500000000 1.069617401044 26.205626325570
3608 2 -1.200000000000 4.090500000000 1.069617401044 26.205626325570
3609 2 -1.200000000000 1.363500000000 3.208852203131 22.996774122439
3610 2 -1.200000000000 4.090500000000 3.208852203131 22.996774122439
3611 2 -1.200000000000 1.363500000000 3.743660903653 25.670817625048
3612 2 -1.200000000000 4.090500000000 3.743660903653 25.670817625048
3613 1 2.400000000000 5.454000000000 26.740435026091 22.461965421917
3614 1 2.400000000000 8.181000000000 27.275243726613 25.136008924526
3615 1 2.400000000000 8.181000000000 1.604426101565 21.927156721395
3616 1 2.400000000000 5.454000000000 2.139234802087 24.601200224004
3617 2 -1.200000000000 6.817500000000 0.534808700522 23.531582822960
3618 2 -1.200000000000 9.544500000000 0.534808700522 23.531582822960
3619 2 -1.200000000000 6.817500000000 1.069617401044 26.205626325570
3620 2 -1.200000000000 9.544500000000 1.069617401044 26.205626325570
3621 2 -1.200000000000 6.817500000000 3.208852203131 22.996774122439
3622 2 -1.200000000000 9.544500000000 3.208852203131 22.996774122439
3623 2 -1.200000000000 6.817500000000 3.743660903653 25.670817625048
3624 2 -1.200000000000 9.544500000000 3.743660903653 25.670817625048
3625 1 2.400000000000 10.908000000000 26.740435026091 22.461965421917
3626 1 2.400000000000 13.635000000000 27.275243726613 25.136008924526
3627 1 2.400000000000 13.635000000000 1.604426101565 21.927156721395
3628 1 2.400000000000 10.908000000000 2.139234802087 24.601200224004
3629 2 -1.200000000000 12.271500000000 0.534808700522 23.531582822960
3630 2 -1.200000000000 14.998500000000 0.534808700522 23.531582822960
3631 2 -1.200000000000 12.271500000000 1.069617401044 26.205626325570
3632 2 -1.200000000000 14.998500000000 1.069617401044 26.205626325570
3633 2 -1.200000000000 12.271500000000 3.208852203131 22.996774122439
3634 2 -1.200000000000 14.998500000000 3.208852203131 22.996774122439
3635 2 -1.200000000000 12.271500000000 3.743660903653 25.670817625048
3636 2 -1.200000000000 14.998500000000 3.743660903653 25.670817625048
3637 1 2.400000000000 16.362000000000 26.740435026091 22.461965421917
3638 1 2.400000000000 19.089000000000 27.275243726613 25.136008924526
3639 1 2.400000000000 19.089000000000 1.604426101565 21.927156721395
3640 1 2.400000000000 16.362000000000 2.139234802087 24.601200224004
3641 2 -1.200000000000 17.725500000000 0.534808700522 23.531582822960
3642 2 -1.200000000000 20.452500000000 0.534808700522 23.531582822960
3643 2 -1.200000000000 17.725500000000 1.069617401044 26.205626325570
3644 2 -1.200000000000 20.452500000000 1.069617401044 26.205626325570
3645 2 -1.200000000000 17.725500000000 3.208852203131 22.996774122439
3646 2 -1.200000000000 20.452500000000 3.208852203131 22.996774122439
3647 2 -1.200000000000 17.725500000000 3.743660903653 25.670817625048
3648 2 -1.200000000000 20.452500000000 3.743660903653 25.670817625048
3649 1 2.400000000000 21.816000000000 26.740435026091 22.461965421917
3650 1 2.400000000000 24.543000000000 27.275243726613 25.136008924526
3651 1 2.400000000000 24.543000000000 1.604426101565 21.927156721395
3652 1 2.400000000000 21.816000000000 2.139234802087 24.601200224004
3653 2 -1.200000000000 23.179500000000 0.534808700522 23.531582822960
3654 2 -1.200000000000 25.906500000000 0.534808700522 23.531582822960
3655 2 -1.200000000000 23.179500000000 1.069617401044 26.205626325570
3656 2 -1.200000000000 25.906500000000 1.069617401044 26.205626325570
3657 2 -1.200000000000 23.179500000000 3.208852203131 22.996774122439
3658 2 -1.200000000000 25.906500000000 3.208852203131 22.996774122439
3659 2 -1.200000000000 23.179500000000 3.743660903653 25.670817625048
3660 2 -1.200000000000 25.906500000000 3.743660903653 25.670817625048
3661 1 2.400000000000 27.270000000000 26.740435026091 22.461965421917
3662 1 2.400000000000 29.997000000000 27.275243726613 25.136008924526
3663 1 2.400000000000 29.997000000000 1.604426101565 21.927156721395
3664 1 2.400000000000 27.270000000000 2.139234802087 24.601200224004
3665 2 -1.200000000000 28.633500000000 0.534808700522 23.531582822960
3666 2 -1.200000000000 31.360500000000 0.534808700522 23.531582822960
3667 2 -1.200000000000 28.633500000000 1.069617401044 26.205626325570
3668 2 -1.200000000000 31.360500000000 1.069617401044 26.205626325570
3669 2 -1.200000000000 28.633500000000 3.208852203131 22.996774122439
3670 2 -1.200000000000 31.360500000000 3.208852203131 22.996774122439
3671 2 -1.200000000000 28.633500000000 3.743660903653 25.670817625048
3672 2 -1.200000000000 31.360500000000 3.743660903653 25.670817625048
3673 1 2.400000000000 32.724000000000 26.740435026091 22.461965421917
3674 1 2.400000000000 35.451000000000 27.275243726613 25.136008924526
3675 1 2.400000000000 35.451000000000 1.604426101565 21.927156721395
3676 1 2.400000000000 32.724000000000 2.139234802087 24.601200224004
3677 2 -1.200000000000 34.087500000000 0.534808700522 23.531582822960
3678 2 -1.200000000000 36.814500000000 0.534808700522 23.531582822960
3679 2 -1.200000000000 34.087500000000 1.069617401044 26.205626325570
3680 2 -1.200000000000 36.814500000000 1.069617401044 26.205626325570
3681 2 -1.200000000000 34.087500000000 3.208852203131 22.996774122439
3682 2 -1.200000000000 36.814500000000 3.208852203131 22.996774122439
3683 2 -1.200000000000 34.087500000000 3.743660903653 25.670817625048
3684 2 -1.200000000000 36.814500000000 3.743660903653 25.670817625048
3685 1 2.400000000000 38.178000000000 26.740435026091 22.461965421917
3686 1 2.400000000000 40.905000000000 27.275243726613 25.136008924526
3687 1 2.400000000000 40.905000000000 1.604426101565 21.927156721395
3688 1 2.400000000000 38.178000000000 2.139234802087 24.601200224004
3689 2 -1.200000000000 39.541500000000 0.534808700522 23.531582822960
3690 2 -1.200000000000 42.268500000000 0.534808700522 23.531582822960
3691 2 -1.200000000000 39.541500000000 1.069617401044 26.205626325570
3692 2 -1.200000000000 42.268500000000 1.069617401044 26.205626325570
3693 2 -1.200000000000 39.541500000000 3.208852203131 22.996774122439
3694 2 -1.200000000000 42.268500000000 3.208852203131 22.996774122439
3695 2 -1.200000000000 39.541500000000 3.743660903653 25.670817625048
3696 2 -1.200000000000 42.268500000000 3.743660903653 25.670817625048
3697 1 2.400000000000 43.632000000000 26.740435026091 22.461965421917
3698 1 2.400000000000 46.359000000000 27.275243726613 25.136008924526
3699 1 2.400000000000 46.359000000000 1.604426101565 21.927156721395
3700 1 2.400000000000 43.632000000000 2.139234802087 24.601200224004
3701 2 -1.200000000000 44.995500000000 0.534808700522 23.531582822960
3702 2 -1.200000000000 47.722500000000 0.534808700522 23.531582822960
3703 2 -1.200000000000 44.995500000000 1.069617401044 26.205626325570
3704 2 -1.200000000000 47.722500000000 1.069617401044 26.205626325570
3705 2 -1.200000000000 44.995500000000 3.208852203131 22.996774122439
3706 2 -1.200000000000 47.722500000000 3.208852203131 22.996774122439
3707 2 -1.200000000000 44.995500000000 3.743660903653 25.670817625048
3708 2 -1.200000000000 47.722500000000 3.743660903653 25.670817625048
3709 1 2.400000000000 49.086000000000 26.740435026091 22.461965421917
3710 1 2.400000000000 51.813000000000 27.275243726613 25.136008924526
3711 1 2.400000000000 51.813000000000 1.604426101565 21.927156721395
3712 1 2.400000000000 49.086000000000 2.139234802087 24.601200224004
3713 2 -1.200000000000 50.449500000000 0.534808700522 23.531582822960
3714 2 -1.200000000000 53.176500000000 0.534808700522 23.531582822960
3715 2 -1.200000000000 50.449500000000 1.069617401044 26.205626325570
3716 2 -1.200000000000 53.176500000000 1.069617401044 26.205626325570
3717 2 -1.200000000000 50.449500000000 3.208852203131 22.996774122439
3718 2 -1.200000000000 53.176500000000 3.208852203131 22.996774122439
3719 2 -1.200000000000 50.449500000000 3.743660903653 25.670817625048
3720 2 -1.200000000000 53.176500000000 3.743660903653 25.670817625048
3721 1 2.400000000000 54.540000000000 26.740435026091 22.461965421917
3722 1 2.400000000000 57.267000000000 27.275243726613 25.136008924526
3723 1 2.400000000000 57.267000000000 1.604426101565 21.927156721395
3724 1 2.400000000000 54.540000000000 2.139234802087 24.601200224004
3725 2 -1.200000000000 55.903500000000 0.534808700522 23.531582822960
3726 2 -1.200000000000 58.630500000000 0.534808700522 23.531582822960
3727 2 -1.200000000000 55.903500000000 1.069617401044 26.205626325570
3728 2 -1.200000000000 58.630500000000 1.069617401044 26.205626325570
3729 2 -1.200000000000 55.903500000000 3.208852203131 22.996774122439
3730 2 -1.200000000000 58.630500000000 3.208852203131 22.996774122439
3731 2 -1.200000000000 55.903500000000 3.743660903653 25.670817625048
3732 2 -1.200000000000 58.630500000000 3.743660903653 25.670817625048
3733 1 2.400000000000 59.994000000000 26.740435026091 22.461965421917
3734 1 2.400000000000 62.721000000000 27.275243726613 25.136008924526
3735 1 2.400000000000 62.721000000000 1.604426101565 21.927156721395
3736 1 2.400000000000 59.994000000000 2.139234802087 24.601200224004
3737 2 -1.200000000000 61.357500000000 0.534808700522 23.531582822960
3738 2 -1.200000000000 64.084500000000 0.534808700522 23.531582822960
3739 2 -1.200000000000 61.357500000000 1.069617401044 26.205626325570
3740 2 -1.200000000000 64.084500000000 1.069617401044 26.205626325570
3741 2 -1.200000000000 61.357500000000 3.208852203131 22.996774122439
3742 2 -1.200000000000 64.084500000000 3.208852203131 22.996774122439
3743 2 -1.200000000000 61.357500000000 3.743660903653 25.670817625048
3744 2 -1.200000000000 64.084500000000 3.743660903653 25.670817625048
3745 1 2.400000000000 65.448000000000 0.000000000000 0.000000000000
3746 1 2.400000000000 68.175000000000 27.275243726613 2.674043502609
3747 1 2.400000000000 68.175000000000 2.674043502609 0.534808700522
3748 1 2.400000000000 65.448000000000 2.139234802087 3.208852203131
3749 2 -1.200000000000 66.811500000000 1.069617401044 1.604426101565
3750 2 -1.200000000000 69.538500000000 1.069617401044 1.604426101565
3751 2 -1.200000000000 66.811500000000 0.534808700522 4.278469604175
3752 2 -1.200000000000 69.538500000000 0.534808700522 4.278469604175
3753 2 -1.200000000000 66.811500000000 3.743660903653 2.139234802087
3754 2 -1.200000000000 69.538500000000 3.743660903653 2.139234802087
3755 2 -1.200000000000 66.811500000000 3.208852203131 4.813278304696
3756 2 -1.200000000000 69.538500000000 3.208852203131 4.813278304696
3757 1 2.400000000000 70.902000000000 0.000000000000 0.000000000000
3758 1 2.400000000000 73.629000000000 27.275243726613 2.674043502609
3759 1 2.400000000000 73.629000000000 2.674043502609 0.534808700522
3760 1 2.400000000000 70.902000000000 2.139234802087 3.208852203131
3761 2 -1.200000000000 72.265500000000 1.069617401044 1.604426101565
3762 2 -1.200000000000 74.992500000000 1.069617401044 1.604426101565
3763 2 -1.200000000000 72.265500000000 0.534808700522 4.278469604175
3764 2 -1.200000000000 74.992500000000 0.534808700522 4.278469604175
3765 2 -1.200000000000 72.265500000000 3.743660903653 2.139234802087
3766 2 -1.200000000000 74.992500000000 3.743660903653 2.139234802087
3767 2 -1.200000000000 72.265500000000 3.208852203131 4.813278304696
3768 2 -1.200000000000 74.992500000000 3.208852203131 4.813278304696
3769 1 2.400000000000 76.356000000000 0.000000000000 0.000000000000
3770 1 2.400000000000 79.083000000000 27.275243726613 2.674043502609
3771 1 2.400000000000 79.083000000000 2.674043502609 0.534808700522
3772 1 2.400000000000 76.356000000000 2.139234802087 3.208852203131
3773 2 -1.200000000000 77.719500000000 1.069617401044 1.604426101565
3774 2 -1.200000000000 80.446500000000 1.069617401044 1.604426101565
3775 2 -1.200000000000 77.719500000000 0.534808700522 4.278469604175
3776 2 -1.200000000000 80.446500000000 0.534808700522 4.278469604175
3777 2 -1.200000000000 77.719500000000 3.743660903653 2.139234802087
3778 2 -1.200000000000 80.446500000000 3.743660903653 2.139234802087
3779 2 -1.200000000000 77.719500000000 3.208852203131 4.813278304696
3780 2 -1.200000000000 80.446500000000 3.208852203131 4.813278304696
3781 1 2.400000000000 81.810000000000 0.000000000000 0.000000000000
3782 1 2.400000000000 84.537000000000 27.275243726613 2.674043502609
3783 1 2.400000000000 84.537000000000 2.674043502609 0.534808700522
3784 1 2.400000000000 81.810000000000 2.139234802087 3.208852203131
3785 2 -1.200000000000 83.173500000000 1.069617401044 1.604426101565
3786 2 -1.200000000000 85.900500000000 1.069617401044 1.604426101565
3787 2 -1.200000000000 83.173500000000 0.534808700522 4.278469604175
3788 2 -1.200000000000 85.900500000000 0.534808700522 4.278469604175
3789 2 -1.200000000000 83.173500000000 3.743660903653 2.139234802087
3790 2 -1.200000000000 85.900500000000 3.743660903653 2.139234802087
3791 2 -1.200000000000 83.173500000000 3.208852203131 4.813278304696
3792 2 -1.200000000000 85.900500000000 3.208852203131 4.813278304696
3793 1 2.400000000000 87.264000000000 0.000000000000 0.000000000000
3794 1 2.400000000000 89.991000000000 27.275243726613 2.674043502609
3795 1 2.400000000000 89.991000000000 2.674043502609 0.534808700522
3796 1 2.400000000000 87.264000000000 2.139234802087 3.208852203131
3797 2 -1.200000000000 88.627500000000 1.069617401044 1.604426101565
3798 2 -1.200000000000 91.354500000000 1.069617401044 1.604426101565
3799 2 -1.200000000000 88.627500000000 0.534808700522 4.278469604175
3800 2 -1.200000000000 91.354500000000 0.534808700522 4.278469604175
3801 2 -1.200000000000 88.627500000000 3.743660903653 2.139234802087
3802 2 -1.200000000000 91.354500000000 3.743660903653 2.139234802087
3803 2 -1.200000000000 88.627500000000 3.208852203131 4.813278304696
3804 2 -1.200000000000 91.354500000000 3.208852203131 4.813278304696
3805 1 2.400000000000 92.718000000000 0.000000000000 0.000000000000
3806 1 2.400000000000 95.445000000000 27.275243726613 2.674043502609
3807 1 2.400000000000 95.445000000000 2.674043502609 0.534808700522
3808 1 2.400000000000 92.718000000000 2.139234802087 3.208852203131
3809 2 -1.200000000000 94.081500000000 1.069617401044 1.604426101565
3810 2 -1.200000000000 96.808500000000 1.069617401044 1.604426101565
3811 2 -1.200000000000 94.081500000000 0.534808700522 4.278469604175
3812 2 -1.200000000000 96.808500000000 0.534808700522 4.278469604175
3813 2 -1.200000000000 94.081500000000 3.743660903653 2.139234802087
3814 2 -1.200000000000 96.808500000000 3.743660903653 2.139234802087
3815 2 -1.200000000000 94.081500000000 3.208852203131 4.813278304696
3816 2 -1.200000000000 96.808500000000 3.208852203131 4.813278304696
3817 1 2.400000000000 98.172000000000 0.000000000000 0.000000000000
3818 1 2.400000000000 100.899000000000 27.275243726613 2.674043502609
3819 1 2.400000000000 100.899000000000 2.674043502609 0.534808700522
3820 1 2.400000000000 98.172000000000 2.139234802087 3.208852203131
3821 2 -1.200000000000 99.535500000000 1.069617401044 1.604426101565
3822 2 -1.200000000000 102.262500000000 1.069617401044 1.604426101565
3823 2 -1.200000000000 99.535500000000 0.534808700522 4.278469604175
3824 2 -1.200000000000 102.262500000000 0.534808700522 4.278469604175
3825 2 -1.200000000000 99.535500000000 3.743660903653 2.139234802087
3826 2 -1.200000000000 102.262500000000 3.743660903653 2.139234802087
3827 2 -1.200000000000 99.535500000000 3.208852203131 4.813278304696
3828 2 -1.200000000000 102.262500000000 3.208852203131 4.813278304696
3829 1 2.400000000000 103.626000000000 0.000000000000 0.000000000000
3830 1 2.400000000000 106.353000000000 27.275243726613 2.674043502609
3831 1 2.400000000000 106.353000000000 2.674043502609 0.534808700522
3832 1 2.400000000000 103.626000000000 2.139234802087 3.208852203131
3833 2 -1.200000000000 104.989500000000 1.069617401044 1.604426101565
3834 2 -1.200000000000 107.716500000000 1.069617401044 1.604426101565
3835 2 -1.200000000000 104.989500000000 0.534808700522 4.278469604175
3836 2 -1.200000000000 107.716500000000 0.534808700522 4.278469604175
3837 2 -1.200000000000 104.989500000000 3.743660903653 2.139234802087
3838 2 -1.200000000000 107.716500000000 3.743660903653 2.139234802087
3839 2 -1.200000000000 104.989500000000 3.208852203131 4.813278304696
3840 2 -1.200000000000 107.716500000000 3.208852203131 4.813278304696
3841 1 2.400000000000 109.080000000000 0.000000000000 0.000000000000
3842 1 2.400000000000 111.807000000000 27.275243726613 2.674043502609
3843 1 2.400000000000 111.807000000000 2.674043502609 0.534808700522
3844 1 2.400000000000 109.080000000000 2.139234802087 3.208852203131
3845 2 -1.200000000000 110.443500000000 1.069617401044 1.604426101565
3846 2 -1.200000000000 113.170500000000 1.069617401044 1.604426101565
3847 2 -1.200000000000 110.443500000000 0.534808700522 4.278469604175
3848 2 -1.200000000000 113.170500000000 0.534808700522 4.278469604175
3849 2 -1.200000000000 110.443500000000 3.743660903653 2.139234802087
3850 2 -1.200000000000 113.170500000000 3.743660903653 2.139234802087
3851 2 -1.200000000000 110.443500000000 3.208852203131 4.813278304696
3852 2 -1.200000000000 113.170500000000 3.208852203131 4.813278304696
3853 1 2.400000000000 114.534000000000 0.000000000000 0.000000000000
3854 1 2.400000000000 117.261000000000 27.275243726613 2.674043502609
3855 1 2.400000000000 117.261000000000 2.674043502609 0.534808700522
3856 1 2.400000000000 114.534000000000 2.139234802087 3.208852203131
3857 2 -1.200000000000 115.897500000000 1.069617401044 1.604426101565
3858 2 -1.200000000000 118.624500000000 1.069617401044 1.604426101565
3859 2 -1.200000000000 115.897500000000 0.534808700522 4.278469604175
3860 2 -1.200000000000 118.624500000000 0.534808700522 4.278469604175
3861 2 -1.200000000000 115.897500000000 3.743660903653 2.139234802087
3862 2 -1.200000000000 118.624500000000 3.743660903653 2.139234802087
3863 2 -1.200000000000 115.897500000000 3.208852203131 4.813278304696
3864 2 -1.200000000000 118.624500000000 3.208852203131 4.813278304696
3865 1 2.400000000000 119.988000000000 0.000000000000 0.000000000000
3866 1 2.400000000000 122.715000000000 27.275243726613 2.674043502609
3867 1 2.400000000000 122.715000000000 2.674043502609 0.534808700522
3868 1 2.400000000000 119.988000000000 2.139234802087 3.208852203131
3869 2 -1.200000000000 121.351500000000 1.069617401044 1.604426101565
3870 2 -1.200000000000 124.078500000000 1.069617401044 1.604426101565
3871 2 -1.200000000000 121.351500000000 0.534808700522 4.278469604175
3872 2 -1.200000000000 124.078500000000 0.534808700522 4.278469604175
3873 2 -1.200000000000 121.351500000000 3.743660903653 2.139234802087
3874 2 -1.200000000000 124.078500000000 3.743660903653 2.139234802087
3875 2 -1.200000000000 121.351500000000 3.208852203131 4.813278304696
3876 2 -1.200000000000 124.078500000000 3.208852203131 4.813278304696
3877 1 2.400000000000 125.442000000000 0.000000000000 0.000000000000
3878 1 2.400000000000 128.169000000000 27.275243726613 2.674043502609
3879 1 2.400000000000 128.169000000000 2.674043502609 0.534808700522
3880 1 2.400000000000 125.442000000000 2.139234802087 3.208852203131
3881 2 -1.200000000000 126.805500000000 1.069617401044 1.604426101565
3882 2 -1.200000000000 129.532500000000 1.069617401044 1.604426101565
3883 2 -1.200000000000 126.805500000000 0.534808700522 4.278469604175
3884 2 -1.200000000000 129.532500000000 0.534808700522 4.278469604175
3885 2 -1.200000000000 126.805500000000 3.743660903653 2.139234802087
3886 2 -1.200000000000 129.532500000000 3.743660903653 2.139234802087
3887 2 -1.200000000000 126.805500000000 3.208852203131 4.813278304696
3888 2 -1.200000000000 129.532500000000 3.208852203131 4.813278304696
3889 1 2.400000000000 65.448000000000 5.348087005218 1.069617401044
3890 1 2.400000000000 68.175000000000 4.813278304696 3.743660903653
3891 1 2.400000000000 68.175000000000 8.022130507827 1.604426101565
3892 1 2.400000000000 65.448000000000 7.487321807306 4.278469604175
3893 2 -1.200000000000 66.811500000000 6.417704406262 2.674043502609
3894 2 -1.200000000000 69.538500000000 6.417704406262 2.674043502609
3895 2 -1.200000000000 66.811500000000 5.882895705740 5.348087005218
3896 2 -1.200000000000 69.538500000000 5.882895705740 5.348087005218
3897 2 -1.200000000000 66.811500000000 9.091747908871 3.208852203131
3898 2 -1.200000000000 69.538500000000 9.091747908871 3.208852203131
3899 2 -1.200000000000 66.811500000000 8.556939208349 5.882895705740
3900 2 -1.200000000000 69.538500000000 8.556939208349 5.882895705740
3901 1 2.400000000000 70.902000000000 5.348087005218 1.069617401044
3902 1 2.400000000000 73.629000000000 4.813278304696 3.743660903653
3903 1 2.400000000000 73.629000000000 8.022130507827 1.604426101565
3904 1 2.400000000000 70.902000000000 7.487321807306 4.278469604175
3905 2 -1.200000000000 72.265500000000 6.417704406262 2.674043502609
3906 2 -1.200000000000 74.992500000000 6.417704406262 2.674043502609
3907 2 -1.200000000000 72.265500000000 5.882895705740 5.348087005218
3908 2 -1.200000000000 74.992500000000 5.882895705740 5.348087005218
3909 2 -1.200000000000 72.265500000000 9.091747908871 3.208852203131
3910 2 -1.200000000000 74.992500000000 9.091747908871 3.208852203131
3911 2 -1.200000000000 72.265500000000 8.556939208349 5.882895705740
3912 2 -1.200000000000 74.992500000000 8.556939208349 5.882895705740
3913 1 2.400000000000 76.356000000000 5.348087005218 1.069617401044
3914 1 2.400000000000 79.083000000000 4.813278304696 3.743660903653
3915 1 2.400000000000 79.083000000000 8.022130507827 1.604426101565
3916 1 2.400000000000 76.356000000000 7.487321807306 4.278469604175
3917 2 -1.200000000000 77.719500000000 6.417704406262 2.674043502609
3918 2 -1.200000000000 80.446500000000 6.417704406262 2.674043502609
3919 2 -1.200000000000 77.719500000000 5.882895705740 5.348087005218
3920 2 -1.200000000000 80.446500000000 5.882895705740 5.348087005218
3921 2 -1.200000000000 77.719500000000 9.091747908871 3.208852203131
3922 2 -1.200000000000 80.446500000000 9.091747908871 3.208852203131
3923 2 -1.200000000000 77.719500000000 8.556939208349 5.882895705740
3924 2 -1.200000000000 80.446500000000 8.556939208349 5.882895705740
3925 1 2.400000000000 81.810000000000 5.348087005218 1.069617401044
3926 1 2.400000000000 84.537000000000 4.813278304696 3.743660903653
3927 1 2.400000000000 84.537000000000 8.022130507827 1.604426101565
3928 1 2.400000000000 81.810000000000 7.487321807306 4.278469604175
3929 2 -1.200000000000 83.173500000000 6.417704406262 2.674043502609
3930 2 -1.200000000000 85.900500000000 6.417704406262 2.674043502609
3931 2 -1.200000000000 83.173500000000 5.882895705740 5.348087005218
3932 2 -1.200000000000 85.900500000000 5.882895705740 5.348087005218
3933 2 -1.200000000000 83.173500000000 9.091747908871 3.208852203131
3934 2 -1.200000000000 85.900500000000 9.091747908871 3.208852203131
3935 2 -1.200000000000 83.173500000000 8.556939208349 5.882895705740
3936 2 -1.200000000000 85.900500000000 8.556939208349 5.882895705740
3937 1 2.400000000000 87.264000000000 5.348087005218 1.069617401044
3938 1 2.400000000000 89.991000000000 4.813278304696 3.743660903653
3939 1 2.400000000000 89.991000000000 8.022130507827 1.604426101565
3940 1 2.400000000000 87.264000000000 7.487321807306 4.278469604175
3941 2 -1.200000000000 88.627500000000 6.417704406262 2.674043502609
3942 2 -1.200000000000 91.354500000000 6.417704406262 2.674043502609
3943 2 -1.200000000000 88.627500000000 5.882895705740 5.348087005218
3944 2 -1.200000000000 91.354500000000 5.882895705740 5.348087005218
3945 2 -1.200000000000 88.627500000000 9.091747908871 3.208852203131
3946 2 -1.200000000000 91.354500000000 9.091747908871 3.208852203131
3947 2 -1.200000000000 88.627500000000 8.556939208349 5.882895705740
3948 2 -1.200000000000 91.354500000000 8.556939208349 5.882895705740
3949 1 2.400000000000 92.718000000000 5.348087005218 1.069617401044
3950 1 2.400000000000 95.445000000000 4.813278304696 3.743660903653
3951 1 2.400000000000 95.445000000000 8.022130507827 1.604426101565
3952 1 2.400000000000 92.718000000000 7.487321807306 4.278469604175
3953 2 -1.200000000000 94.081500000000 6.417704406262 2.674043502609
3954 2 -1.200000000000 96.808500000000 6.417704406262 2.674043502609
3955 2 -1.200000000000 94.081500000000 5.882895705740 5.348087005218
3956 2 -1.200000000000 96.808500000000 5.882895705740 5.348087005218
3957 2 -1.200000000000 94.081500000000 9.091747908871 3.208852203131
3958 2 -1.200000000000 96.808500000000 9.091747908871 3.208852203131
3959 2 -1.200000000000 94.081500000000 8.556939208349 5.882895705740
3960 2 -1.200000000000 96.808500000000 8.556939208349 5.882895705740
3961 1 2.400000000000 98.172000000000 5.348087005218 1.069617401044
3962 1 2.400000000000 100.899000000000 4.813278304696 3.743660903653
3963 1 2.400000000000 100.899000000000 8.022130507827 1.604426101565
3964 1 2.400000000000 98.172000000000 7.487321807306 4.278469604175
3965 2 -1.200000000000 99.535500000000 6.417704406262 2.674043502609
3966 2 -1.200000000000 102.262500000000 6.417704406262 2.674043502609
3967 2 -1.200000000000 99.535500000000 5.882895705740 5.348087005218
3968 2 -1.200000000000 102.262500000000 5.882895705740 5.348087005218
3969 2 -1.200000000000 99.535500000000 9.091747908871 3.208852203131
3970 2 -1.200000000000 102.262500000000 9.091747908871 3.208852203131
3971 2 -1.200000000000 99.535500000000 8.556939208349 5.882895705740
3972 2 -1.200000000000 102.262500000000 8.556939208349 5.882895705740
3973 1 2.400000000000 103.626000000000 5.348087005218 1.069617401044
3974 1 2.400000000000 106.353000000000 4.813278304696 3.743660903653
3975 1 2.400000000000 106.353000000000 8.022130507827 1.604426101565
3976 1 2.400000000000 103.626000000000 7.487321807306 4.278469604175
3977 2 -1.200000000000 104.989500000000 6.417704406262 2.674043502609
3978 2 -1.200000000000 107.716500000000 6.417704406262 2.674043502609
3979 2 -1.200000000000 104.989500000000 5.882895705740 5.348087005218
3980 2 -1.200000000000 107.716500000000 5.882895705740 5.348087005218
3981 2 -1.200000000000 104.989500000000 9.091747908871 3.208852203131
3982 2 -1.200000000000 107.716500000000 9.091747908871 3.208852203131
3983 2 -1.200000000000 104.989500000000 8.556939208349 5.882895705740
3984 2 -1.200000000000 107.716500000000 8.556939208349 5.882895705740
3985 1 2.400000000000 109.080000000000 5.348087005218 1.069617401044
3986 1 2.400000000000 111.807000000000 4.813278304696 3.743660903653
3987 1 2.400000000000 111.807000000000 8.022130507827 1.604426101565
3988 1 2.400000000000 109.080000000000 7.487321807306 4.278469604175
3989 2 -1.200000000000 110.443500000000 6.417704406262 2.674043502609
3990 2 -1.200000000000 113.170500000000 6.417704406262 2.674043502609
3991 2 -1.200000000000 110.443500000000 5.882895705740 5.348087005218
3992 2 -1.200000000000 113.170500000000 5.882895705740 5.348087005218
3993 2 -1.200000000000 110.443500000000 9.091747908871 3.208852203131
3994 2 -1.200000000000 113.170500000000 9.091747908871 3.208852203131
3995 2 -1.200000000000 110.443500000000 8.556939208349 5.882895705740
3996 2 -1.200000000000 113.170500000000 8.556939208349 5.882895705740
3997 1 2.400000000000 114.534000000000 5.348087005218 1.069617401044
3998 1 2.400000000000 117.261000000000 4.813278304696 3.743660903653
3999 1 2.400000000000 117.261000000000 8.022130507827 1.604426101565
4000 1 2.400000000000 114.534000000000 7.487321807306 4.278469604175
4001 2 -1.200000000000 115.897500000000 6.417704406262 2.674043502609
4002 2 -1.200000000000 118.624500000000 6.417704406262 2.674043502609
4003 2 -1.200000000000 115.897500000000 5.882895705740 5.348087005218
4004 2 -1.200000000000 118.624500000000 5.882895705740 5.348087005218
4005 2 -1.200000000000 115.897500000000 9.091747908871 3.208852203131
4006 2 -1.200000000000 118.624500000000 9.091747908871 3.208852203131
4007 2 -1.200000000000 115.897500000000 8.556939208349 5.882895705740
4008 2 -1.200000000000 118.624500000000 8.556939208349 5.882895705740
4009 1 2.400000000000 119.988000000000 5.348087005218 1.069617401044
4010 1 2.400000000000 122.715000000000 4.813278304696 3.743660903653
4011 1 2.400000000000 122.715000000000 8.022130507827 1.604426101565
4012 1 2.400000000000 119.988000000000 7.487321807306 4.278469604175
4013 2 -1.200000000000 121.351500000000 6.417704406262 2.674043502609
4014 2 -1.200000000000 124.078500000000 6.417704406262 2.674043502609
4015 2 -1.200000000000 121.351500000000 5.882895705740 5.348087005218
4016 2 -1.200000000000 124.078500000000 5.882895705740 5.348087005218
4017 2 -1.200000000000 121.351500000000 9.091747908871 3.208852203131
4018 2 -1.200000000000 124.078500000000 9.091747908871 3.208852203131
4019 2 -1.200000000000 121.351500000000 8.556939208349 5.882895705740
4020 2 -1.200000000000 124.078500000000 8.556939208349 5.882895705740
4021 1 2.400000000000 125.442000000000 5.348087005218 1.069617401044
4022 1 2.400000000000 128.169000000000 4.813278304696 3.743660903653
4023 1 2.400000000000 128.169000000000 8.022130507827 1.604426101565
4024 1 2.400000000000 125.442000000000 7.487321807306 4.278469604175
4025 2 -1.200000000000 126.805500000000 6.417704406262 2.674043502609
4026 2 -1.200000000000 129.532500000000 6.417704406262 2.674043502609
4027 2 -1.200000000000 126.805500000000 5.882895705740 5.348087005218
4028 2 -1.200000000000 129.532500000000 5.882895705740 5.348087005218
4029 2 -1.200000000000 126.805500000000 9.091747908871 3.208852203131
4030 2 -1.200000000000 129.532500000000 9.091747908871 3.208852203131
4031 2 -1.200000000000 126.805500000000 8.556939208349 5.882895705740
4032 2 -1.200000000000 129.532500000000 8.556939208349 5.882895705740
4033 1 2.400000000000 65.448000000000 4.278469604175 6.417704406262
4034 1 2.400000000000 68.175000000000 3.743660903653 9.091747908871
4035 1 2.400000000000 68.175000000000 6.952513106784 6.952513106784
4036 1 2.400000000000 65.448000000000 6.417704406262 9.626556609393
4037 2 -1.200000000000 66.811500000000 5.348087005218 8.022130507827
4038 2 -1.200000000000 69.538500000000 5.348087005218 8.022130507827
4039 2 -1.200000000000 66.811500000000 4.813278304696 10.696174010437
4040 2 -1.200000000000 69.538500000000 4.813278304696 10.696174010437
4041 2 -1.200000000000 66.811500000000 8.022130507827 8.556939208349
4042 2 -1.200000000000 69.538500000000 8.022130507827 8.556939208349
4043 2 -1.200000000000 66.811500000000 7.487321807306 11.230982710958
4044 2 -1.200000000000 69.538500000000 7.487321807306 11.230982710958
4045 1 2.400000000000 70.902000000000 4.278469604175 6.417704406262
4046 1 2.400000000000 73.629000000000 3.743660903653 9.091747908871
4047 1 2.400000000000 73.629000000000 6.952513106784 6.952513106784
4048 1 2.400000000000 70.902000000000 6.417704406262 9.626556609393
4049 2 -1.200000000000 72.265500000000 5.348087005218 8.022130507827
4050 2 -1.200000000000 74.992500000000 5.348087005218 8.022130507827
4051 2 -1.200000000000 72.265500000000 4.813278304696 10.696174010437
4052 2 -1.200000000000 74.992500000000 4.813278304696 10.696174010437
4053 2 -1.200000000000 72.265500000000 8.022130507827 8.556939208349
4054 2 -1.200000000000 74.992500000000 8.022130507827 8.556939208349
4055 2 -1.200000000000 72.265500000000 7.487321807306 11.230982710958
4056 2 -1.200000000000 74.992500000000 7.487321807306 11.230982710958
4057 1 2.400000000000 76.356000000000 4.278469604175 6.417704406262
4058 1 2.400000000000 79.083000000000 3.743660903653 9.091747908871
4059 1 2.400000000000 79.083000000000 6.952513106784 6.952513106784
4060 1 2.400000000000 76.356000000000 6.417704406262 9.626556609393
4061 2 -1.200000000000 77.719500000000 5.348087005218 8.022130507827
4062 2 -1.200000000000 80.446500000000 5.348087005218 8.022130507827
4063 2 -1.200000000000 77.719500000000 4.813278304696 10.696174010437
4064 2 -1.200000000000 80.446500000000 4.813278304696 10.696174010437
4065 2 -1.200000000000 77.719500000000 8.022130507827 8.556939208349
4066 2 -1.200000000000 80.446500000000 8.022130507827 8.556939208349
4067 2 -1.200000000000 77.719500000000 7.487321807306 11.230982710958
4068 2 -1.200000000000 80.446500000000 7.487321807306 11.230982710958
4069 1 2.400000000000 81.810000000000 4.278469604175 6.417704406262
4070 1 2.400000000000 84.537000000000 3.743660903653 9.091747908871
4071 1 2.400000000000 84.537000000000 6.952513106784 6.952513106784
4072 1 2.400000000000 81.810000000000 6.417704406262 9.626556609393
4073 2 -1.200000000000 83.173500000000 5.348087005218 8.022130507827
4074 2 -1.200000000000 85.900500000000 5.348087005218 8.022130507827
4075 2 -1.200000000000 83.173500000000 4.813278304696 10.696174010437
4076 2 -1.200000000000 85.900500000000 4.813278304696 10.696174010437
4077 2 -1.200000000000 83.173500000000 8.022130507827 8.556939208349
4078 2 -1.200000000000 85.900500000000 8.022130507827 8.556939208349
4079 2 -1.200000000000 83.173500000000 7.487321807306 11.230982710958
4080 2 -1.200000000000 85.900500000000 7.487321807306 11.230982710958
4081 1 2.400000000000 87.264000000000 4.278469604175 6.417704406262
4082 1 2.400000000000 89.991000000000 3.743660903653 9.091747908871
4083 1 2.400000000000 89.991000000000 6.952513106784 6.952513106784
4084 1 2.400000000000 87.264000000000 6.417704406262 9.626556609393
4085 2 -1.200000000000 88.627500000000 5.348087005218 8.022130507827
4086 2 -1.200000000000 91.354500000000 5.348087005218 8.022130507827
4087 2 -1.200000000000 88.627500000000 4.813278304696 10.696174010437
4088 2 -1.200000000000 91.354500000000 4.813278304696 10.696174010437
4089 2 -1.200000000000 88.627500000000 8.022130507827 8.556939208349
4090 2 -1.200000000000 91.354500000000 8.022130507827 8.556939208349
4091 2 -1.200000000000 88.627500000000 7.487321807306 11.230982710958
4092 2 -1.200000000000 91.354500000000 7.487321807306 11.230982710958
4093 1 2.400000000000 92.718000000000 4.278469604175 6.417704406262
4094 1 2.400000000000 95.445000000000 3.743660903653 9.091747908871
4095 1 2.400000000000 95.445000000000 6.952513106784 6.952513106784
4096 1 2.400000000000 92.718000000000 6.417704406262 9.626556609393
4097 2 -1.200000000000 94.081500000000 5.348087005218 8.022130507827
4098 2 -1.200000000000 96.808500000000 5.348087005218 8.022130507827
4099 2 -1.200000000000 94.081500000000 4.813278304696 10.696174010437
4100 2 -1.200000000000 96.808500000000 4.813278304696 10.696174010437
4101 2 -1.200000000000 94.081500000000 8.022130507827 8.556939208349
4102 2 -1.200000000000 96.808500000000 8.022130507827 8.556939208349
4103 2 -1.200000000000 94.081500000000 7.487321807306 11.230982710958
4104 2 -1.200000000000 96.808500000000 7.487321807306 11.230982710958
4105 1 2.400000000000 98.172000000000 4.278469604175 6.417704406262
4106 1 2.400000000000 100.899000000000 3.743660903653 9.091747908871
4107 1 2.400000000000 100.899000000000 6.952513106784 6.952513106784
4108 1 2.400000000000 98.172000000000 6.417704406262 9.626556609393
4109 2 -1.200000000000 99.535500000000 5.348087005218 8.022130507827
4110 2 -1.200000000000 102.262500000000 5.348087005218 8.022130507827
4111 2 -1.200000000000 99.535500000000 4.813278304696 10.696174010437
4112 2 -1.200000000000 102.262500000000 4.813278304696 10.696174010437
4113 2 -1.200000000000 99.535500000000 8.022130507827 8.556939208349
4114 2 -1.200000000000 102.262500000000 8.022130507827 8.556939208349
4115 2 -1.200000000000 99.535500000000 7.487321807306 11.230982710958
4116 2 -1.200000000000 102.262500000000 7.487321807306 11.230982710958
4117 1 2.400000000000 103.626000000000 4.278469604175 6.417704406262
4118 1 2.400000000000 106.353000000000 3.743660903653 9.091747908871
4119 1 2.400000000000 106.353000000000 6.952513106784 6.952513106784
4120 1 2.400000000000 103.626000000000 6.417704406262 9.626556609393
4121 2 -1.200000000000 104.989500000000 5.348087005218 8.022130507827
4122 2 -1.200000000000 107.716500000000 5.348087005218 8.022130507827
4123 2 -1.200000000000 104.989500000000 4.813278304696 10.696174010437
4124 2 -1.200000000000 107.716500000000 4.813278304696 10.696174010437
4125 2 -1.200000000000 104.989500000000 8.022130507827 8.556939208349
4126 2 -1.200000000000 107.716500000000 8.022130507827 8.556939208349
4127 2 -1.200000000000 104.989500000000 7.487321807306 11.230982710958
4128 2 -1.200000000000 107.716500000000 7.487321807306 11.230982710958
4129 1 2.400000000000 109.080000000000 4.278469604175 6.417704406262
4130 1 2.400000000000 111.807000000000 3.743660903653 9.091747908871
4131 1 2.400000000000 111.807000000000 6.952513106784 6.952513106784
4132 1 2.400000000000 109.080000000000 6.417704406262 9.626556609393
4133 2 -1.200000000000 110.443500000000 5.348087005218 8.022130507827
4134 2 -1.200000000000 113.170500000000 5.348087005218 8.022130507827
4135 2 -1.200000000000 110.443500000000 4.813278304696 10.696174010437
4136 2 -1.200000000000 113.170500000000 4.813278304696 10.696174010437
4137 2 -1.200000000000 110.443500000000 8.022130507827 8.556939208349
4138 2 -1.200000000000 113.170500000000 8.022130507827 8.556939208349
4139 2 -1.200000000000 110.443500000000 7.487321807306 11.230982710958
4140 2 -1.200000000000 113.170500000000 7.487321807306 11.230982710958
4141 1 2.400000000000 114.534000000000 4.278469604175 6.417704406262
4142 1 2.400000000000 117.261000000000 3.743660903653 9.091747908871
4143 1 2.400000000000 117.261000000000 6.952513106784 6.952513106784
4144 1 2.400000000000 114.534000000000 6.417704406262 9.626556609393
4145 2 -1.200000000000 115.897500000000 5.348087005218 8.022130507827
4146 2 -1.200000000000 118.624500000000 5.348087005218 8.022130507827
4147 2 -1.200000000000 115.897500000000 4.813278304696 10.696174010437
4148 2 -1.200000000000 118.624500000000 4.813278304696 10.696174010437
4149 2 -1.200000000000 115.897500000000 8.022130507827 8.556939208349
4150 2 -1.200000000000 118.624500000000 8.022130507827 8.556939208349
4151 2 -1.200000000000 115.897500000000 7.487321807306 11.230982710958
4152 2 -1.200000000000 118.624500000000 7.487321807306 11.230982710958
4153 1 2.400000000000 119.988000000000 4.278469604175 6.417704406262
4154 1 2.400000000000 122.715000000000 3.743660903653 9.091747908871
4155 1 2.400000000000 122.715000000000 6.952513106784 6.952513106784
4156 1 2.400000000000 119.988000000000 6.417704406262 9.626556609393
4157 2 -1.200000000000 121.351500000000 5.348087005218 8.022130507827
4158 2 -1.200000000000 124.078500000000 5.348087005218 8.022130507827
4159 2 -1.200000000000 121.351500000000 4.813278304696 10.696174010437
4160 2 -1.200000000000 124.078500000000 4.813278304696 10.696174010437
4161 2 -1.200000000000 121.351500000000 8.022130507827 8.556939208349
4162 2 -1.200000000000 124.078500000000 8.022130507827 8.556939208349
4163 2 -1.200000000000 121.351500000000 7.487321807306 11.230982710958
4164 2 -1.200000000000 124.078500000000 7.487321807306 11.230982710958
4165 1 2.400000000000 125.442000000000 4.278469604175 6.417704406262
4166 1 2.400000000000 128.169000000000 3.743660903653 9.091747908871
4167 1 2.400000000000 128.169000000000 6.952513106784 6.952513106784
4168 1 2.400000000000 125.442000000000 6.417704406262 9.626556609393
4169 2 -1.200000000000 126.805500000000 5.348087005218 8.022130507827
4170 2 -1.200000000000 129.532500000000 5.348087005218 8.022130507827
4171 2 -1.200000000000 126.805500000000 4.813278304696 10.696174010437
4172 2 -1.200000000000 129.532500000000 4.813278304696 10.696174010437
4173 2 -1.200000000000 126.805500000000 8.022130507827 8.556939208349
4174 2 -1.200000000000 129.532500000000 8.022130507827 8.556939208349
4175 2 -1.200000000000 126.805500000000 7.487321807306 11.230982710958
4176 2 -1.200000000000 129.532500000000 7.487321807306 11.230982710958
4177 1 2.400000000000 65.448000000000 3.208852203131 11.765791411480
4178 1 2.400000000000 68.175000000000 2.674043502609 14.439834914089
4179 1 2.400000000000 68.175000000000 5.882895705740 12.300600112002
4180 1 2.400000000000 65.448000000000 5.348087005218 14.974643614611
4181 2 -1.200000000000 66.811500000000 4.278469604175 13.370217513046
4182 2 -1.200000000000 69.538500000000 4.278469604175 13.370217513046
4183 2 -1.200000000000 66.811500000000 3.743660903653 16.044261015655
4184 2 -1.200000000000 69.538500000000 3.743660903653 16.044261015655
4185 2 -1.200000000000 66.811500000000 6.952513106784 13.905026213568
4186 2 -1.200000000000 69.538500000000 6.952513106784 13.905026213568
4187 2 -1.200000000000 66.811500000000 6.417704406262 16.579069716177
4188 2 -1.200000000000 69.538500000000 6.417704406262 16.579069716177
4189 1 2.400000000000 70.902000000000 3.208852203131 11.765791411480
4190 1 2.400000000000 73.629000000000 2.674043502609 14.439834914089
4191 1 2.400000000000 73.629000000000 5.882895705740 12.300600112002
4192 1 2.400000000000 70.902000000000 5.348087005218 14.974643614611
4193 2 -1.200000000000 72.265500000000 4.278469604175 13.370217513046
4194 2 -1.200000000000 74.992500000000 4.278469604175 13.370217513046
4195 2 -1.200000000000 72.265500000000 3.743660903653 16.044261015655
4196 2 -1.200000000000 74.992500000000 3.743660903653 16.044261015655
4197 2 -1.200000000000 72.265500000000 6.952513106784 13.905026213568
4198 2 -1.200000000000 74.992500000000 6.952513106784 13.905026213568
4199 2 -1.200000000000 72.265500000000 6.417704406262 16.579069716177
4200 2 -1.200000000000 74.992500000000 6.417704406262 16.579069716177
4201 1 2.400000000000 76.356000000000 3.208852203131 11.765791411480
4202 1 2.400000000000 79.083000000000 2.674043502609 14.439834914089
4203 1 2.400000000000 79.083000000000 5.882895705740 12.300600112002
4204 1 2.400000000000 76.356000000000 5.348087005218 14.974643614611
4205 2 -1.200000000000 77.719500000000 4.278469604175 13.370217513046
4206 2 -1.200000000000 80.446500000000 4.278469604175 13.370217513046
4207 2 -1.200000000000 77.719500000000 3.743660903653 16.044261015655
4208 2 -1.200000000000 80.446500000000 3.743660903653 16.044261015655
4209 2 -1.200000000000 77.719500000000 6.952513106784 13.905026213568
4210 2 -1.200000000000 80.446500000000 6.952513106784 13.905026213568
4211 2 -1.200000000000 77.719500000000 6.417704406262 16.579069716177
4212 2 -1.200000000000 80.446500000000 6.417704406262 16.579069716177
4213 1 2.400000000000 81.810000000000 3.208852203131 11.765791411480
4214 1 2.400000000000 84.537000000000 2.674043502609 14.439834914089
4215 1 2.400000000000 84.537000000000 5.882895705740 12.300600112002
4216 1 2.400000000000 81.810000000000 5.348087005218 14.974643614611
4217 2 -1.200000000000 83.173500000000 4.278469604175 13.370217513046
4218 2 -1.200000000000 85.900500000000 4.278469604175 13.370217513046
4219 2 -1.200000000000 83.173500000000 3.743660903653 16.044261015655
4220 2 -1.200000000000 85.900500000000 3.743660903653 16.044261015655
4221 2 -1.200000000000 83.173500000000 6.952513106784 13.905026213568
4222 2 -1.200000000000 85.900500000000 6.952513106784 13.905026213568
4223 2 -1.200000000000 83.173500000000 6.417704406262 16.579069716177
4224 2 -1.200000000000 85.900500000000 6.417704406262 16.579069716177
4225 1 2.400000000000 87.264000000000 3.208852203131 11.765791411480
4226 1 2.400000000000 89.991000000000 2.674043502609 14.439834914089
4227 1 2.400000000000 89.991000000000 5.882895705740 12.300600112002
4228 1 2.400000000000 87.264000000000 5.348087005218 14.974643614611
4229 2 -1.200000000000 88.627500000000 4.278469604175 13.370217513046
4230 2 -1.200000000000 91.354500000000 4.278469604175 13.370217513046
4231 2 -1.200000000000 88.627500000000 3.743660903653 16.044261015655
4232 2 -1.200000000000 91.354500000000 3.743660903653 16.044261015655
4233 2 -1.200000000000 88.627500000000 6.952513106784 13.905026213568
4234 2 -1.200000000000 91.354500000000 6.952513106784 13.905026213568
4235 2 -1.200000000000 88.627500000000 6.417704406262 16.579069716177
4236 2 -1.200000000000 91.354500000000 6.417704406262 16.579069716177
4237 1 2.400000000000 92.718000000000 3.208852203131 11.765791411480
4238 1 2.400000000000 95.445000000000 2.674043502609 14.439834914089
4239 1 2.400000000000 95.445000000000 5.882895705740 12.300600112002
4240 1 2.400000000000 92.718000000000 5.348087005218 14.974643614611
4241 2 -1.200000000000 94.081500000000 4.278469604175 13.370217513046
4242 2 -1.200000000000 96.808500000000 4.278469604175 13.370217513046
4243 2 -1.200000000000 94.081500000000 3.743660903653 16.044261015655
4244 2 -1.200000000000 96.808500000000 3.743660903653 16.044261015655
4245 2 -1.200000000000 94.081500000000 6.952513106784 13.905026213568
4246 2 -1.200000000000 96.808500000000 6.952513106784 13.905026213568
4247 2 -1.200000000000 94.081500000000 6.417704406262 16.579069716177
4248 2 -1.200000000000 96.808500000000 6.417704406262 16.579069716177
4249 1 2.400000000000 98.172000000000 3.208852203131 11.765791411480
4250 1 2.400000000000 100.899000000000 2.674043502609 14.439834914089
4251 1 2.400000000000 100.899000000000 5.882895705740 12.300600112002
4252 1 2.400000000000 98.172000000000 5.348087005218 14.974643614611
4253 2 -1.200000000000 99.535500000000 4.278469604175 13.370217513046
4254 2 -1.200000000000 102.262500000000 4.278469604175 13.370217513046
4255 2 -1.200000000000 99.535500000000 3.743660903653 16.044261015655
4256 2 -1.200000000000 102.262500000000 3.743660903653 16.044261015655
4257 2 -1.200000000000 99.535500000000 6.952513106784 13.905026213568
4258 2 -1.200000000000 102.262500000000 6.952513106784 13.905026213568
4259 2 -1.200000000000 99.535500000000 6.417704406262 16.579069716177
4260 2 -1.200000000000 102.262500000000 6.417704406262 16.579069716177
4261 1 2.400000000000 103.626000000000 3.208852203131 11.765791411480
4262 1 2.400000000000 106.353000000000 2.674043502609 14.439834914089
4263 1 2.400000000000 106.353000000000 5.882895705740 12.300600112002
4264 1 2.400000000000 103.626000000000 5.348087005218 14.974643614611
4265 2 -1.200000000000 104.989500000000 4.278469604175 13.370217513046
4266 2 -1.200000000000 107.716500000000 4.278469604175 13.370217513046
4267 2 -1.200000000000 104.989500000000 3.743660903653 16.044261015655
4268 2 -1.200000000000 107.716500000000 3.743660903653 16.044261015655
4269 2 -1.200000000000 104.989500000000 6.952513106784 13.905026213568
4270 2 -1.200000000000 107.716500000000 6.952513106784 13.905026213568
4271 2 -1.200000000000 104.989500000000 6.417704406262 16.579069716177
4272 2 -1.200000000000 107.716500000000 6.417704406262 16.579069716177
4273 1 2.400000000000 109.080000000000 3.208852203131 11.765791411480
4274 1 2.400000000000 111.807000000000 2.674043502609 14.439834914089
4275 1 2.400000000000 111.807000000000 5.882895705740 12.300600112002
4276 1 2.400000000000 109.080000000000 5.348087005218 14.974643614611
4277 2 -1.200000000000 110.443500000000 4.278469604175 13.370217513046
4278 2 -1.200000000000 113.170500000000 4.278469604175 13.370217513046
4279 2 -1.200000000000 110.443500000000 3.743660903653 16.044261015655
4280 2 -1.200000000000 113.170500000000 3.743660903653 16.044261015655
4281 2 -1.200000000000 110.443500000000 6.952513106784 13.905026213568
4282 2 -1.200000000000 113.170500000000 6.952513106784 13.905026213568
4283 2 -1.200000000000 110.443500000000 6.417704406262 16.579069716177
4284 2 -1.200000000000 113.170500000000 6.417704406262 16.579069716177
4285 1 2.400000000000 114.534000000000 3.208852203131 11.765791411480
4286 1 2.400000000000 117.261000000000 2.674043502609 14.439834914089
4287 1 2.400000000000 117.261000000000 5.882895705740 12.300600112002
4288 1 2.400000000000 114.534000000000 5.348087005218 14.974643614611
4289 2 -1.200000000000 115.897500000000 4.278469604175 13.370217513046
4290 2 -1.200000000000 118.624500000000 4.278469604175 13.370217513046
4291 2 -1.200000000000 115.897500000000 3.743660903653 16.044261015655
4292 2 -1.200000000000 118.624500000000 3.743660903653 16.044261015655
4293 2 -1.200000000000 115.897500000000 6.952513106784 13.905026213568
4294 2 -1.200000000000 118.624500000000 6.952513106784 13.905026213568
4295 2 -1.200000000000 115.897500000000 6.417704406262 16.579069716177
4296 2 -1.200000000000 118.624500000000 6.417704406262 16.579069716177
4297 1 2.400000000000 119.988000000000 3.208852203131 11.765791411480
4298 1 2.400000000000 122.715000000000 2.674043502609 14.439834914089
4299 1 2.400000000000 122.715000000000 5.882895705740 12.300600112002
4300 1 2.400000000000 119.988000000000 5.348087005218 14.974643614611
4301 2 -1.200000000000 121.351500000000 4.278469604175 13.370217513046
4302 2 -1.200000000000 124.078500000000 4.278469604175 13.370217513046
4303 2 -1.200000000000 121.351500000000 3.743660903653 16.044261015655
4304 2 -1.200000000000 124.078500000000 3.743660903653 16.044261015655
4305 2 -1.200000000000 121.351500000000 6.952513106784 13.905026213568
4306 2 -1.200000000000 124.078500000000 6.952513106784 13.905026213568
4307 2 -1.200000000000 121.351500000000 6.417704406262 16.579069716177
4308 2 -1.200000000000 124.078500000000 6.417704406262 16.579069716177
4309 1 2.400000000000 125.442000000000 3.208852203131 11.765791411480
4310 1 2.400000000000 128.169000000000 2.674043502609 14.439834914089
4311 1 2.400000000000 128.169000000000 5.882895705740 12.300600112002
4312 1 2.400000000000 125.442000000000 5.348087005218 14.974643614611
4313 2 -1.200000000000 126.805500000000 4.278469604175 13.370217513046
4314 2 -1.200000000000 129.532500000000 4.278469604175 13.370217513046
4315 2 -1.200000000000 126.805500000000 3.743660903653 16.044261015655
4316 2 -1.200000000000 129.532500000000 3.743660903653 16.044261015655
4317 2 -1.200000000000 126.805500000000 6.952513106784 13.905026213568
4318 2 -1.200000000000 129.532500000000 6.952513106784 13.905026213568
4319 2 -1.200000000000 126.805500000000 6.417704406262 16.579069716177
4320 2 -1.200000000000 129.532500000000 6.417704406262 16.579069716177
4321 1 2.400000000000 65.448000000000 2.139234802087 17.113878416698
4322 1 2.400000000000 68.175000000000 1.604426101565 19.787921919308
4323 1 2.400000000000 68.175000000000 4.813278304696 17.648687117220
4324 1 2.400000000000 65.448000000000 4.278469604175 20.322730619829
4325 2 -1.200000000000 66.811500000000 3.208852203131 18.718304518264
4326 2 -1.200000000000 69.538500000000 3.208852203131 18.718304518264
4327 2 -1.200000000000 66.811500000000 2.674043502609 21.392348020873
4328 2 -1.200000000000 69.538500000000 2.674043502609 21.392348020873
4329 2 -1.200000000000 66.811500000000 5.882895705740 19.253113218786
4330 2 -1.200000000000 69.538500000000 5.882895705740 19.253113218786
4331 2 -1.200000000000 66.811500000000 5.348087005218 21.927156721395
4332 2 -1.200000000000 69.538500000000 5.348087005218 21.927156721395
4333 1 2.400000000000 70.902000000000 2.139234802087 17.113878416698
4334 1 2.400000000000 73.629000000000 1.604426101565 19.787921919308
4335 1 2.400000000000 73.629000000000 4.813278304696 17.648687117220
4336 1 2.400000000000 70.902000000000 4.278469604175 20.322730619829
4337 2 -1.200000000000 72.265500000000 3.208852203131 18.718304518264
4338 2 -1.200000000000 74.992500000000 3.208852203131 18.718304518264
4339 2 -1.200000000000 72.265500000000 2.674043502609 21.392348020873
4340 2 -1.200000000000 74.992500000000 2.674043502609 21.392348020873
4341 2 -1.200000000000 72.265500000000 5.882895705740 19.253113218786
4342 2 -1.200000000000 74.992500000000 5.882895705740 19.253113218786
4343 2 -1.200000000000 72.265500000000 5.348087005218 21.927156721395
4344 2 -1.200000000000 74.992500000000 5.348087005218 21.927156721395
4345 1 2.400000000000 76.356000000000 2.139234802087 17.113878416698
4346 1 2.400000000000 79.083000000000 1.604426101565 19.787921919308
4347 1 2.400000000000 79.083000000000 4.813278304696 17.648687117220
4348 1 2.400000000000 76.356000000000 4.278469604175 20.322730619829
4349 2 -1.200000000000 77.719500000000 3.208852203131 18.718304518264
4350 2 -1.200000000000 80.446500000000 3.208852203131 18.718304518264
4351 2 -1.200000000000 77.719500000000 2.674043502609 21.392348020873
4352 2 -1.200000000000 80.446500000000 2.674043502609 21.392348020873
4353 2 -1.200000000000 77.719500000000 5.882895705740 19.253113218786
4354 2 -1.200000000000 80.446500000000 5.882895705740 19.253113218786
4355 2 -1.200000000000 77.719500000000 5.348087005218 21.927156721395
4356 2 -1.200000000000 80.446500000000 5.348087005218 21.927156721395
4357 1 2.400000000000 81.810000000000 2.139234802087 17.113878416698
4358 1 2.400000000000 84.537000000000 1.604426101565 19.787921919308
4359 1 2.400000000000 84.537000000000 4.813278304696 17.648687117220
4360 1 2.400000000000 81.810000000000 4.278469604175 20.322730619829
4361 2 -1.200000000000 83.173500000000 3.208852203131 18.718304518264
4362 2 -1.200000000000 85.900500000000 3.208852203131 18.718304518264
4363 2 -1.200000000000 83.173500000000 2.674043502609 21.392348020873
4364 2 -1.200000000000 85.900500000000 2.674043502609 21.392348020873
4365 2 -1.200000000000 83.173500000000 5.882895705740 19.253113218786
4366 2 -1.200000000000 85.900500000000 5.882895705740 19.253113218786
4367 2 -1.200000000000 83.173500000000 5.348087005218 21.927156721395
4368 2 -1.200000000000 85.900500000000 5.348087005218 21.927156721395
4369 1 2.400000000000 87.264000000000 2.139234802087 17.113878416698
4370 1 2.400000000000 89.991000000000 1.604426101565 19.787921919308
4371 1 2.400000000000 89.991000000000 4.813278304696 17.648687117220
4372 1 2.400000000000 87.264000000000 4.278469604175 20.322730619829
4373 2 -1.200000000000 88.627500000000 3.208852203131 18.718304518264
4374 2 -1.200000000000 91.354500000000 3.208852203131 18.718304518264
4375 2 -1.200000000000 88.627500000000 2.674043502609 21.392348020873
4376 2 -1.200000000000 91.354500000000 2.674043502609 21.392348020873
4377 2 -1.200000000000 88.627500000000 5.882895705740 19.253113218786
4378 2 -1.200000000000 91.354500000000 5.882895705740 19.253113218786
4379 2 -1.200000000000 88.627500000000 5.348087005218 21.927156721395
4380 2 -1.200000000000 91.354500000000 5.348087005218 21.927156721395
4381 1 2.400000000000 92.718000000000 2.139234802087 17.113878416698
4382 1 2.400000000000 95.445000000000 1.604426101565 19.787921919308
4383 1 2.400000000000 95.445000000000 4.813278304696 17.648687117220
4384 1 2.400000000000 92.718000000000 4.278469604175 20.322730619829
4385 2 -1.200000000000 94.081500000000 3.208852203131 18.718304518264
4386 2 -1.200000000000 96.808500000000 3.208852203131 18.718304518264
4387 2 -1.200000000000 94.081500000000 2.674043502609 21.392348020873
4388 2 -1.200000000000 96.808500000000 2.674043502609 21.392348020873
4389 2 -1.200000000000 94.081500000000 5.882895705740 19.253113218786
4390 2 -1.200000000000 96.808500000000 5.882895705740 19.253113218786
4391 2 -1.200000000000 94.081500000000 5.348087005218 21.927156721395
4392 2 -1.200000000000 96.808500000000 5.348087005218 21.927156721395
4393 1 2.400000000000 98.172000000000 2.139234802087 17.113878416698
4394 1 2.400000000000 100.899000000000 1.604426101565 19.787921919308
4395 1 2.400000000000 100.899000000000 4.813278304696 17.648687117220
4396 1 2.400000000000 98.172000000000 4.278469604175 20.322730619829
4397 2 -1.200000000000 99.535500000000 3.208852203131 18.718304518264
4398 2 -1.200000000000 102.262500000000 3.208852203131 18.718304518264
4399 2 -1.200000000000 99.535500000000 2.674043502609 21.392348020873
4400 2 -1.200000000000 102.262500000000 2.674043502609 21.392348020873
4401 2 -1.200000000000 99.535500000000 5.882895705740 19.253113218786
4402 2 -1.200000000000 102.262500000000 5.882895705740 19.253113218786
4403 2 -1.200000000000 99.535500000000 5.348087005218 21.927156721395
4404 2 -1.200000000000 102.262500000000 5.348087005218 21.927156721395
4405 1 2.400000000000 103.626000000000 2.139234802087 17.113878416698
4406 1 2.400000000000 106.353000000000 1.604426101565 19.787921919308
4407 1 2.400000000000 106.353000000000 4.813278304696 17.648687117220
4408 1 2.400000000000 103.626000000000 4.278469604175 20.322730619829
4409 2 -1.200000000000 104.989500000000 3.208852203131 18.718304518264
4410 2 -1.200000000000 107.716500000000 3.208852203131 18.718304518264
4411 2 -1.200000000000 104.989500000000 2.674043502609 21.392348020873
4412 2 -1.200000000000 107.716500000000 2.674043502609 21.392348020873
4413 2 -1.200000000000 104.989500000000 5.882895705740 19.253113218786
4414 2 -1.200000000000 107.716500000000 5.882895705740 19.253113218786
4415 2 -1.200000000000 104.989500000000 5.348087005218 21.927156721395
4416 2 -1.200000000000 107.716500000000 5.348087005218 21.927156721395
4417 1 2.400000000000 109.080000000000 2.139234802087 17.113878416698
4418 1 2.400000000000 111.807000000000 1.604426101565 19.787921919308
4419 1 2.400000000000 111.807000000000 4.813278304696 17.648687117220
4420 1 2.400000000000 109.080000000000 4.278469604175 20.322730619829
4421 2 -1.200000000000 110.443500000000 3.208852203131 18.718304518264
4422 2 -1.200000000000 113.170500000000 3.208852203131 18.718304518264
4423 2 -1.200000000000 110.443500000000 2.674043502609 21.392348020873
4424 2 -1.200000000000 113.170500000000 2.674043502609 21.392348020873
4425 2 -1.200000000000 110.443500000000 5.882895705740 19.253113218786
4426 2 -1.200000000000 113.170500000000 5.882895705740 19.253113218786
4427 2 -1.200000000000 110.443500000000 5.348087005218 21.927156721395
4428 2 -1.200000000000 113.170500000000 5.348087005218 21.927156721395
4429 1 2.400000000000 114.534000000000 2.139234802087 17.113878416698
4430 1 2.400000000000 117.261000000000 1.604426101565 19.787921919308
4431 1 2.400000000000 117.261000000000 4.813278304696 17.648687117220
4432 1 2.400000000000 114.534000000000 4.278469604175 20.322730619829
4433 2 -1.200000000000 115.897500000000 3.208852203131 18.718304518264
4434 2 -1.200000000000 118.624500000000 3.208852203131 18.718304518264
4435 2 -1.200000000000 115.897500000000 2.674043502609 21.392348020873
4436 2 -1.200000000000 118.624500000000 2.674043502609 21.392348020873
4437 2 -1.200000000000 115.897500000000 5.882895705740 19.253113218786
4438 2 -1.200000000000 118.624500000000 5.882895705740 19.253113218786
4439 2 -1.200000000000 115.897500000000 5.348087005218 21.927156721395
4440 2 -1.200000000000 118.624500000000 5.348087005218 21.927156721395
4441 1 2.400000000000 119.988000000000 2.139234802087 17.113878416698
4442 1 2.400000000000 122.715000000000 1.604426101565 19.787921919308
4443 1 2.400000000000 122.715000000000 4.813278304696 17.648687117220
4444 1 2.400000000000 119.988000000000 4.278469604175 20.322730619829
4445 2 -1.200000000000 121.351500000000 3.208852203131 18.718304518264
4446 2 -1.200000000000 124.078500000000 3.208852203131 18.718304518264
4447 2 -1.200000000000 121.351500000000 2.674043502609 21.392348020873
4448 2 -1.200000000000 124.078500000000 2.674043502609 21.392348020873
4449 2 -1.200000000000 121.351500000000 5.882895705740 19.253113218786
4450 2 -1.200000000000 124.078500000000 5.882895705740 19.253113218786
4451 2 -1.200000000000 121.351500000000 5.348087005218 21.927156721395
4452 2 -1.200000000000 124.078500000000 5.348087005218 21.927156721395
4453 1 2.400000000000 125.442000000000 2.139234802087 17.113878416698
4454 1 2.400000000000 128.169000000000 1.604426101565 19.787921919308
4455 1 2.400000000000 128.169000000000 4.813278304696 17.648687117220
4456 1 2.400000000000 125.442000000000 4.278469604175 20.322730619829
4457 2 -1.200000000000 126.805500000000 3.208852203131 18.718304518264
4458 2 -1.200000000000 129.532500000000 3.208852203131 18.718304518264
4459 2 -1.200000000000 126.805500000000 2.674043502609 21.392348020873
4460 2 -1.200000000000 129.532500000000 2.674043502609 21.392348020873
4461 2 -1.200000000000 126.805500000000 5.882895705740 19.253113218786
4462 2 -1.200000000000 129.532500000000 5.882895705740 19.253113218786
4463 2 -1.200000000000 126.805500000000 5.348087005218 21.927156721395
4464 2 -1.200000000000 129.532500000000 5.348087005218 21.927156721395
4465 1 2.400000000000 65.448000000000 1.069617401044 22.461965421917
4466 1 2.400000000000 68.175000000000 0.534808700522 25.136008924526
4467 1 2.400000000000 68.175000000000 3.743660903653 22.996774122439
4468 1 2.400000000000 65.448000000000 3.208852203131 25.670817625048
4469 2 -1.200000000000 66.811500000000 2.139234802087 24.066391523482
4470 2 -1.200000000000 69.538500000000 2.139234802087 24.066391523482
4471 2 -1.200000000000 66.811500000000 1.604426101565 26.740435026091
4472 2 -1.200000000000 69.538500000000 1.604426101565 26.740435026091
4473 2 -1.200000000000 66.811500000000 4.813278304696 24.601200224004
4474 2 -1.200000000000 69.538500000000 4.813278304696 24.601200224004
4475 2 -1.200000000000 66.811500000000 4.278469604175 27.275243726613
4476 2 -1.200000000000 69.538500000000 4.278469604175 27.275243726613
4477 1 2.400000000000 70.902000000000 1.069617401044 22.461965421917
4478 1 2.400000000000 73.629000000000 0.534808700522 25.136008924526
4479 1 2.400000000000 73.629000000000 3.743660903653 22.996774122439
4480 1 2.400000000000 70.902000000000 3.208852203131 25.670817625048
4481 2 -1.200000000000 72.265500000000 2.139234802087 24.066391523482
4482 2 -1.200000000000 74.992500000000 2.139234802087 24.066391523482
4483 2 -1.200000000000 72.265500000000 1.604426101565 26.740435026091
4484 2 -1.200000000000 74.992500000000 1.604426101565 26.740435026091
4485 2 -1.200000000000 72.265500000000 4.813278304696 24.601200224004
4486 2 -1.200000000000 74.992500000000 4.813278304696 24.601200224004
4487 2 -1.200000000000 72.265500000000 4.278469604175 27.275243726613
4488 2 -1.200000000000 74.992500000000 4.278469604175 27.275243726613
4489 1 2.400000000000 76.356000000000 1.069617401044 22.461965421917
4490 1 2.400000000000 79.083000000000 0.534808700522 25.136008924526
4491 1 2.400000000000 79.083000000000 3.743660903653 22.996774122439
4492 1 2.400000000000 76.356000000000 3.208852203131 25.670817625048
4493 2 -1.200000000000 77.719500000000 2.139234802087 24.066391523482
4494 2 -1.200000000000 80.446500000000 2.139234802087 24.066391523482
4495 2 -1.200000000000 77.719500000000 1.604426101565 26.740435026091
4496 2 -1.200000000000 80.446500000000 1.604426101565 26.740435026091
4497 2 -1.200000000000 77.719500000000 4.813278304696 24.601200224004
4498 2 -1.200000000000 80.446500000000 4.813278304696 24.601200224004
4499 2 -1.200000000000 77.719500000000 4.278469604175 27.275243726613
4500 2 -1.200000000000 80.446500000000 4.278469604175 27.275243726613
4501 1 2.400000000000 81.810000000000 1.069617401044 22.461965421917
4502 1 2.400000000000 84.537000000000 0.534808700522 25.136008924526
4503 1 2.400000000000 84.537000000000 3.743660903653 22.996774122439
4504 1 2.400000000000 81.810000000000 3.208852203131 25.670817625048
4505 2 -1.200000000000 83.173500000000 2.139234802087 24.066391523482
4506 2 -1.200000000000 85.900500000000 2.139234802087 24.066391523482
4507 2 -1.200000000000 83.173500000000 1.604426101565 26.740435026091
4508 2 -1.200000000000 85.900500000000 1.604426101565 26.740435026091
4509 2 -1.200000000000 83.173500000000 4.813278304696 24.601200224004
4510 2 -1.200000000000 85.900500000000 4.813278304696 24.601200224004
4511 2 -1.200000000000 83.173500000000 4.278469604175 27.275243726613
4512 2 -1.200000000000 85.900500000000 4.278469604175 27.275243726613
4513 1 2.400000000000 87.264000000000 1.069617401044 22.461965421917
4514 1 2.400000000000 89.991000000000 0.534808700522 25.136008924526
4515 1 2.400000000000 89.991000000000 3.743660903653 22.996774122439
4516 1 2.400000000000 87.264000000000 3.208852203131 25.670817625048
4517 2 -1.200000000000 88.627500000000 2.139234802087 24.066391523482
4518 2 -1.200000000000 91.354500000000 2.139234802087 24.066391523482
4519 2 -1.200000000000 88.627500000000 1.604426101565 26.740435026091
4520 2 -1.200000000000 91.354500000000 1.604426101565 26.740435026091
4521 2 -1.200000000000 88.627500000000 4.813278304696 24.601200224004
4522 2 -1.200000000000 91.354500000000 4.813278304696 24.601200224004
4523 2 -1.200000000000 88.627500000000 4.278469604175 27.275243726613
4524 2 -1.200000000000 91.354500000000 4.278469604175 27.275243726613
4525 1 2.400000000000 92.718000000000 1.069617401044 22.461965421917
4526 1 2.400000000000 95.445000000000 0.534808700522 25.136008924526
4527 1 2.400000000000 95.445000000000 3.743660903653 22.996774122439
4528 1 2.400000000000 92.718000000000 3.208852203131 25.670817625048
4529 2 -1.200000000000 94.081500000000 2.139234802087 24.066391523482
4530 2 -1.200000000000 96.808500000000 2.139234802087 24.066391523482
4531 2 -1.200000000000 94.081500000000 1.604426101565 26.740435026091
4532 2 -1.200000000000 96.808500000000 1.604426101565 26.740435026091
4533 2 -1.200000000000 94.081500000000 4.813278304696 24.601200224004
4534 2 -1.200000000000 96.808500000000 4.813278304696 24.601200224004
4535 2 -1.200000000000 94.081500000000 4.278469604175 27.275243726613
4536 2 -1.200000000000 96.808500000000 4.278469604175 27.275243726613
4537 1 2.400000000000 98.172000000000 1.069617401044 22.461965421917
4538 1 2.400000000000 100.899000000000 0.534808700522 25.136008924526
4539 1 2.400000000000 100.899000000000 3.743660903653 22.996774122439
4540 1 2.400000000000 98.172000000000 3.208852203131 25.670817625048
4541 2 -1.200000000000 99.535500000000 2.139234802087 24.066391523482
4542 2 -1.200000000000 102.262500000000 2.139234802087 24.066391523482
4543 2 -1.200000000000 99.535500000000 1.604426101565 26.740435026091
4544 2 -1.200000000000 102.262500000000 1.604426101565 26.740435026091
4545 2 -1.200000000000 99.535500000000 4.813278304696 24.601200224004
4546 2 -1.200000000000 102.262500000000 4.813278304696 24.601200224004
4547 2 -1.200000000000 99.535500000000 4.278469604175 27.275243726613
4548 2 -1.200000000000 102.262500000000 4.278469604175 27.275243726613
4549 1 2.400000000000 103.626000000000 1.069617401044 22.461965421917
4550 1 2.400000000000 106.353000000000 0.534808700522 25.136008924526
4551 1 2.400000000000 106.353000000000 3.743660903653 22.996774122439
4552 1 2.400000000000 103.626000000000 3.208852203131 25.670817625048
4553 2 -1.200000000000 104.989500000000 2.139234802087 24.066391523482
4554 2 -1.200000000000 107.716500000000 2.139234802087 24.066391523482
4555 2 -1.200000000000 104.989500000000 1.604426101565 26.740435026091
4556 2 -1.200000000000 107.716500000000 1.604426101565 26.740435026091
4557 2 -1.200000000000 104.989500000000 4.813278304696 24.601200224004
4558 2 -1.200000000000 107.716500000000 4.813278304696 24.601200224004
4559 2 -1.200000000000 104.989500000000 4.278469604175 27.275243726613
4560 2 -1.200000000000 107.716500000000 4.278469604175 27.275243726613
4561 1 2.400000000000 109.080000000000 1.069617401044 22.461965421917
4562 1 2.400000000000 111.807000000000 0.534808700522 25.136008924526
4563 1 2.400000000000 111.807000000000 3.743660903653 22.996774122439
4564 1 2.400000000000 109.080000000000 3.208852203131 25.670817625048
4565 2 -1.200000000000 110.443500000000 2.139234802087 24.066391523482
4566 2 -1.200000000000 113.170500000000 2.139234802087 24.066391523482
4567 2 -1.200000000000 110.443500000000 1.604426101565 26.740435026091
4568 2 -1.200000000000 113.170500000000 1.604426101565 26.740435026091
4569 2 -1.200000000000 110.443500000000 4.813278304696 24.601200224004
4570 2 -1.200000000000 113.170500000000 4.813278304696 24.601200224004
4571 2 -1.200000000000 110.443500000000 4.278469604175 27.275243726613
4572 2 -1.200000000000 113.170500000000 4.278469604175 27.275243726613
4573 1 2.400000000000 114.534000000000 1.069617401044 22.461965421917
4574 1 2.400000000000 117.261000000000 0.534808700522 25.136008924526
4575 1 2.400000000000 117.261000000000 3.743660903653 22.996774122439
4576 1 2.400000000000 114.534000000000 3.208852203131 25.670817625048
4577 2 -1.200000000000 115.897500000000 2.139234802087 24.066391523482
4578 2 -1.200000000000 118.624500000000 2.139234802087 24.066391523482
4579 2 -1.200000000000 115.897500000000 1.604426101565 26.740435026091
4580 2 -1.200000000000 118.624500000000 1.604426101565 26.740435026091
4581 2 -1.200000000000 115.897500000000 4.813278304696 24.601200224004
4582 2 -1.200000000000 118.624500000000 4.813278304696 24.601200224004
4583 2 -1.200000000000 115.897500000000 4.278469604175 27.275243726613
4584 2 -1.200000000000 118.624500000000 4.278469604175 27.275243726613
4585 1 2.400000000000 119.988000000000 1.069617401044 22.461965421917
4586 1 2.400000000000 122.715000000000 0.534808700522 25.136008924526
4587 1 2.400000000000 122.715000000000 3.743660903653 22.996774122439
4588 1 2.400000000000 119.988000000000 3.208852203131 25.670817625048
4589 2 -1.200000000000 121.351500000000 2.139234802087 24.066391523482
4590 2 -1.200000000000 124.078500000000 2.139234802087 24.066391523482
4591 2 -1.200000000000 121.351500000000 1.604426101565 26.740435026091
4592 2 -1.200000000000 124.078500000000 1.604426101565 26.740435026091
4593 2 -1.200000000000 121.351500000000 4.813278304696 24.601200224004
4594 2 -1.200000000000 124.078500000000 4.813278304696 24.601200224004
4595 2 -1.200000000000 121.351500000000 4.278469604175 27.275243726613
4596 2 -1.200000000000 124.078500000000 4.278469604175 27.275243726613
4597 1 2.400000000000 125.442000000000 1.069617401044 22.461965421917
4598 1 2.400000000000 128.169000000000 0.534808700522 25.136008924526
4599 1 2.400000000000 128.169000000000 3.743660903653 22.996774122439
4600 1 2.400000000000 125.442000000000 3.208852203131 25.670817625048
4601 2 -1.200000000000 126.805500000000 2.139234802087 24.066391523482
4602 2 -1.200000000000 129.532500000000 2.139234802087 24.066391523482
4603 2 -1.200000000000 126.805500000000 1.604426101565 26.740435026091
4604 2 -1.200000000000 129.532500000000 1.604426101565 26.740435026091
4605 2 -1.200000000000 126.805500000000 4.813278304696 24.601200224004
4606 2 -1.200000000000 129.532500000000 4.813278304696 24.601200224004
4607 2 -1.200000000000 126.805500000000 4.278469604175 27.275243726613
4608 2 -1.200000000000 129.532500000000 4.278469604175 27.275243726613
4609 1 2.400000000000 65.448000000000 10.696174010437 2.139234802087
4610 1 2.400000000000 68.175000000000 10.161365309915 4.813278304696
4611 1 2.400000000000 68.175000000000 13.370217513046 2.674043502609
4612 1 2.400000000000 65.448000000000 12.835408812524 5.348087005218
4613 2 -1.200000000000 66.811500000000 11.765791411480 3.743660903653
4614 2 -1.200000000000 69.538500000000 11.765791411480 3.743660903653
4615 2 -1.200000000000 66.811500000000 11.230982710958 6.417704406262
4616 2 -1.200000000000 69.538500000000 11.230982710958 6.417704406262
4617 2 -1.200000000000 66.811500000000 14.439834914089 4.278469604175
4618 2 -1.200000000000 69.538500000000 14.439834914089 4.278469604175
4619 2 -1.200000000000 66.811500000000 13.905026213568 6.952513106784
4620 2 -1.200000000000 69.538500000000 13.905026213568 6.952513106784
4621 1 2.400000000000 70.902000000000 10.696174010437 2.139234802087
4622 1 2.400000000000 73.629000000000 10.161365309915 4.813278304696
4623 1 2.400000000000 73.629000000000 13.370217513046 2.674043502609
4624 1 2.400000000000 70.902000000000 12.835408812524 5.348087005218
4625 2 -1.200000000000 72.265500000000 11.765791411480 3.743660903653
4626 2 -1.200000000000 74.992500000000 11.765791411480 3.743660903653
4627 2 -1.200000000000 72.265500000000 11.230982710958 6.417704406262
4628 2 -1.200000000000 74.992500000000 11.230982710958 6.417704406262
4629 2 -1.200000000000 72.265500000000 14.439834914089 4.278469604175
4630 2 -1.200000000000 74.992500000000 14.439834914089 4.278469604175
4631 2 -1.200000000000 72.265500000000 13.905026213568 6.952513106784
4632 2 -1.200000000000 74.992500000000 13.905026213568 6.952513106784
4633 1 2.400000000000 76.356000000000 10.696174010437 2.139234802087
4634 1 2.400000000000 79.083000000000 10.161365309915 4.813278304696
4635 1 2.400000000000 79.083000000000 13.370217513046 2.674043502609
4636 1 2.400000000000 76.356000000000 12.835408812524 5.348087005218
4637 2 -1.200000000000 77.719500000000 11.765791411480 3.743660903653
4638 2 -1.200000000000 80.446500000000 11.765791411480 3.743660903653
4639 2 -1.200000000000 77.719500000000 11.230982710958 6.417704406262
4640 2 -1.200000000000 80.446500000000 11.230982710958 6.417704406262
4641 2 -1.200000000000 77.719500000000 14.439834914089 4.278469604175
4642 2 -1.200000000000 80.446500000000 14.439834914089 4.278469604175
4643 2 -1.200000000000 77.719500000000 13.905026213568 6.952513106784
4644 2 -1.200000000000 80.446500000000 13.905026213568 6.952513106784
4645 1 2.400000000000 81.810000000000 10.696174010437 2.139234802087
4646 1 2.400000000000 84.537000000000 10.161365309915 4.813278304696
4647 1 2.400000000000 84.537000000000 13.370217513046 2.674043502609
4648 1 2.400000000000 81.810000000000 12.835408812524 5.348087005218
4649 2 -1.200000000000 83.173500000000 11.765791411480 3.743660903653
4650 2 -1.200000000000 85.900500000000 11.765791411480 3.743660903653
4651 2 -1.200000000000 83.173500000000 11.230982710958 6.417704406262
4652 2 -1.200000000000 85.900500000000 11.230982710958 6.417704406262
4653 2 -1.200000000000 83.173500000000 14.439834914089 4.278469604175
4654 2 -1.200000000000 85.900500000000 14.439834914089 4.278469604175
4655 2 -1.200000000000 83.173500000000 13.905026213568 6.952513106784
4656 2 -1.200000000000 85.900500000000 13.905026213568 6.952513106784
4657 1 2.400000000000 87.264000000000 10.696174010437 2.139234802087
4658 1 2.400000000000 89.991000000000 10.161365309915 4.813278304696
4659 1 2.400000000000 89.991000000000 13.370217513046 2.674043502609
4660 1 2.400000000000 87.264000000000 12.835408812524 5.348087005218
4661 2 -1.200000000000 88.627500000000 11.765791411480 3.743660903653
4662 2 -1.200000000000 91.354500000000 11.765791411480 3.743660903653
4663 2 -1.200000000000 88.627500000000 11.230982710958 6.417704406262
4664 2 -1.200000000000 91.354500000000 11.230982710958 6.417704406262
4665 2 -1.200000000000 88.627500000000 14.439834914089 4.278469604175
4666 2 -1.200000000000 91.354500000000 14.439834914089 4.278469604175
4667 2 -1.200000000000 88.627500000000 13.905026213568 6.952513106784
4668 2 -1.200000000000 91.354500000000 13.905026213568 6.952513106784
4669 1 2.400000000000 92.718000000000 10.696174010437 2.139234802087
4670 1 2.400000000000 95.445000000000 10.161365309915 4.813278304696
4671 1 2.400000000000 95.445000000000 13.370217513046 2.674043502609
4672 1 2.400000000000 92.718000000000 12.835408812524 5.348087005218
4673 2 -1.200000000000 94.081500000000 11.765791411480 3.743660903653
4674 2 -1.200000000000 96.808500000000 11.765791411480 3.743660903653
4675 2 -1.200000000000 94.081500000000 11.230982710958 6.417704406262
4676 2 -1.200000000000 96.808500000000 11.230982710958 6.417704406262
4677 2 -1.200000000000 94.081500000000 14.439834914089 4.278469604175
4678 2 -1.200000000000 96.808500000000 14.439834914089 4.278469604175
4679 2 -1.200000000000 94.081500000000 13.905026213568 6.952513106784
4680 2 -1.200000000000 96.808500000000 13.905026213568 6.952513106784
4681 1 2.400000000000 98.172000000000 10.696174010437 2.139234802087
4682 1 2.400000000000 100.899000000000 10.161365309915 4.813278304696
4683 1 2.400000000000 100.899000000000 13.370217513046 2.674043502609
4684 1 2.400000000000 98.172000000000 12.835408812524 5.348087005218
4685 2 -1.200000000000 99.535500000000 11.765791411480 3.743660903653
4686 2 -1.200000000000 102.262500000000 11.765791411480 3.743660903653
4687 2 -1.200000000000 99.535500000000 11.230982710958 6.417704406262
4688 2 -1.200000000000 102.262500000000 11.230982710958 6.417704406262
4689 2 -1.200000000000 99.535500000000 14.439834914089 4.278469604175
4690 2 -1.200000000000 102.262500000000 14.439834914089 4.278469604175
4691 2 -1.200000000000 99.535500000000 13.905026213568 6.952513106784
4692 2 -1.200000000000 102.262500000000 13.905026213568 6.952513106784
4693 1 2.400000000000 103.626000000000 10.696174010437 2.139234802087
4694 1 2.400000000000 106.353000000000 10.161365309915 4.813278304696
4695 1 2.400000000000 106.353000000000 13.370217513046 2.674043502609
4696 1 2.400000000000 103.626000000000 12.835408812524 5.348087005218
4697 2 -1.200000000000 104.989500000000 11.765791411480 3.743660903653
4698 2 -1.200000000000 107.716500000000 11.765791411480 3.743660903653
4699 2 -1.200000000000 104.989500000000 11.230982710958 6.417704406262
4700 2 -1.200000000000 107.716500000000 11.230982710958 6.417704406262
4701 2 -1.200000000000 104.989500000000 14.439834914089 4.278469604175
4702 2 -1.200000000000 107.716500000000 14.439834914089 4.278469604175
4703 2 -1.200000000000 104.989500000000 13.905026213568 6.952513106784
4704 2 -1.200000000000 107.716500000000 13.905026213568 6.952513106784
4705 1 2.400000000000 109.080000000000 10.696174010437 2.139234802087
4706 1 2.400000000000 111.807000000000 10.161365309915 4.813278304696
4707 1 2.400000000000 111.807000000000 13.370217513046 2.674043502609
4708 1 2.400000000000 109.080000000000 12.835408812524 5.348087005218
4709 2 -1.200000000000 110.443500000000 11.765791411480 3.743660903653
4710 2 -1.200000000000 113.170500000000 11.765791411480 3.743660903653
4711 2 -1.200000000000 110.443500000000 11.230982710958 6.417704406262
4712 2 -1.200000000000 113.170500000000 11.230982710958 6.417704406262
4713 2 -1.200000000000 110.443500000000 14.439834914089 4.278469604175
4714 2 -1.200000000000 113.170500000000 14.439834914089 4.278469604175
4715 2 -1.200000000000 110.443500000000 13.905026213568 6.952513106784
4716 2 -1.200000000000 113.170500000000 13.905026213568 6.952513106784
4717 1 2.400000000000 114.534000000000 10.696174010437 2.139234802087
4718 1 2.400000000000 117.261000000000 10.161365309915 4.813278304696
4719 1 2.400000000000 117.261000000000 13.370217513046 2.674043502609
4720 1 2.400000000000 114.534000000000 12.835408812524 5.348087005218
4721 2 -1.200000000000 115.897500000000 11.765791411480 3.743660903653
4722 2 -1.200000000000 118.624500000000 11.765791411480 3.743660903653
4723 2 -1.200000000000 115.897500000000 11.230982710958 6.417704406262
4724 2 -1.200000000000 118.624500000000 11.230982710958 6.417704406262
4725 2 -1.200000000000 115.897500000000 14.439834914089 4.278469604175
4726 2 -1.200000000000 118.624500000000 14.439834914089 4.278469604175
4727 2 -1.200000000000 115.897500000000 13.905026213568 6.952513106784
4728 2 -1.200000000000 118.624500000000 13.905026213568 6.952513106784
4729 1 2.400000000000 119.988000000000 10.696174010437 2.139234802087
4730 1 2.400000000000 122.715000000000 10.161365309915 4.813278304696
4731 1 2.400000000000 122.715000000000 13.370217513046 2.674043502609
4732 1 2.400000000000 119.988000000000 12.835408812524 5.348087005218
4733 2 -1.200000000000 121.351500000000 11.765791411480 3.743660903653
4734 2 -1.200000000000 124.078500000000 11.765791411480 3.743660903653
4735 2 -1.200000000000 121.351500000000 11.230982710958 6.417704406262
4736 2 -1.200000000000 124.078500000000 11.230982710958 6.417704406262
4737 2 -1.200000000000 121.351500000000 14.439834914089 4.278469604175
4738 2 -1.200000000000 124.078500000000 14.439834914089 4.278469604175
4739 2 -1.200000000000 121.351500000000 13.905026213568 6.952513106784
4740 2 -1.200000000000 124.078500000000 13.905026213568 6.952513106784
4741 1 2.400000000000 125.442000000000 10.696174010437 2.139234802087
4742 1 2.400000000000 128.169000000000 10.161365309915 4.813278304696
4743 1 2.400000000000 128.169000000000 13.370217513046 2.674043502609
4744 1 2.400000000000 125.442000000000 12.835408812524 5.348087005218
4745 2 -1.200000000000 126.805500000000 11.765791411480 3.743660903653
4746 2 -1.200000000000 129.532500000000 11.765791411480 3.743660903653
4747 2 -1.200000000000 126.805500000000 11.230982710958 6.417704406262
4748 2 -1.200000000000 129.532500000000 11.230982710958 6.417704406262
4749 2 -1.200000000000 126.805500000000 14.439834914089 4.278469604175
4750 2 -1.200000000000 129.532500000000 14.439834914089 4.278469604175
4751 2 -1.200000000000 126.805500000000 13.905026213568 6.952513106784
4752 2 -1.200000000000 129.532500000000 13.905026213568 6.952513106784
4753 1 2.400000000000 65.448000000000 9.626556609393 7.487321807306
4754 1 2.400000000000 68.175000000000 9.091747908871 10.161365309915
4755 1 2.400000000000 68.175000000000 12.300600112002 8.022130507827
4756 1 2.400000000000 65.448000000000 11.765791411480 10.696174010437
4757 2 -1.200000000000 66.811500000000 10.696174010437 9.091747908871
4758 2 -1.200000000000 69.538500000000 10.696174010437 9.091747908871
4759 2 -1.200000000000 66.811500000000 10.161365309915 11.765791411480
4760 2 -1.200000000000 69.538500000000 10.161365309915 11.765791411480
4761 2 -1.200000000000 66.811500000000 13.370217513046 9.626556609393
4762 2 -1.200000000000 69.538500000000 13.370217513046 9.626556609393
4763 2 -1.200000000000 66.811500000000 12.835408812524 12.300600112002
4764 2 -1.200000000000 69.538500000000 12.835408812524 12.300600112002
4765 1 2.400000000000 70.902000000000 9.626556609393 7.487321807306
4766 1 2.400000000000 73.629000000000 9.091747908871 10.161365309915
4767 1 2.400000000000 73.629000000000 12.300600112002 8.022130507827
4768 1 2.400000000000 70.902000000000 11.765791411480 10.696174010437
4769 2 -1.200000000000 72.265500000000 10.696174010437 9.091747908871
4770 2 -1.200000000000 74.992500000000 10.696174010437 9.091747908871
4771 2 -1.200000000000 72.265500000000 10.161365309915 11.765791411480
4772 2 -1.200000000000 74.992500000000 10.161365309915 11.765791411480
4773 2 -1.200000000000 72.265500000000 13.370217513046 9.626556609393
4774 2 -1.200000000000 74.992500000000 13.370217513046 9.626556609393
4775 2 -1.200000000000 72.265500000000 12.835408812524 12.300600112002
4776 2 -1.200000000000 74.992500000000 12.835408812524 12.300600112002
4777 1 2.400000000000 76.356000000000 9.626556609393 7.487321807306
4778 1 2.400000000000 79.083000000000 9.091747908871 10.161365309915
4779 1 2.400000000000 79.083000000000 12.300600112002 8.022130507827
4780 1 2.400000000000 76.356000000000 11.765791411480 10.696174010437
4781 2 -1.200000000000 77.719500000000 10.696174010437 9.091747908871
4782 2 -1.200000000000 80.446500000000 10.696174010437 9.091747908871
4783 2 -1.200000000000 77.719500000000 10.161365309915 11.765791411480
4784 2 -1.200000000000 80.446500000000 10.161365309915 11.765791411480
4785 2 -1.200000000000 77.719500000000 13.370217513046 9.626556609393
4786 2 -1.200000000000 80.446500000000 13.370217513046 9.626556609393
4787 2 -1.200000000000 77.719500000000 12.835408812524 12.300600112002
4788 2 -1.200000000000 80.446500000000 12.835408812524 12.300600112002
4789 1 2.400000000000 81.810000000000 9.626556609393 7.487321807306
4790 1 2.400000000000 84.537000000000 9.091747908871 10.161365309915
4791 1 2.400000000000 84.537000000000 12.300600112002 8.022130507827
4792 1 2.400000000000 81.810000000000 11.765791411480 10.696174010437
4793 2 -1.200000000000 83.173500000000 10.696174010437 9.091747908871
4794 2 -1.200000000000 85.900500000000 10.696174010437 9.091747908871
4795 2 -1.200000000000 83.173500000000 10.161365309915 11.765791411480
4796 2 -1.200000000000 85.900500000000 10.161365309915 11.765791411480
4797 2 -1.200000000000 83.173500000000 13.370217513046 9.626556609393
4798 2 -1.200000000000 85.900500000000 13.370217513046 9.626556609393
4799 2 -1.200000000000 83.173500000000 12.835408812524 12.300600112002
4800 2 -1.200000000000 85.900500000000 12.835408812524 12.300600112002
4801 1 2.400000000000 87.264000000000 9.626556609393 7.487321807306
4802 1 2.400000000000 89.991000000000 9.091747908871 10.161365309915
4803 1 2.400000000000 89.991000000000 12.300600112002 8.022130507827
4804 1 2.400000000000 87.264000000000 11.765791411480 10.696174010437
4805 2 -1.200000000000 88.627500000000 10.696174010437 9.091747908871
4806 2 -1.200000000000 91.354500000000 10.696174010437 9.091747908871
4807 2 -1.200000000000 88.627500000000 10.161365309915 11.765791411480
4808 2 -1.200000000000 91.354500000000 10.161365309915 11.765791411480
4809 2 -1.200000000000 88.627500000000 13.370217513046 9.626556609393
4810 2 -1.200000000000 91.354500000000 13.370217513046 9.626556609393
4811 2 -1.200000000000 88.627500000000 12.835408812524 12.300600112002
4812 2 -1.200000000000 91.354500000000 12.835408812524 12.300600112002
4813 1 2.400000000000 92.718000000000 9.626556609393 7.487321807306
4814 1 2.400000000000 95.445000000000 9.091747908871 10.161365309915
4815 1 2.400000000000 95.445000000000 12.300600112002 8.022130507827
4816 1 2.400000000000 92.718000000000 11.765791411480 10.696174010437
4817 2 -1.200000000000 94.081500000000 10.696174010437 9.091747908871
4818 2 -1.200000000000 96.808500000000 10.696174010437 9.091747908871
4819 2 -1.200000000000 94.081500000000 10.161365309915 11.765791411480
4820 2 -1.200000000000 96.808500000000 10.161365309915 11.765791411480
4821 2 -1.200000000000 94.081500000000 13.370217513046 9.626556609393
4822 2 -1.200000000000 96.808500000000 13.370217513046 9.626556609393
4823 2 -1.200000000000 94.081500000000 12.835408812524 12.300600112002
4824 2 -1.200000000000 96.808500000000 12.835408812524 12.300600112002
4825 1 2.400000000000 98.172000000000 9.626556609393 7.487321807306
4826 1 2.400000000000 100.899000000000 9.091747908871 10.161365309915
4827 1 2.400000000000 100.899000000000 12.300600112002 8.022130507827
4828 1 2.400000000000 98.172000000000 11.765791411480 10.696174010437
4829 2 -1.200000000000 99.535500000000 10.696174010437 9.091747908871
4830 2 -1.200000000000 102.262500000000 10.696174010437 9.091747908871
4831 2 -1.200000000000 99.535500000000 10.161365309915 11.765791411480
4832 2 -1.200000000000 102.262500000000 10.161365309915 11.765791411480
4833 2 -1.200000000000 99.535500000000 13.370217513046 9.626556609393
4834 2 -1.200000000000 102.262500000000 13.370217513046 9.626556609393
4835 2 -1.200000000000 99.535500000000 12.835408812524 12.300600112002
4836 2 -1.200000000000 102.262500000000 12.835408812524 12.300600112002
4837 1 2.400000000000 103.626000000000 9.626556609393 7.487321807306
4838 1 2.400000000000 106.353000000000 9.091747908871 10.161365309915
4839 1 2.400000000000 106.353000000000 12.300600112002 8.022130507827
4840 1 2.400000000000 103.626000000000 11.765791411480 10.696174010437
4841 2 -1.200000000000 104.989500000000 10.696174010437 9.091747908871
4842 2 -1.200000000000 107.716500000000 10.696174010437 9.091747908871
4843 2 -1.200000000000 104.989500000000 10.161365309915 11.765791411480
4844 2 -1.200000000000 107.716500000000 10.161365309915 11.765791411480
4845 2 -1.200000000000 104.989500000000 13.370217513046 9.626556609393
4846 2 -1.200000000000 107.716500000000 13.370217513046 9.626556609393
4847 2 -1.200000000000 104.989500000000 12.835408812524 12.300600112002
4848 2 -1.200000000000 107.716500000000 12.835408812524 12.300600112002
4849 1 2.400000000000 109.080000000000 9.626556609393 7.487321807306
4850 1 2.400000000000 111.807000000000 9.091747908871 10.161365309915
4851 1 2.400000000000 111.807000000000 12.300600112002 8.022130507827
4852 1 2.400000000000 109.080000000000 11.765791411480 10.696174010437
4853 2 -1.200000000000 110.443500000000 10.696174010437 9.091747908871
4854 2 -1.200000000000 113.170500000000 10.696174010437 9.091747908871
4855 2 -1.200000000000 110.443500000000 10.161365309915 11.765791411480
4856 2 -1.200000000000 113.170500000000 10.161365309915 11.765791411480
4857 2 -1.200000000000 110.443500000000 13.370217513046 9.626556609393
4858 2 -1.200000000000 113.170500000000 13.370217513046 9.626556609393
4859 2 -1.200000000000 110.443500000000 12.835408812524 12.300600112002
4860 2 -1.200000000000 113.170500000000 12.835408812524 12.300600112002
4861 1 2.400000000000 114.534000000000 9.626556609393 7.487321807306
4862 1 2.400000000000 117.261000000000 9.091747908871 10.161365309915
4863 1 2.400000000000 117.261000000000 12.300600112002 8.022130507827
4864 1 2.400000000000 114.534000000000 11.765791411480 10.696174010437
4865 2 -1.200000000000 115.897500000000 10.696174010437 9.091747908871
4866 2 -1.200000000000 118.624500000000 10.696174010437 9.091747908871
4867 2 -1.200000000000 115.897500000000 10.161365309915 11.765791411480
4868 2 -1.200000000000 118.624500000000 10.161365309915 11.765791411480
4869 2 -1.200000000000 115.897500000000 13.370217513046 9.626556609393
4870 2 -1.200000000000 118.624500000000 13.370217513046 9.626556609393
4871 2 -1.200000000000 115.897500000000 12.835408812524 12.300600112002
4872 2 -1.200000000000 118.624500000000 12.835408812524 12.300600112002
4873 1 2.400000000000 119.988000000000 9.626556609393 7.487321807306
4874 1 2.400000000000 122.715000000000 9.091747908871 10.161365309915
4875 1 2.400000000000 122.715000000000 12.300600112002 8.022130507827
4876 1 2.400000000000 119.988000000000 11.765791411480 10.696174010437
4877 2 -1.200000000000 121.351500000000 10.696174010437 9.091747908871
4878 2 -1.200000000000 124.078500000000 10.696174010437 9.091747908871
4879 2 -1.200000000000 121.351500000000 10.161365309915 11.765791411480
4880 2 -1.200000000000 124.078500000000 10.161365309915 11.765791411480
4881 2 -1.200000000000 121.351500000000 13.370217513046 9.626556609393
4882 2 -1.200000000000 124.078500000000 13.370217513046 9.626556609393
4883 2 -1.200000000000 121.351500000000 12.835408812524 12.300600112002
4884 2 -1.200000000000 124.078500000000 12.835408812524 12.300600112002
4885 1 2.400000000000 125.442000000000 9.626556609393 7.487321807306
4886 1 2.400000000000 128.169000000000 9.091747908871 10.161365309915
4887 1 2.400000000000 128.169000000000 12.300600112002 8.022130507827
4888 1 2.400000000000 125.442000000000 11.765791411480 10.696174010437
4889 2 -1.200000000000 126.805500000000 10.696174010437 9.091747908871
4890 2 -1.200000000000 129.532500000000 10.696174010437 9.091747908871
4891 2 -1.200000000000 126.805500000000 10.161365309915 11.765791411480
4892 2 -1.200000000000 129.532500000000 10.161365309915 11.765791411480
4893 2 -1.200000000000 126.805500000000 13.370217513046 9.626556609393
4894 2 -1.200000000000 129.532500000000 13.370217513046 9.626556609393
4895 2 -1.200000000000 126.805500000000 12.835408812524 12.300600112002
4896 2 -1.200000000000 129.532500000000 12.835408812524 12.300600112002
4897 1 2.400000000000 65.448000000000 8.556939208349 12.835408812524
4898 1 2.400000000000 68.175000000000 8.022130507827 15.509452315133
4899 1 2.400000000000 68.175000000000 11.230982710958 13.370217513046
4900 1 2.400000000000 65.448000000000 10.696174010437 16.044261015655
4901 2 -1.200000000000 66.811500000000 9.626556609393 14.439834914089
4902 2 -1.200000000000 69.538500000000 9.626556609393 14.439834914089
4903 2 -1.200000000000 66.811500000000 9.091747908871 17.113878416698
4904 2 -1.200000000000 69.538500000000 9.091747908871 17.113878416698
4905 2 -1.200000000000 66.811500000000 12.300600112002 14.974643614611
4906 2 -1.200000000000 69.538500000000 12.300600112002 14.974643614611
4907 2 -1.200000000000 66.811500000000 11.765791411480 17.648687117220
4908 2 -1.200000000000 69.538500000000 11.765791411480 17.648687117220
4909 1 2.400000000000 70.902000000000 8.556939208349 12.835408812524
4910 1 2.400000000000 73.629000000000 8.022130507827 15.509452315133
4911 1 2.400000000000 73.629000000000 11.230982710958 13.370217513046
4912 1 2.400000000000 70.902000000000 10.696174010437 16.044261015655
4913 2 -1.200000000000 72.265500000000 9.626556609393 14.439834914089
4914 2 -1.200000000000 74.992500000000 9.626556609393 14.439834914089
4915 2 -1.200000000000 72.265500000000 9.091747908871 17.113878416698
4916 2 -1.200000000000 74.992500000000 9.091747908871 17.113878416698
4917 2 -1.200000000000 72.265500000000 12.300600112002 14.974643614611
4918 2 -1.200000000000 74.992500000000 12.300600112002 14.974643614611
4919 2 -1.200000000000 72.265500000000 11.765791411480 17.648687117220
4920 2 -1.200000000000 74.992500000000 11.765791411480 17.648687117220
4921 1 2.400000000000 76.356000000000 8.556939208349 12.835408812524
4922 1 2.400000000000 79.083000000000 8.022130507827 15.509452315133
4923 1 2.400000000000 79.083000000000 11.230982710958 13.370217513046
4924 1 2.400000000000 76.356000000000 10.696174010437 16.044261015655
4925 2 -1.200000000000 77.719500000000 9.626556609393 14.439834914089
4926 2 -1.200000000000 80.446500000000 9.626556609393 14.439834914089
4927 2 -1.200000000000 77.719500000000 9.091747908871 17.113878416698
4928 2 -1.200000000000 80.446500000000 9.091747908871 17.113878416698
4929 2 -1.200000000000 77.719500000000 12.300600112002 14.974643614611
4930 2 -1.200000000000 80.446500000000 12.300600112002 14.974643614611
4931 2 -1.200000000000 77.719500000000 11.765791411480 17.648687117220
4932 2 -1.200000000000 80.446500000000 11.765791411480 17.648687117220
4933 1 2.400000000000 81.810000000000 8.556939208349 12.835408812524
4934 1 2.400000000000 84.537000000000 8.022130507827 15.509452315133
4935 1 2.400000000000 84.537000000000 11.230982710958 13.370217513046
4936 1 2.400000000000 81.810000000000 10.696174010437 16.044261015655
4937 2 -1.200000000000 83.173500000000 9.626556609393 14.439834914089
4938 2 -1.200000000000 85.900500000000 9.626556609393 14.439834914089
4939 2 -1.200000000000 83.173500000000 9.091747908871 17.113878416698
4940 2 -1.200000000000 85.900500000000 9.091747908871 17.113878416698
4941 2 -1.200000000000 83.173500000000 12.300600112002 14.974643614611
4942 2 -1.200000000000 85.900500000000 12.300600112002 14.974643614611
4943 2 -1.200000000000 83.173500000000 11.765791411480 17.648687117220
4944 2 -1.200000000000 85.900500000000 11.765791411480 17.648687117220
4945 1 2.400000000000 87.264000000000 8.556939208349 12.835408812524
4946 1 2.400000000000 89.991000000000 8.022130507827 15.509452315133
4947 1 2.400000000000 89.991000000000 11.230982710958 13.370217513046
4948 1 2.400000000000 87.264000000000 10.696174010437 16.044261015655
4949 2 -1.200000000000 88.627500000000 9.626556609393 14.439834914089
4950 2 -1.200000000000 91.354500000000 9.626556609393 14.439834914089
4951 2 -1.200000000000 88.627500000000 9.091747908871 17.113878416698
4952 2 -1.200000000000 91.354500000000 9.091747908871 17.113878416698
4953 2 -1.200000000000 88.627500000000 12.300600112002 14.974643614611
4954 2 -1.200000000000 91.354500000000 12.300600112002 14.974643614611
4955 2 -1.200000000000 88.627500000000 11.765791411480 17.648687117220
4956 2 -1.200000000000 91.354500000000 11.765791411480 17.648687117220
4957 1 2.400000000000 92.718000000000 8.556939208349 12.835408812524
4958 1 2.400000000000 95.445000000000 8.022130507827 15.509452315133
4959 1 2.400000000000 95.445000000000 11.230982710958 13.370217513046
4960 1 2.400000000000 92.718000000000 10.696174010437 16.044261015655
4961 2 -1.200000000000 94.081500000000 9.626556609393 14.439834914089
4962 2 -1.200000000000 96.808500000000 9.626556609393 14.439834914089
4963 2 -1.200000000000 94.081500000000 9.091747908871 17.113878416698
4964 2 -1.200000000000 96.808500000000 9.091747908871 17.113878416698
4965 2 -1.200000000000 94.081500000000 12.300600112002 14.974643614611
4966 2 -1.200000000000 96.808500000000 12.300600112002 14.974643614611
4967 2 -1.200000000000 94.081500000000 11.765791411480 17.648687117220
4968 2 -1.200000000000 96.808500000000 11.765791411480 17.648687117220
4969 1 2.400000000000 98.172000000000 8.556939208349 12.835408812524
4970 1 2.400000000000 100.899000000000 8.022130507827 15.509452315133
4971 1 2.400000000000 100.899000000000 11.230982710958 13.370217513046
4972 1 2.400000000000 98.172000000000 10.696174010437 16.044261015655
4973 2 -1.200000000000 99.535500000000 9.626556609393 14.439834914089
4974 2 -1.200000000000 102.262500000000 9.626556609393 14.439834914089
4975 2 -1.200000000000 99.535500000000 9.091747908871 17.113878416698
4976 2 -1.200000000000 102.262500000000 9.091747908871 17.113878416698
4977 2 -1.200000000000 99.535500000000 12.300600112002 14.974643614611
4978 2 -1.200000000000 102.262500000000 12.300600112002 14.974643614611
4979 2 -1.200000000000 99.535500000000 11.765791411480 17.648687117220
4980 2 -1.200000000000 102.262500000000 11.765791411480 17.648687117220
4981 1 2.400000000000 103.626000000000 8.556939208349 12.835408812524
4982 1 2.400000000000 106.353000000000 8.022130507827 15.509452315133
4983 1 2.400000000000 106.353000000000 11.230982710958 13.370217513046
4984 1 2.400000000000 103.626000000000 10.696174010437 16.044261015655
4985 2 -1.200000000000 104.989500000000 9.626556609393 14.439834914089
4986 2 -1.200000000000 107.716500000000 9.626556609393 14.439834914089
4987 2 -1.200000000000 104.989500000000 9.091747908871 17.113878416698
4988 2 -1.200000000000 107.716500000000 9.091747908871 17.113878416698
4989 2 -1.200000000000 104.989500000000 12.300600112002 14.974643614611
4990 2 -1.200000000000 107.716500000000 12.300600112002 14.974643614611
4991 2 -1.200000000000 104.989500000000 11.765791411480 17.648687117220
4992 2 -1.200000000000 107.716500000000 11.765791411480 17.648687117220
4993 1 2.400000000000 109.080000000000 8.556939208349 12.835408812524
4994 1 2.400000000000 111.807000000000 8.022130507827 15.509452315133
4995 1 2.400000000000 111.807000000000 11.230982710958 13.370217513046
4996 1 2.400000000000 109.080000000000 10.696174010437 16.044261015655
4997 2 -1.200000000000 110.443500000000 9.626556609393 14.439834914089
4998 2 -1.200000000000 113.170500000000 9.626556609393 14.439834914089
4999 2 -1.200000000000 110.443500000000 9.091747908871 17.113878416698
5000 2 -1.200000000000 113.170500000000 9.091747908871 17.113878416698
5001 2 -1.200000000000 110.443500000000 12.300600112002 14.974643614611
5002 2 -1.200000000000 113.170500000000 12.300600112002 14.974643614611
5003 2 -1.200000000000 110.443500000000 11.765791411480 17.648687117220
5004 2 -1.200000000000 113.170500000000 11.765791411480 17.648687117220
5005 1 2.400000000000 114.534000000000 8.556939208349 12.835408812524
5006 1 2.400000000000 117.261000000000 8.022130507827 15.509452315133
5007 1 2.400000000000 117.261000000000 11.230982710958 13.370217513046
5008 1 2.400000000000 114.534000000000 10.696174010437 16.044261015655
5009 2 -1.200000000000 115.897500000000 9.626556609393 14.439834914089
5010 2 -1.200000000000 118.624500000000 9.626556609393 14.439834914089
5011 2 -1.200000000000 115.897500000000 9.091747908871 17.113878416698
5012 2 -1.200000000000 118.624500000000 9.091747908871 17.113878416698
5013 2 -1.200000000000 115.897500000000 12.300600112002 14.974643614611
5014 2 -1.200000000000 118.624500000000 12.300600112002 14.974643614611
5015 2 -1.200000000000 115.897500000000 11.765791411480 17.648687117220
5016 2 -1.200000000000 118.624500000000 11.765791411480 17.648687117220
5017 1 2.400000000000 119.988000000000 8.556939208349 12.835408812524
5018 1 2.400000000000 122.715000000000 8.022130507827 15.509452315133
5019 1 2.400000000000 122.715000000000 11.230982710958 13.370217513046
5020 1 2.400000000000 119.988000000000 10.696174010437 16.044261015655
5021 2 -1.200000000000 121.351500000000 9.626556609393 14.439834914089
5022 2 -1.200000000000 124.078500000000 9.626556609393 14.439834914089
5023 2 -1.200000000000 121.351500000000 9.091747908871 17.113878416698
5024 2 -1.200000000000 124.078500000000 9.091747908871 17.113878416698
5025 2 -1.200000000000 121.351500000000 12.300600112002 14.974643614611
5026 2 -1.200000000000 124.078500000000 12.300600112002 14.974643614611
5027 2 -1.200000000000 121.351500000000 11.765791411480 17.648687117220
5028 2 -1.200000000000 124.078500000000 11.765791411480 17.648687117220
5029 1 2.400000000000 125.442000000000 8.556939208349 12.835408812524
5030 1 2.400000000000 128.169000000000 8.022130507827 15.509452315133
5031 1 2.400000000000 128.169000000000 11.230982710958 13.370217513046
5032 1 2.400000000000 125.442000000000 10.696174010437 16.044261015655
5033 2 -1.200000000000 126.805500000000 9.626556609393 14.439834914089
5034 2 -1.200000000000 129.532500000000 9.626556609393 14.439834914089
5035 2 -1.200000000000 126.805500000000 9.091747908871 17.113878416698
5036 2 -1.200000000000 129.532500000000 9.091747908871 17.113878416698
5037 2 -1.200000000000 126.805500000000 12.300600112002 14.974643614611
5038 2 -1.200000000000 129.532500000000 12.300600112002 14.974643614611
5039 2 -1.200000000000 126.805500000000 11.765791411480 17.648687117220
5040 2 -1.200000000000 129.532500000000 11.765791411480 17.648687117220
5041 1 2.400000000000 65.448000000000 7.487321807306 18.183495817742
5042 1 2.400000000000 68.175000000000 6.952513106784 20.857539320351
5043 1 2.400000000000 68.175000000000 10.161365309915 18.718304518264
5044 1 2.400000000000 65.448000000000 9.626556609393 21.392348020873
5045 2 -1.200000000000 66.811500000000 8.556939208349 19.787921919308
5046 2 -1.200000000000 69.538500000000 8.556939208349 19.787921919308
5047 2 -1.200000000000 66.811500000000 8.022130507827 22.461965421917
5048 2 -1.200000000000 69.538500000000 8.022130507827 22.461965421917
5049 2 -1.200000000000 66.811500000000 11.230982710958 20.322730619829
5050 2 -1.200000000000 69.538500000000 11.230982710958 20.322730619829
5051 2 -1.200000000000 66.811500000000 10.696174010437 22.996774122439
5052 2 -1.200000000000 69.538500000000 10.696174010437 22.996774122439
5053 1 2.400000000000 70.902000000000 7.487321807306 18.183495817742
5054 1 2.400000000000 73.629000000000 6.952513106784 20.857539320351
5055 1 2.400000000000 73.629000000000 10.161365309915 18.718304518264
5056 1 2.400000000000 70.902000000000 9.626556609393 21.392348020873
5057 2 -1.200000000000 72.265500000000 8.556939208349 19.787921919308
5058 2 -1.200000000000 74.992500000000 8.556939208349 19.787921919308
5059 2 -1.200000000000 72.265500000000 8.022130507827 22.461965421917
5060 2 -1.200000000000 74.992500000000 8.022130507827 22.461965421917
5061 2 -1.200000000000 72.265500000000 11.230982710958 20.322730619829
5062 2 -1.200000000000 74.992500000000 11.230982710958 20.322730619829
5063 2 -1.200000000000 72.265500000000 10.696174010437 22.996774122439
5064 2 -1.200000000000 74.992500000000 10.696174010437 22.996774122439
5065 1 2.400000000000 76.356000000000 7.487321807306 18.183495817742
5066 1 2.400000000000 79.083000000000 6.952513106784 20.857539320351
5067 1 2.400000000000 79.083000000000 10.161365309915 18.718304518264
5068 1 2.400000000000 76.356000000000 9.626556609393 21.392348020873
5069 2 -1.200000000000 77.719500000000 8.556939208349 19.787921919308
5070 2 -1.200000000000 80.446500000000 8.556939208349 19.787921919308
5071 2 -1.200000000000 77.719500000000 8.022130507827 22.461965421917
5072 2 -1.200000000000 80.446500000000 8.022130507827 22.461965421917
5073 2 -1.200000000000 77.719500000000 11.230982710958 20.322730619829
5074 2 -1.200000000000 80.446500000000 11.230982710958 20.322730619829
5075 2 -1.200000000000 77.719500000000 10.696174010437 22.996774122439
5076 2 -1.200000000000 80.446500000000 10.696174010437 22.996774122439
5077 1 2.400000000000 81.810000000000 7.487321807306 18.183495817742
5078 1 2.400000000000 84.537000000000 6.952513106784 20.857539320351
5079 1 2.400000000000 84.537000000000 10.161365309915 18.718304518264
5080 1 2.400000000000 81.810000000000 9.626556609393 21.392348020873
5081 2 -1.200000000000 83.173500000000 8.556939208349 19.787921919308
5082 2 -1.200000000000 85.900500000000 8.556939208349 19.787921919308
5083 2 -1.200000000000 83.173500000000 8.022130507827 22.461965421917
5084 2 -1.200000000000 85.900500000000 8.022130507827 22.461965421917
5085 2 -1.200000000000 83.173500000000 11.230982710958 20.322730619829
5086 2 -1.200000000000 85.900500000000 11.230982710958 20.322730619829
5087 2 -1.200000000000 83.173500000000 10.696174010437 22.996774122439
5088 2 -1.200000000000 85.900500000000 10.696174010437 22.996774122439
5089 1 2.400000000000 87.264000000000 7.487321807306 18.183495817742
5090 1 2.400000000000 89.991000000000 6.952513106784 20.857539320351
5091 1 2.400000000000 89.991000000000 10.161365309915 18.718304518264
5092 1 2.400000000000 87.264000000000 9.626556609393 21.392348020873
5093 2 -1.200000000000 88.627500000000 8.556939208349 19.787921919308
5094 2 -1.200000000000 91.354500000000 8.556939208349 19.787921919308
5095 2 -1.200000000000 88.627500000000 8.022130507827 22.461965421917
5096 2 -1.200000000000 91.354500000000 8.022130507827 22.461965421917
5097 2 -1.200000000000 88.627500000000 11.230982710958 20.322730619829
5098 2 -1.200000000000 91.354500000000 11.230982710958 20.322730619829
5099 2 -1.200000000000 88.627500000000 10.696174010437 22.996774122439
5100 2 -1.200000000000 91.354500000000 10.696174010437 22.996774122439
5101 1 2.400000000000 92.718000000000 7.487321807306 18.183495817742
5102 1 2.400000000000 95.445000000000 6.952513106784 20.857539320351
5103 1 2.400000000000 95.445000000000 10.161365309915 18.718304518264
5104 1 2.400000000000 92.718000000000 9.626556609393 21.392348020873
5105 2 -1.200000000000 94.081500000000 8.556939208349 19.787921919308
5106 2 -1.200000000000 96.808500000000 8.556939208349 19.787921919308
5107 2 -1.200000000000 94.081500000000 8.022130507827 22.461965421917
5108 2 -1.200000000000 96.808500000000 8.022130507827 22.461965421917
5109 2 -1.200000000000 94.081500000000 11.230982710958 20.322730619829
5110 2 -1.200000000000 96.808500000000 11.230982710958 20.322730619829
5111 2 -1.200000000000 94.081500000000 10.696174010437 22.996774122439
5112 2 -1.200000000000 96.808500000000 10.696174010437 22.996774122439
5113 1 2.400000000000 98.172000000000 7.487321807306 18.183495817742
5114 1 2.400000000000 100.899000000000 6.952513106784 20.857539320351
5115 1 2.400000000000 100.899000000000 10.161365309915 18.718304518264
5116 1 2.400000000000 98.172000000000 9.626556609393 21.392348020873
5117 2 -1.200000000000 99.535500000000 8.556939208349 19.787921919308
5118 2 -1.200000000000 102.262500000000 8.556939208349 19.787921919308
5119 2 -1.200000000000 99.535500000000 8.022130507827 22.461965421917
5120 2 -1.200000000000 102.262500000000 8.022130507827 22.461965421917
5121 2 -1.200000000000 99.535500000000 11.230982710958 20.322730619829
5122 2 -1.200000000000 102.262500000000 11.230982710958 20.322730619829
5123 2 -1.200000000000 99.535500000000 10.696174010437 22.996774122439
5124 2 -1.200000000000 102.262500000000 10.696174010437 22.996774122439
5125 1 2.400000000000 103.626000000000 7.487321807306 18.183495817742
5126 1 2.400000000000 106.353000000000 6.952513106784 20.857539320351
5127 1 2.400000000000 106.353000000000 10.161365309915 18.718304518264
5128 1 2.400000000000 103.626000000000 9.626556609393 21.392348020873
5129 2 -1.200000000000 104.989500000000 8.556939208349 19.787921919308
5130 2 -1.200000000000 107.716500000000 8.556939208349 19.787921919308
5131 2 -1.200000000000 104.989500000000 8.022130507827 22.461965421917
5132 2 -1.200000000000 107.716500000000 8.022130507827 22.461965421917
5133 2 -1.200000000000 104.989500000000 11.230982710958 20.322730619829
5134 2 -1.200000000000 107.716500000000 11.230982710958 20.322730619829
5135 2 -1.200000000000 104.989500000000 10.696174010437 22.996774122439
5136 2 -1.200000000000 107.716500000000 10.696174010437 22.996774122439
5137 1 2.400000000000 109.080000000000 7.487321807306 18.183495817742
5138 1 2.400000000000 111.807000000000 6.952513106784 20.857539320351
5139 1 2.400000000000 111.807000000000 10.161365309915 18.718304518264
5140 1 2.400000000000 109.080000000000 9.626556609393 21.392348020873
5141 2 -1.200000000000 110.443500000000 8.556939208349 19.787921919308
5142 2 -1.200000000000 113.170500000000 8.556939208349 19.787921919308
5143 2 -1.200000000000 110.443500000000 8.022130507827 22.461965421917
5144 2 -1.200000000000 113.170500000000 8.022130507827 22.461965421917
5145 2 -1.200000000000 110.443500000000 11.230982710958 20.322730619829
5146 2 -1.200000000000 113.170500000000 11.230982710958 20.322730619829
5147 2 -1.200000000000 110.443500000000 10.696174010437 22.996774122439
5148 2 -1.200000000000 113.170500000000 10.696174010437 22.996774122439
5149 1 2.400000000000 114.534000000000 7.487321807306 18.183495817742
5150 1 2.400000000000 117.261000000000 6.952513106784 20.857539320351
5151 1 2.400000000000 117.261000000000 10.161365309915 18.718304518264
5152 1 2.400000000000 114.534000000000 9.626556609393 21.392348020873
5153 2 -1.200000000000 115.897500000000 8.556939208349 19.787921919308
5154 2 -1.200000000000 118.624500000000 8.556939208349 19.787921919308
5155 2 -1.200000000000 115.897500000000 8.022130507827 22.461965421917
5156 2 -1.200000000000 118.624500000000 8.022130507827 22.461965421917
5157 2 -1.200000000000 115.897500000000 11.230982710958 20.322730619829
5158 2 -1.200000000000 118.624500000000 11.230982710958 20.322730619829
5159 2 -1.200000000000 115.897500000000 10.696174010437 22.996774122439
5160 2 -1.200000000000 118.624500000000 10.696174010437 22.996774122439
5161 1 2.400000000000 119.988000000000 7.487321807306 18.183495817742
5162 1 2.400000000000 122.715000000000 6.952513106784 20.857539320351
5163 1 2.400000000000 122.715000000000 10.161365309915 18.718304518264
5164 1 2.400000000000 119.988000000000 9.626556609393 21.392348020873
5165 2 -1.200000000000 121.351500000000 8.556939208349 19.787921919308
5166 2 -1.200000000000 124.078500000000 8.556939208349 19.787921919308
5167 2 -1.200000000000 121.351500000000 8.022130507827 22.461965421917
5168 2 -1.200000000000 124.078500000000 8.022130507827 22.461965421917
5169 2 -1.200000000000 121.351500000000 11.230982710958 20.322730619829
5170 2 -1.200000000000 124.078500000000 11.230982710958 20.322730619829
5171 2 -1.200000000000 121.351500000000 10.696174010437 22.996774122439
5172 2 -1.200000000000 124.078500000000 10.696174010437 22.996774122439
5173 1 2.400000000000 125.442000000000 7.487321807306 18.183495817742
5174 1 2.400000000000 128.169000000000 6.952513106784 20.857539320351
5175 1 2.400000000000 128.169000000000 10.161365309915 18.718304518264
5176 1 2.400000000000 125.442000000000 9.626556609393 21.392348020873
5177 2 -1.200000000000 126.805500000000 8.556939208349 19.787921919308
5178 2 -1.200000000000 129.532500000000 8.556939208349 19.787921919308
5179 2 -1.200000000000 126.805500000000 8.022130507827 22.461965421917
5180 2 -1.200000000000 129.532500000000 8.022130507827 22.461965421917
5181 2 -1.200000000000 126.805500000000 11.230982710958 20.322730619829
5182 2 -1.200000000000 129.532500000000 11.230982710958 20.322730619829
5183 2 -1.200000000000 126.805500000000 10.696174010437 22.996774122439
5184 2 -1.200000000000 129.532500000000 10.696174010437 22.996774122439
5185 1 2.400000000000 65.448000000000 6.417704406262 23.531582822960
5186 1 2.400000000000 68.175000000000 5.882895705740 26.205626325570
5187 1 2.400000000000 68.175000000000 9.091747908871 24.066391523482
5188 1 2.400000000000 65.448000000000 8.556939208349 26.740435026091
5189 2 -1.200000000000 66.811500000000 7.487321807306 25.136008924526
5190 2 -1.200000000000 69.538500000000 7.487321807306 25.136008924526
5191 2 -1.200000000000 66.811500000000 6.952513106784 0.000000000000
5192 2 -1.200000000000 69.538500000000 6.952513106784 0.000000000000
5193 2 -1.200000000000 66.811500000000 10.161365309915 25.670817625048
5194 2 -1.200000000000 69.538500000000 10.161365309915 25.670817625048
5195 2 -1.200000000000 66.811500000000 9.626556609393 0.534808700522
5196 2 -1.200000000000 69.538500000000 9.626556609393 0.534808700522
5197 1 2.400000000000 70.902000000000 6.417704406262 23.531582822960
5198 1 2.400000000000 73.629000000000 5.882895705740 26.205626325570
5199 1 2.400000000000 73.629000000000 9.091747908871 24.066391523482
5200 1 2.400000000000 70.902000000000 8.556939208349 26.740435026091
5201 2 -1.200000000000 72.265500000000 7.487321807306 25.136008924526
5202 2 -1.200000000000 74.992500000000 7.487321807306 25.136008924526
5203 2 -1.200000000000 72.265500000000 6.952513106784 0.000000000000
5204 2 -1.200000000000 74.992500000000 6.952513106784 0.000000000000
5205 2 -1.200000000000 72.265500000000 10.161365309915 25.670817625048
5206 2 -1.200000000000 74.992500000000 10.161365309915 25.670817625048
5207 2 -1.200000000000 72.265500000000 9.626556609393 0.534808700522
5208 2 -1.200000000000 74.992500000000 9.626556609393 0.534808700522
5209 1 2.400000000000 76.356000000000 6.417704406262 23.531582822960
5210 1 2.400000000000 79.083000000000 5.882895705740 26.205626325570
5211 1 2.400000000000 79.083000000000 9.091747908871 24.066391523482
5212 1 2.400000000000 76.356000000000 8.556939208349 26.740435026091
5213 2 -1.200000000000 77.719500000000 7.487321807306 25.136008924526
5214 2 -1.200000000000 80.446500000000 7.487321807306 25.136008924526
5215 2 -1.200000000000 77.719500000000 6.952513106784 0.000000000000
5216 2 -1.200000000000 80.446500000000 6.952513106784 0.000000000000
5217 2 -1.200000000000 77.719500000000 10.161365309915 25.670817625048
5218 2 -1.200000000000 80.446500000000 10.161365309915 25.670817625048
5219 2 -1.200000000000 77.719500000000 9.626556609393 0.534808700522
5220 2 -1.200000000000 80.446500000000 9.626556609393 0.534808700522
5221 1 2.400000000000 81.810000000000 6.417704406262 23.531582822960
5222 1 2.400000000000 84.537000000000 5.882895705740 26.205626325570
5223 1 2.400000000000 84.537000000000 9.091747908871 24.066391523482
5224 1 2.400000000000 81.810000000000 8.556939208349 26.740435026091
5225 2 -1.200000000000 83.173500000000 7.487321807306 25.136008924526
5226 2 -1.200000000000 85.900500000000 7.487321807306 25.136008924526
5227 2 -1.200000000000 83.173500000000 6.952513106784 0.000000000000
5228 2 -1.200000000000 85.900500000000 6.952513106784 0.000000000000
5229 2 -1.200000000000 83.173500000000 10.161365309915 25.670817625048
5230 2 -1.200000000000 85.900500000000 10.161365309915 25.670817625048
5231 2 -1.200000000000 83.173500000000 9.626556609393 0.534808700522
5232 2 -1.200000000000 85.900500000000 9.626556609393 0.534808700522
5233 1 2.400000000000 87.264000000000 6.417704406262 23.531582822960
5234 1 2.400000000000 89.991000000000 5.882895705740 26.205626325570
5235 1 2.400000000000 89.991000000000 9.091747908871 24.066391523482
5236 1 2.400000000000 87.264000000000 8.556939208349 26.740435026091
5237 2 -1.200000000000 88.627500000000 7.487321807306 25.136008924526
5238 2 -1.200000000000 91.354500000000 7.487321807306 25.136008924526
5239 2 -1.200000000000 88.627500000000 6.952513106784 0.000000000000
5240 2 -1.200000000000 91.354500000000 6.952513106784 0.000000000000
5241 2 -1.200000000000 88.627500000000 10.161365309915 25.670817625048
5242 2 -1.200000000000 91.354500000000 10.161365309915 25.670817625048
5243 2 -1.200000000000 88.627500000000 9.626556609393 0.534808700522
5244 2 -1.200000000000 91.354500000000 9.626556609393 0.534808700522
5245 1 2.400000000000 92.718000000000 6.417704406262 23.531582822960
5246 1 2.400000000000 95.445000000000 5.882895705740 26.205626325570
5247 1 2.400000000000 95.445000000000 9.091747908871 24.066391523482
5248 1 2.400000000000 92.718000000000 8.556939208349 26.740435026091
5249 2 -1.200000000000 94.081500000000 7.487321807306 25.136008924526
5250 2 -1.200000000000 96.808500000000 7.487321807306 25.136008924526
5251 2 -1.200000000000 94.081500000000 6.952513106784 0.000000000000
5252 2 -1.200000000000 96.808500000000 6.952513106784 0.000000000000
5253 2 -1.200000000000 94.081500000000 10.161365309915 25.670817625048
5254 2 -1.200000000000 96.808500000000 10.161365309915 25.670817625048
5255 2 -1.200000000000 94.081500000000 9.626556609393 0.534808700522
5256 2 -1.200000000000 96.808500000000 9.626556609393 0.534808700522
5257 1 2.400000000000 98.172000000000 6.417704406262 23.531582822960
5258 1 2.400000000000 100.899000000000 5.882895705740 26.205626325570
5259 1 2.400000000000 100.899000000000 9.091747908871 24.066391523482
5260 1 2.400000000000 98.172000000000 8.556939208349 26.740435026091
5261 2 -1.200000000000 99.535500000000 7.487321807306 25.136008924526
5262 2 -1.200000000000 102.262500000000 7.487321807306 25.136008924526
5263 2 -1.200000000000 99.535500000000 6.952513106784 0.000000000000
5264 2 -1.200000000000 102.262500000000 6.952513106784 0.000000000000
5265 2 -1.200000000000 99.535500000000 10.161365309915 25.670817625048
5266 2 -1.200000000000 102.262500000000 10.161365309915 25.670817625048
5267 2 -1.200000000000 99.535500000000 9.626556609393 0.534808700522
5268 2 -1.200000000000 102.262500000000 9.626556609393 0.534808700522
5269 1 2.400000000000 103.626000000000 6.417704406262 23.531582822960
5270 1 2.400000000000 106.353000000000 5.882895705740 26.205626325570
5271 1 2.400000000000 106.353000000000 9.091747908871 24.066391523482
5272 1 2.400000000000 103.626000000000 8.556939208349 26.740435026091
5273 2 -1.200000000000 104.989500000000 7.487321807306 25.136008924526
5274 2 -1.200000000000 107.716500000000 7.487321807306 25.136008924526
5275 2 -1.200000000000 104.989500000000 6.952513106784 0.000000000000
5276 2 -1.200000000000 107.716500000000 6.952513106784 0.000000000000
5277 2 -1.200000000000 104.989500000000 10.161365309915 25.670817625048
5278 2 -1.200000000000 107.716500000000 10.161365309915 25.670817625048
5279 2 -1.200000000000 104.989500000000 9.626556609393 0.534808700522
5280 2 -1.200000000000 107.716500000000 9.626556609393 0.534808700522
5281 1 2.400000000000 109.080000000000 6.417704406262 23.531582822960
5282 1 2.400000000000 111.807000000000 5.882895705740 26.205626325570
5283 1 2.400000000000 111.807000000000 9.091747908871 24.066391523482
5284 1 2.400000000000 109.080000000000 8.556939208349 26.740435026091
5285 2 -1.200000000000 110.443500000000 7.487321807306 25.136008924526
5286 2 -1.200000000000 113.170500000000 7.487321807306 25.136008924526
5287 2 -1.200000000000 110.443500000000 6.952513106784 0.000000000000
5288 2 -1.200000000000 113.170500000000 6.952513106784 0.000000000000
5289 2 -1.200000000000 110.443500000000 10.161365309915 25.670817625048
5290 2 -1.200000000000 113.170500000000 10.161365309915 25.670817625048
5291 2 -1.200000000000 110.443500000000 9.626556609393 0.534808700522
5292 2 -1.200000000000 113.170500000000 9.626556609393 0.534808700522
5293 1 2.400000000000 114.534000000000 6.417704406262 23.531582822960
5294 1 2.400000000000 117.261000000000 5.882895705740 26.205626325570
5295 1 2.400000000000 117.261000000000 9.091747908871 24.066391523482
5296 1 2.400000000000 114.534000000000 8.556939208349 26.740435026091
5297 2 -1.200000000000 115.897500000000 7.487321807306 25.136008924526
5298 2 -1.200000000000 118.624500000000 7.487321807306 25.136008924526
5299 2 -1.200000000000 115.897500000000 6.952513106784 0.000000000000
5300 2 -1.200000000000 118.624500000000 6.952513106784 0.000000000000
5301 2 -1.200000000000 115.897500000000 10.161365309915 25.670817625048
5302 2 -1.200000000000 118.624500000000 10.161365309915 25.670817625048
5303 2 -1.200000000000 115.897500000000 9.626556609393 0.534808700522
5304 2 -1.200000000000 118.624500000000 9.626556609393 0.534808700522
5305 1 2.400000000000 119.988000000000 6.417704406262 23.531582822960
5306 1 2.400000000000 122.715000000000 5.882895705740 26.205626325570
5307 1 2.400000000000 122.715000000000 9.091747908871 24.066391523482
5308 1 2.400000000000 119.988000000000 8.556939208349 26.740435026091
5309 2 -1.200000000000 121.351500000000 7.487321807306 25.136008924526
5310 2 -1.200000000000 124.078500000000 7.487321807306 25.136008924526
5311 2 -1.200000000000 121.351500000000 6.952513106784 0.000000000000
5312 2 -1.200000000000 124.078500000000 6.952513106784 0.000000000000
5313 2 -1.200000000000 121.351500000000 10.161365309915 25.670817625048
5314 2 -1.200000000000 124.078500000000 10.161365309915 25.670817625048
5315 2 -1.200000000000 121.351500000000 9.626556609393 0.534808700522
5316 2 -1.200000000000 124.078500000000 9.626556609393 0.534808700522
5317 1 2.400000000000 125.442000000000 6.417704406262 23.531582822960
5318 1 2.400000000000 128.169000000000 5.882895705740 26.205626325570
5319 1 2.400000000000 128.169000000000 9.091747908871 24.066391523482
5320 1 2.400000000000 125.442000000000 8.556939208349 26.740435026091
5321 2 -1.200000000000 126.805500000000 7.487321807306 25.136008924526
5322 2 -1.200000000000 129.532500000000 7.487321807306 25.136008924526
5323 2 -1.200000000000 126.805500000000 6.952513106784 0.000000000000
5324 2 -1.200000000000 129.532500000000 6.952513106784 0.000000000000
5325 2 -1.200000000000 126.805500000000 10.161365309915 25.670817625048
5326 2 -1.200000000000 129.532500000000 10.161365309915 25.670817625048
5327 2 -1.200000000000 126.805500000000 9.626556609393 0.534808700522
5328 2 -1.200000000000 129.532500000000 9.626556609393 0.534808700522
5329 1 2.400000000000 65.448000000000 16.044261015655 3.208852203131
5330 1 2.400000000000 68.175000000000 15.509452315133 5.882895705740
5331 1 2.400000000000 68.175000000000 18.718304518264 3.743660903653
5332 1 2.400000000000 65.448000000000 18.183495817742 6.417704406262
5333 2 -1.200000000000 66.811500000000 17.113878416698 4.813278304696
5334 2 -1.200000000000 69.538500000000 17.113878416698 4.813278304696
5335 2 -1.200000000000 66.811500000000 16.579069716177 7.487321807306
5336 2 -1.200000000000 69.538500000000 16.579069716177 7.487321807306
5337 2 -1.200000000000 66.811500000000 19.787921919308 5.348087005218
5338 2 -1.200000000000 69.538500000000 19.787921919308 5.348087005218
5339 2 -1.200000000000 66.811500000000 19.253113218786 8.022130507827
5340 2 -1.200000000000 69.538500000000 19.253113218786 8.022130507827
5341 1 2.400000000000 70.902000000000 16.044261015655 3.208852203131
5342 1 2.400000000000 73.629000000000 15.509452315133 5.882895705740
5343 1 2.400000000000 73.629000000000 18.718304518264 3.743660903653
5344 1 2.400000000000 70.902000000000 18.183495817742 6.417704406262
5345 2 -1.200000000000 72.265500000000 17.113878416698 4.813278304696
5346 2 -1.200000000000 74.992500000000 17.113878416698 4.813278304696
5347 2 -1.200000000000 72.265500000000 16.579069716177 7.487321807306
5348 2 -1.200000000000 74.992500000000 16.579069716177 7.487321807306
5349 2 -1.200000000000 72.265500000000 19.787921919308 5.348087005218
5350 2 -1.200000000000 74.992500000000 19.787921919308 5.348087005218
5351 2 -1.200000000000 72.265500000000 19.253113218786 8.022130507827
5352 2 -1.200000000000 74.992500000000 19.253113218786 8.022130507827
5353 1 2.400000000000 76.356000000000 16.044261015655 3.208852203131
5354 1 2.400000000000 79.083000000000 15.509452315133 5.882895705740
5355 1 2.400000000000 79.083000000000 18.718304518264 3.743660903653
5356 1 2.400000000000 76.356000000000 18.183495817742 6.417704406262
5357 2 -1.200000000000 77.719500000000 17.113878416698 4.813278304696
5358 2 -1.200000000000 80.446500000000 17.113878416698 4.813278304696
5359 2 -1.200000000000 77.719500000000 16.579069716177 7.487321807306
5360 2 -1.200000000000 80.446500000000 16.579069716177 7.487321807306
5361 2 -1.200000000000 77.719500000000 19.787921919308 5.348087005218
5362 2 -1.200000000000 80.446500000000 19.787921919308 5.348087005218
5363 2 -1.200000000000 77.719500000000 19.253113218786 8.022130507827
5364 2 -1.200000000000 80.446500000000 19.253113218786 8.022130507827
5365 1 2.400000000000 81.810000000000 16.044261015655 3.208852203131
5366 1 2.400000000000 84.537000000000 15.509452315133 5.882895705740
5367 1 2.400000000000 84.537000000000 18.718304518264 3.743660903653
5368 1 2.400000000000 81.810000000000 18.183495817742 6.417704406262
5369 2 -1.200000000000 83.173500000000 17.113878416698 4.813278304696
5370 2 -1.200000000000 85.900500000000 17.113878416698 4.813278304696
5371 2 -1.200000000000 83.173500000000 16.579069716177 7.487321807306
5372 2 -1.200000000000 85.900500000000 16.579069716177 7.487321807306
5373 2 -1.200000000000 83.173500000000 19.787921919308 5.348087005218
5374 2 -1.200000000000 85.900500000000 19.787921919308 5.348087005218
5375 2 -1.200000000000 83.173500000000 19.253113218786 8.022130507827
5376 2 -1.200000000000 85.900500000000 19.253113218786 8.022130507827
5377 1 2.400000000000 87.264000000000 16.044261015655 3.208852203131
5378 1 2.400000000000 89.991000000000 15.509452315133 5.882895705740
5379 1 2.400000000000 89.991000000000 18.718304518264 3.743660903653
5380 1 2.400000000000 87.264000000000 18.183495817742 6.417704406262
5381 2 -1.200000000000 88.627500000000 17.113878416698 4.813278304696
5382 2 -1.200000000000 91.354500000000 17.113878416698 4.813278304696
5383 2 -1.200000000000 88.627500000000 16.579069716177 7.487321807306
5384 2 -1.200000000000 91.354500000000 16.579069716177 7.487321807306
5385 2 -1.200000000000 88.627500000000 19.787921919308 5.348087005218
5386 2 -1.200000000000 91.354500000000 19.787921919308 5.348087005218
5387 2 -1.200000000000 88.627500000000 19.253113218786 8.022130507827
5388 2 -1.200000000000 91.354500000000 19.253113218786 8.022130507827
5389 1 2.400000000000 92.718000000000 16.044261015655 3.208852203131
5390 1 2.400000000000 95.445000000000 15.509452315133 5.882895705740
5391 1 2.400000000000 95.445000000000 18.718304518264 3.743660903653
5392 1 2.400000000000 92.718000000000 18.183495817742 6.417704406262
5393 2 -1.200000000000 94.081500000000 17.113878416698 4.813278304696
5394 2 -1.200000000000 96.808500000000 17.113878416698 4.813278304696
5395 2 -1.200000000000 94.081500000000 16.579069716177 7.487321807306
5396 2 -1.200000000000 96.808500000000 16.579069716177 7.487321807306
5397 2 -1.200000000000 94.081500000000 19.787921919308 5.348087005218
5398 2 -1.200000000000 96.808500000000 19.787921919308 5.348087005218
5399 2 -1.200000000000 94.081500000000 19.253113218786 8.022130507827
5400 2 -1.200000000000 96.808500000000 19.253113218786 8.022130507827
5401 1 2.400000000000 98.172000000000 16.044261015655 3.208852203131
5402 1 2.400000000000 100.899000000000 15.509452315133 5.882895705740
5403 1 2.400000000000 100.899000000000 18.718304518264 3.743660903653
5404 1 2.400000000000 98.172000000000 18.183495817742 6.417704406262
5405 2 -1.200000000000 99.535500000000 17.113878416698 4.813278304696
5406 2 -1.200000000000 102.262500000000 17.113878416698 4.813278304696
5407 2 -1.200000000000 99.535500000000 16.579069716177 7.487321807306
5408 2 -1.200000000000 102.262500000000 16.579069716177 7.487321807306
5409 2 -1.200000000000 99.535500000000 19.787921919308 5.348087005218
5410 2 -1.200000000000 102.262500000000 19.787921919308 5.348087005218
5411 2 -1.200000000000 99.535500000000 19.253113218786 8.022130507827
5412 2 -1.200000000000 102.262500000000 19.253113218786 8.022130507827
5413 1 2.400000000000 103.626000000000 16.044261015655 3.208852203131
5414 1 2.400000000000 106.353000000000 15.509452315133 5.882895705740
5415 1 2.400000000000 106.353000000000 18.718304518264 3.743660903653
5416 1 2.400000000000 103.626000000000 18.183495817742 6.417704406262
5417 2 -1.200000000000 104.989500000000 17.113878416698 4.813278304696
5418 2 -1.200000000000 107.716500000000 17.113878416698 4.813278304696
5419 2 -1.200000000000 104.989500000000 16.579069716177 7.487321807306
5420 2 -1.200000000000 107.716500000000 16.579069716177 7.487321807306
5421 2 -1.200000000000 104.989500000000 19.787921919308 5.348087005218
5422 2 -1.200000000000 107.716500000000 19.787921919308 5.348087005218
5423 2 -1.200000000000 104.989500000000 19.253113218786 8.022130507827
5424 2 -1.200000000000 107.716500000000 19.253113218786 8.022130507827
5425 1 2.400000000000 109.080000000000 16.044261015655 3.208852203131
5426 1 2.400000000000 111.807000000000 15.509452315133 5.882895705740
5427 1 2.400000000000 111.807000000000 18.718304518264 3.743660903653
5428 1 2.400000000000 109.080000000000 18.183495817742 6.417704406262
5429 2 -1.200000000000 110.443500000000 17.113878416698 4.813278304696
5430 2 -1.200000000000 113.170500000000 17.113878416698 4.813278304696
5431 2 -1.200000000000 110.443500000000 16.579069716177 7.487321807306
5432 2 -1.200000000000 113.170500000000 16.579069716177 7.487321807306
5433 2 -1.200000000000 110.443500000000 19.787921919308 5.348087005218
5434 2 -1.200000000000 113.170500000000 19.787921919308 5.348087005218
5435 2 -1.200000000000 110.443500000000 19.253113218786 8.022130507827
5436 2 -1.200000000000 113.170500000000 19.253113218786 8.022130507827
5437 1 2.400000000000 114.534000000000 16.044261015655 3.208852203131
5438 1 2.400000000000 117.261000000000 15.509452315133 5.882895705740
5439 1 2.400000000000 117.261000000000 18.718304518264 3.743660903653
5440 1 2.400000000000 114.534000000000 18.183495817742 6.417704406262
5441 2 -1.200000000000 115.897500000000 17.113878416698 4.813278304696
5442 2 -1.200000000000 118.624500000000 17.113878416698 4.813278304696
5443 2 -1.200000000000 115.897500000000 16.579069716177 7.487321807306
5444 2 -1.200000000000 118.624500000000 16.579069716177 7.487321807306
5445 2 -1.200000000000 115.897500000000 19.787921919308 5.348087005218
5446 2 -1.200000000000 118.624500000000 19.787921919308 5.348087005218
5447 2 -1.200000000000 115.897500000000 19.253113218786 8.022130507827
5448 2 -1.200000000000 118.624500000000 19.253113218786 8.022130507827
5449 1 2.400000000000 119.988000000000 16.044261015655 3.208852203131
5450 1 2.400000000000 122.715000000000 15.509452315133 5.882895705740
5451 1 2.400000000000 122.715000000000 18.718304518264 3.743660903653
5452 1 2.400000000000 119.988000000000 18.183495817742 6.417704406262
5453 2 -1.200000000000 121.351500000000 17.113878416698 4.813278304696
5454 2 -1.200000000000 124.078500000000 17.113878416698 4.813278304696
5455 2 -1.200000000000 121.351500000000 16.579069716177 7.487321807306
5456 2 -1.200000000000 124.078500000000 16.579069716177 7.487321807306
5457 2 -1.200000000000 121.351500000000 19.787921919308 5.348087005218
5458 2 -1.200000000000 124.078500000000 19.787921919308 5.348087005218
5459 2 -1.200000000000 121.351500000000 19.253113218786 8.022130507827
5460 2 -1.200000000000 124.078500000000 19.253113218786 8.022130507827
5461 1 2.400000000000 125.442000000000 16.044261015655 3.208852203131
5462 1 2.400000000000 128.169000000000 15.509452315133 5.882895705740
5463 1 2.400000000000 128.169000000000 18.718304518264 3.743660903653
5464 1 2.400000000000 125.442000000000 18.183495817742 6.417704406262
5465 2 -1.200000000000 126.805500000000 17.113878416698 4.813278304696
5466 2 -1.200000000000 129.532500000000 17.113878416698 4.813278304696
5467 2 -1.200000000000 126.805500000000 16.579069716177 7.487321807306
5468 2 -1.200000000000 129.532500000000 16.579069716177 7.487321807306
5469 2 -1.200000000000 126.805500000000 19.787921919308 5.348087005218
5470 2 -1.200000000000 129.532500000000 19.787921919308 5.348087005218
5471 2 -1.200000000000 126.805500000000 19.253113218786 8.022130507827
5472 2 -1.200000000000 129.532500000000 19.253113218786 8.022130507827
5473 1 2.400000000000 65.448000000000 14.974643614611 8.556939208349
5474 1 2.400000000000 68.175000000000 14.439834914089 11.230982710958
5475 1 2.400000000000 68.175000000000 17.648687117220 9.091747908871
5476 1 2.400000000000 65.448000000000 17.113878416698 11.765791411480
5477 2 -1.200000000000 66.811500000000 16.044261015655 10.161365309915
5478 2 -1.200000000000 69.538500000000 16.044261015655 10.161365309915
5479 2 -1.200000000000 66.811500000000 15.509452315133 12.835408812524
5480 2 -1.200000000000 69.538500000000 15.509452315133 12.835408812524
5481 2 -1.200000000000 66.811500000000 18.718304518264 10.696174010437
5482 2 -1.200000000000 69.538500000000 18.718304518264 10.696174010437
5483 2 -1.200000000000 66.811500000000 18.183495817742 13.370217513046
5484 2 -1.200000000000 69.538500000000 18.183495817742 13.370217513046
5485 1 2.400000000000 70.902000000000 14.974643614611 8.556939208349
5486 1 2.400000000000 73.629000000000 14.439834914089 11.230982710958
5487 1 2.400000000000 73.629000000000 17.648687117220 9.091747908871
5488 1 2.400000000000 70.902000000000 17.113878416698 11.765791411480
5489 2 -1.200000000000 72.265500000000 16.044261015655 10.161365309915
5490 2 -1.200000000000 74.992500000000 16.044261015655 10.161365309915
5491 2 -1.200000000000 72.265500000000 15.509452315133 12.835408812524
5492 2 -1.200000000000 74.992500000000 15.509452315133 12.835408812524
5493 2 -1.200000000000 72.265500000000 18.718304518264 10.696174010437
5494 2 -1.200000000000 74.992500000000 18.718304518264 10.696174010437
5495 2 -1.200000000000 72.265500000000 18.183495817742 13.370217513046
5496 2 -1.200000000000 74.992500000000 18.183495817742 13.370217513046
5497 1 2.400000000000 76.356000000000 14.974643614611 8.556939208349
5498 1 2.400000000000 79.083000000000 14.439834914089 11.230982710958
5499 1 2.400000000000 79.083000000000 17.648687117220 9.091747908871
5500 1 2.400000000000 76.356000000000 17.113878416698 11.765791411480
5501 2 -1.200000000000 77.719500000000 16.044261015655 10.161365309915
5502 2 -1.200000000000 80.446500000000 16.044261015655 10.161365309915
5503 2 -1.200000000000 77.719500000000 15.509452315133 12.835408812524
5504 2 -1.200000000000 80.446500000000 15.509452315133 12.835408812524
5505 2 -1.200000000000 77.719500000000 18.718304518264 10.696174010437
5506 2 -1.200000000000 80.446500000000 18.718304518264 10.696174010437
5507 2 -1.200000000000 77.719500000000 18.183495817742 13.370217513046
5508 2 -1.200000000000 80.446500000000 18.183495817742 13.370217513046
5509 1 2.400000000000 81.810000000000 14.974643614611 8.556939208349
5510 1 2.400000000000 84.537000000000 14.439834914089 11.230982710958
5511 1 2.400000000000 84.537000000000 17.648687117220 9.091747908871
5512 1 2.400000000000 81.810000000000 17.113878416698 11.765791411480
5513 2 -1.200000000000 83.173500000000 16.044261015655 10.161365309915
5514 2 -1.200000000000 85.900500000000 16.044261015655 10.161365309915
5515 2 -1.200000000000 83.173500000000 15.509452315133 12.835408812524
5516 2 -1.200000000000 85.900500000000 15.509452315133 12.835408812524
5517 2 -1.200000000000 83.173500000000 18.718304518264 10.696174010437
5518 2 -1.200000000000 85.900500000000 18.718304518264 10.696174010437
5519 2 -1.200000000000 83.173500000000 18.183495817742 13.370217513046
5520 2 -1.200000000000 85.900500000000 18.183495817742 13.370217513046
5521 1 2.400000000000 87.264000000000 14.974643614611 8.556939208349
5522 1 2.400000000000 89.991000000000 14.439834914089 11.230982710958
5523 1 2.400000000000 89.991000000000 17.648687117220 9.091747908871
5524 1 2.400000000000 87.264000000000 17.113878416698 11.765791411480
5525 2 -1.200000000000 88.627500000000 16.044261015655 10.161365309915
5526 2 -1.200000000000 91.354500000000 16.044261015655 10.161365309915
5527 2 -1.200000000000 88.627500000000 15.509452315133 12.835408812524
5528 2 -1.200000000000 91.354500000000 15.509452315133 12.835408812524
5529 2 -1.200000000000 88.627500000000 18.718304518264 10.696174010437
5530 2 -1.200000000000 91.354500000000 18.718304518264 10.696174010437
5531 2 -1.200000000000 88.627500000000 18.183495817742 13.370217513046
5532 2 -1.200000000000 91.354500000000 18.183495817742 13.370217513046
5533 1 2.400000000000 92.718000000000 14.974643614611 8.556939208349
5534 1 2.400000000000 95.445000000000 14.439834914089 11.230982710958
5535 1 2.400000000000 95.445000000000 17.648687117220 9.091747908871
5536 1 2.400000000000 92.718000000000 17.113878416698 11.765791411480
5537 2 -1.200000000000 94.081500000000 16.044261015655 10.161365309915
5538 2 -1.200000000000 96.808500000000 16.044261015655 10.161365309915
5539 2 -1.200000000000 94.081500000000 15.509452315133 12.835408812524
5540 2 -1.200000000000 96.808500000000 15.509452315133 12.835408812524
5541 2 -1.200000000000 94.081500000000 18.718304518264 10.696174010437
5542 2 -1.200000000000 96.808500000000 18.718304518264 10.696174010437
5543 2 -1.200000000000 94.081500000000 18.183495817742 13.370217513046
5544 2 -1.200000000000 96.808500000000 18.183495817742 13.370217513046
5545 1 2.400000000000 98.172000000000 14.974643614611 8.556939208349
5546 1 2.400000000000 100.899000000000 14.439834914089 11.230982710958
5547 1 2.400000000000 100.899000000000 17.648687117220 9.091747908871
5548 1 2.400000000000 98.172000000000 17.113878416698 11.765791411480
5549 2 -1.200000000000 99.535500000000 16.044261015655 10.161365309915
5550 2 -1.200000000000 102.262500000000 16.044261015655 10.161365309915
5551 2 -1.200000000000 99.535500000000 15.509452315133 12.835408812524
5552 2 -1.200000000000 102.262500000000 15.509452315133 12.835408812524
5553 2 -1.200000000000 99.535500000000 18.718304518264 10.696174010437
5554 2 -1.200000000000 102.262500000000 18.718304518264 10.696174010437
5555 2 -1.200000000000 99.535500000000 18.183495817742 13.370217513046
5556 2 -1.200000000000 102.262500000000 18.183495817742 13.370217513046
5557 1 2.400000000000 103.626000000000 14.974643614611 8.556939208349
5558 1 2.400000000000 106.353000000000 14.439834914089 11.230982710958
5559 1 2.400000000000 106.353000000000 17.648687117220 9.091747908871
5560 1 2.400000000000 103.626000000000 17.113878416698 11.765791411480
5561 2 -1.200000000000 104.989500000000 16.044261015655 10.161365309915
5562 2 -1.200000000000 107.716500000000 16.044261015655 10.161365309915
5563 2 -1.200000000000 104.989500000000 15.509452315133 12.835408812524
5564 2 -1.200000000000 107.716500000000 15.509452315133 12.835408812524
5565 2 -1.200000000000 104.989500000000 18.718304518264 10.696174010437
5566 2 -1.200000000000 107.716500000000 18.718304518264 10.696174010437
5567 2 -1.200000000000 104.989500000000 18.183495817742 13.370217513046
5568 2 -1.200000000000 107.716500000000 18.183495817742 13.370217513046
5569 1 2.400000000000 109.080000000000 14.974643614611 8.556939208349
5570 1 2.400000000000 111.807000000000 14.439834914089 11.230982710958
5571 1 2.400000000000 111.807000000000 17.648687117220 9.091747908871
5572 1 2.400000000000 109.080000000000 17.113878416698 11.765791411480
5573 2 -1.200000000000 110.443500000000 16.044261015655 10.161365309915
5574 2 -1.200000000000 113.170500000000 16.044261015655 10.161365309915
5575 2 -1.200000000000 110.443500000000 15.509452315133 12.835408812524
5576 2 -1.200000000000 113.170500000000 15.509452315133 12.835408812524
5577 2 -1.200000000000 110.443500000000 18.718304518264 10.696174010437
5578 2 -1.200000000000 113.170500000000 18.718304518264 10.696174010437
5579 2 -1.200000000000 110.443500000000 18.183495817742 13.370217513046
5580 2 -1.200000000000 113.170500000000 18.183495817742 13.370217513046
5581 1 2.400000000000 114.534000000000 14.974643614611 8.556939208349
5582 1 2.400000000000 117.261000000000 14.439834914089 11.230982710958
5583 1 2.400000000000 117.261000000000 17.648687117220 9.091747908871
5584 1 2.400000000000 114.534000000000 17.113878416698 11.765791411480
5585 2 -1.200000000000 115.897500000000 16.044261015655 10.161365309915
5586 2 -1.200000000000 118.624500000000 16.044261015655 10.161365309915
5587 2 -1.200000000000 115.897500000000 15.509452315133 12.835408812524
5588 2 -1.200000000000 118.624500000000 15.509452315133 12.835408812524
5589 2 -1.200000000000 115.897500000000 18.718304518264 10.696174010437
5590 2 -1.200000000000 118.624500000000 18.718304518264 10.696174010437
5591 2 -1.200000000000 115.897500000000 18.183495817742 13.370217513046
5592 2 -1.200000000000 118.624500000000 18.183495817742 13.370217513046
5593 1 2.400000000000 119.988000000000 14.974643614611 8.556939208349
5594 1 2.400000000000 122.715000000000 14.439834914089 11.230982710958
5595 1 2.400000000000 122.715000000000 17.648687117220 9.091747908871
5596 1 2.400000000000 119.988000000000 17.113878416698 11.765791411480
5597 2 -1.200000000000 121.351500000000 16.044261015655 10.161365309915
5598 2 -1.200000000000 124.078500000000 16.044261015655 10.161365309915
5599 2 -1.200000000000 121.351500000000 15.509452315133 12.835408812524
5600 2 -1.200000000000 124.078500000000 15.509452315133 12.835408812524
5601 2 -1.200000000000 121.351500000000 18.718304518264 10.696174010437
5602 2 -1.200000000000 124.078500000000 18.718304518264 10.696174010437
5603 2 -1.200000000000 121.351500000000 18.183495817742 13.370217513046
5604 2 -1.200000000000 124.078500000000 18.183495817742 13.370217513046
5605 1 2.400000000000 125.442000000000 14.974643614611 8.556939208349
5606 1 2.400000000000 128.169000000000 14.439834914089 11.230982710958
5607 1 2.400000000000 128.169000000000 17.648687117220 9.091747908871
5608 1 2.400000000000 125.442000000000 17.113878416698 11.765791411480
5609 2 -1.200000000000 126.805500000000 16.044261015655 10.161365309915
5610 2 -1.200000000000 129.532500000000 16.044261015655 10.161365309915
5611 2 -1.200000000000 126.805500000000 15.509452315133 12.835408812524
5612 2 -1.200000000000 129.532500000000 15.509452315133 12.835408812524
5613 2 -1.200000000000 126.805500000000 18.718304518264 10.696174010437
5614 2 -1.200000000000 129.532500000000 18.718304518264 10.696174010437
5615 2 -1.200000000000 126.805500000000 18.183495817742 13.370217513046
5616 2 -1.200000000000 129.532500000000 18.183495817742 13.370217513046
5617 1 2.400000000000 65.448000000000 13.905026213568 13.905026213568
5618 1 2.400000000000 68.175000000000 13.370217513046 16.579069716177
5619 1 2.400000000000 68.175000000000 16.579069716177 14.439834914089
5620 1 2.400000000000 65.448000000000 16.044261015655 17.113878416698
5621 2 -1.200000000000 66.811500000000 14.974643614611 15.509452315133
5622 2 -1.200000000000 69.538500000000 14.974643614611 15.509452315133
5623 2 -1.200000000000 66.811500000000 14.439834914089 18.183495817742
5624 2 -1.200000000000 69.538500000000 14.439834914089 18.183495817742
5625 2 -1.200000000000 66.811500000000 17.648687117220 16.044261015655
5626 2 -1.200000000000 69.538500000000 17.648687117220 16.044261015655
5627 2 -1.200000000000 66.811500000000 17.113878416698 18.718304518264
5628 2 -1.200000000000 69.538500000000 17.113878416698 18.718304518264
5629 1 2.400000000000 70.902000000000 13.905026213568 13.905026213568
5630 1 2.400000000000 73.629000000000 13.370217513046 16.579069716177
5631 1 2.400000000000 73.629000000000 16.579069716177 14.439834914089
5632 1 2.400000000000 70.902000000000 16.044261015655 17.113878416698
5633 2 -1.200000000000 72.265500000000 14.974643614611 15.509452315133
5634 2 -1.200000000000 74.992500000000 14.974643614611 15.509452315133
5635 2 -1.200000000000 72.265500000000 14.439834914089 18.183495817742
5636 2 -1.200000000000 74.992500000000 14.439834914089 18.183495817742
5637 2 -1.200000000000 72.265500000000 17.648687117220 16.044261015655
5638 2 -1.200000000000 74.992500000000 17.648687117220 16.044261015655
5639 2 -1.200000000000 72.265500000000 17.113878416698 18.718304518264
5640 2 -1.200000000000 74.992500000000 17.113878416698 18.718304518264
5641 1 2.400000000000 76.356000000000 13.905026213568 13.905026213568
5642 1 2.400000000000 79.083000000000 13.370217513046 16.579069716177
5643 1 2.400000000000 79.083000000000 16.579069716177 14.439834914089
5644 1 2.400000000000 76.356000000000 16.044261015655 17.113878416698
5645 2 -1.200000000000 77.719500000000 14.974643614611 15.509452315133
5646 2 -1.200000000000 80.446500000000 14.974643614611 15.509452315133
5647 2 -1.200000000000 77.719500000000 14.439834914089 18.183495817742
5648 2 -1.200000000000 80.446500000000 14.439834914089 18.183495817742
5649 2 -1.200000000000 77.719500000000 17.648687117220 16.044261015655
5650 2 -1.200000000000 80.446500000000 17.648687117220 16.044261015655
5651 2 -1.200000000000 77.719500000000 17.113878416698 18.718304518264
5652 2 -1.200000000000 80.446500000000 17.113878416698 18.718304518264
5653 1 2.400000000000 81.810000000000 13.905026213568 13.905026213568
5654 1 2.400000000000 84.537000000000 13.370217513046 16.579069716177
5655 1 2.400000000000 84.537000000000 16.579069716177 14.439834914089
5656 1 2.400000000000 81.810000000000 16.044261015655 17.113878416698
5657 2 -1.200000000000 83.173500000000 14.974643614611 15.509452315133
5658 2 -1.200000000000 85.900500000000 14.974643614611 15.509452315133
5659 2 -1.200000000000 83.173500000000 14.439834914089 18.183495817742
5660 2 -1.200000000000 85.900500000000 14.439834914089 18.183495817742
5661 2 -1.200000000000 83.173500000000 17.648687117220 16.044261015655
5662 2 -1.200000000000 85.900500000000 17.648687117220 16.044261015655
5663 2 -1.200000000000 83.173500000000 17.113878416698 18.718304518264
5664 2 -1.200000000000 85.900500000000 17.113878416698 18.718304518264
5665 1 2.400000000000 87.264000000000 13.905026213568 13.905026213568
5666 1 2.400000000000 89.991000000000 13.370217513046 16.579069716177
5667 1 2.400000000000 89.991000000000 16.579069716177 14.439834914089
5668 1 2.400000000000 87.264000000000 16.044261015655 17.113878416698
5669 2 -1.200000000000 88.627500000000 14.974643614611 15.509452315133
5670 2 -1.200000000000 91.354500000000 14.974643614611 15.509452315133
5671 2 -1.200000000000 88.627500000000 14.439834914089 18.183495817742
5672 2 -1.200000000000 91.354500000000 14.439834914089 18.183495817742
5673 2 -1.200000000000 88.627500000000 17.648687117220 16.044261015655
5674 2 -1.200000000000 91.354500000000 17.648687117220 16.044261015655
5675 2 -1.200000000000 88.627500000000 17.113878416698 18.718304518264
5676 2 -1.200000000000 91.354500000000 17.113878416698 18.718304518264
5677 1 2.400000000000 92.718000000000 13.905026213568 13.905026213568
5678 1 2.400000000000 95.445000000000 13.370217513046 16.579069716177
5679 1 2.400000000000 95.445000000000 16.579069716177 14.439834914089
5680 1 2.400000000000 92.718000000000 16.044261015655 17.113878416698
5681 2 -1.200000000000 94.081500000000 14.974643614611 15.509452315133
5682 2 -1.200000000000 96.808500000000 14.974643614611 15.509452315133
5683 2 -1.200000000000 94.081500000000 14.439834914089 18.183495817742
5684 2 -1.200000000000 96.808500000000 14.439834914089 18.183495817742
5685 2 -1.200000000000 94.081500000000 17.648687117220 16.044261015655
5686 2 -1.200000000000 96.808500000000 17.648687117220 16.044261015655
5687 2 -1.200000000000 94.081500000000 17.113878416698 18.718304518264
5688 2 -1.200000000000 96.808500000000 17.113878416698 18.718304518264
5689 1 2.400000000000 98.172000000000 13.905026213568 13.905026213568
5690 1 2.400000000000 100.899000000000 13.370217513046 16.579069716177
5691 1 2.400000000000 100.899000000000 16.579069716177 14.439834914089
5692 1 2.400000000000 98.172000000000 16.044261015655 17.113878416698
5693 2 -1.200000000000 99.535500000000 14.974643614611 15.509452315133
5694 2 -1.200000000000 102.262500000000 14.974643614611 15.509452315133
5695 2 -1.200000000000 99.535500000000 14.439834914089 18.183495817742
5696 2 -1.200000000000 102.262500000000 14.439834914089 18.183495817742
5697 2 -1.200000000000 99.535500000000 17.648687117220 16.044261015655
5698 2 -1.200000000000 102.262500000000 17.648687117220 16.044261015655
5699 2 -1.200000000000 99.535500000000 17.113878416698 18.718304518264
5700 2 -1.200000000000 102.262500000000 17.113878416698 18.718304518264
5701 1 2.400000000000 103.626000000000 13.905026213568 13.905026213568
5702 1 2.400000000000 106.353000000000 13.370217513046 16.579069716177
5703 1 2.400000000000 106.353000000000 16.579069716177 14.439834914089
5704 1 2.400000000000 103.626000000000 16.044261015655 17.113878416698
5705 2 -1.200000000000 104.989500000000 14.974643614611 15.509452315133
5706 2 -1.200000000000 107.716500000000 14.974643614611 15.509452315133
5707 2 -1.200000000000 104.989500000000 14.439834914089 18.183495817742
5708 2 -1.200000000000 107.716500000000 14.439834914089 18.183495817742
5709 2 -1.200000000000 104.989500000000 17.648687117220 16.044261015655
5710 2 -1.200000000000 107.716500000000 17.648687117220 16.044261015655
5711 2 -1.200000000000 104.989500000000 17.113878416698 18.718304518264
5712 2 -1.200000000000 107.716500000000 17.113878416698 18.718304518264
5713 1 2.400000000000 109.080000000000 13.905026213568 13.905026213568
5714 1 2.400000000000 111.807000000000 13.370217513046 16.579069716177
5715 1 2.400000000000 111.807000000000 16.579069716177 14.439834914089
5716 1 2.400000000000 109.080000000000 16.044261015655 17.113878416698
5717 2 -1.200000000000 110.443500000000 14.974643614611 15.509452315133
5718 2 -1.200000000000 113.170500000000 14.974643614611 15.509452315133
5719 2 -1.200000000000 110.443500000000 14.439834914089 18.183495817742
5720 2 -1.200000000000 113.170500000000 14.439834914089 18.183495817742
5721 2 -1.200000000000 110.443500000000 17.648687117220 16.044261015655
5722 2 -1.200000000000 113.170500000000 17.648687117220 16.044261015655
5723 2 -1.200000000000 110.443500000000 17.113878416698 18.718304518264
5724 2 -1.200000000000 113.170500000000 17.113878416698 18.718304518264
5725 1 2.400000000000 114.534000000000 13.905026213568 13.905026213568
5726 1 2.400000000000 117.261000000000 13.370217513046 16.579069716177
5727 1 2.400000000000 117.261000000000 16.579069716177 14.439834914089
5728 1 2.400000000000 114.534000000000 16.044261015655 17.113878416698
5729 2 -1.200000000000 115.897500000000 14.974643614611 15.509452315133
5730 2 -1.200000000000 118.624500000000 14.974643614611 15.509452315133
5731 2 -1.200000000000 115.897500000000 14.439834914089 18.183495817742
5732 2 -1.200000000000 118.624500000000 14.439834914089 18.183495817742
5733 2 -1.200000000000 115.897500000000 17.648687117220 16.044261015655
5734 2 -1.200000000000 118.624500000000 17.648687117220 16.044261015655
5735 2 -1.200000000000 115.897500000000 17.113878416698 18.718304518264
5736 2 -1.200000000000 118.624500000000 17.113878416698 18.718304518264
5737 1 2.400000000000 119.988000000000 13.905026213568 13.905026213568
5738 1 2.400000000000 122.715000000000 13.370217513046 16.579069716177
5739 1 2.400000000000 122.715000000000 16.579069716177 14.439834914089
5740 1 2.400000000000 119.988000000000 16.044261015655 17.113878416698
5741 2 -1.200000000000 121.351500000000 14.974643614611 15.509452315133
5742 2 -1.200000000000 124.078500000000 14.974643614611 15.509452315133
5743 2 -1.200000000000 121.351500000000 14.439834914089 18.183495817742
5744 2 -1.200000000000 124.078500000000 14.439834914089 18.183495817742
5745 2 -1.200000000000 121.351500000000 17.648687117220 16.044261015655
5746 2 -1.200000000000 124.078500000000 17.648687117220 16.044261015655
5747 2 -1.200000000000 121.351500000000 17.113878416698 18.718304518264
5748 2 -1.200000000000 124.078500000000 17.113878416698 18.718304518264
5749 1 2.400000000000 125.442000000000 13.905026213568 13.905026213568
5750 1 2.400000000000 128.169000000000 13.370217513046 16.579069716177
5751 1 2.400000000000 128.169000000000 16.579069716177 14.439834914089
5752 1 2.400000000000 125.442000000000 16.044261015655 17.113878416698
5753 2 -1.200000000000 126.805500000000 14.974643614611 15.509452315133
5754 2 -1.200000000000 129.532500000000 14.974643614611 15.509452315133
5755 2 -1.200000000000 126.805500000000 14.439834914089 18.183495817742
5756 2 -1.200000000000 129.532500000000 14.439834914089 18.183495817742
5757 2 -1.200000000000 126.805500000000 17.648687117220 16.044261015655
5758 2 -1.200000000000 129.532500000000 17.648687117220 16.044261015655
5759 2 -1.200000000000 126.805500000000 17.113878416698 18.718304518264
5760 2 -1.200000000000 129.532500000000 17.113878416698 18.718304518264
5761 1 2.400000000000 65.448000000000 12.835408812524 19.253113218786
5762 1 2.400000000000 68.175000000000 12.300600112002 21.927156721395
5763 1 2.400000000000 68.175000000000 15.509452315133 19.787921919308
5764 1 2.400000000000 65.448000000000 14.974643614611 22.461965421917
5765 2 -1.200000000000 66.811500000000 13.905026213568 20.857539320351
5766 2 -1.200000000000 69.538500000000 13.905026213568 20.857539320351
5767 2 -1.200000000000 66.811500000000 13.370217513046 23.531582822960
5768 2 -1.200000000000 69.538500000000 13.370217513046 23.531582822960
5769 2 -1.200000000000 66.811500000000 16.579069716177 21.392348020873
5770 2 -1.200000000000 69.538500000000 16.579069716177 21.392348020873
5771 2 -1.200000000000 66.811500000000 16.044261015655 24.066391523482
5772 2 -1.200000000000 69.538500000000 16.044261015655 24.066391523482
5773 1 2.400000000000 70.902000000000 12.835408812524 19.253113218786
5774 1 2.400000000000 73.629000000000 12.300600112002 21.927156721395
5775 1 2.400000000000 73.629000000000 15.509452315133 19.787921919308
5776 1 2.400000000000 70.902000000000 14.974643614611 22.461965421917
5777 2 -1.200000000000 72.265500000000 13.905026213568 20.857539320351
5778 2 -1.200000000000 74.992500000000 13.905026213568 20.857539320351
5779 2 -1.200000000000 72.265500000000 13.370217513046 23.531582822960
5780 2 -1.200000000000 74.992500000000 13.370217513046 23.531582822960
5781 2 -1.200000000000 72.265500000000 16.579069716177 21.392348020873
5782 2 -1.200000000000 74.992500000000 16.579069716177 21.392348020873
5783 2 -1.200000000000 72.265500000000 16.044261015655 24.066391523482
5784 2 -1.200000000000 74.992500000000 16.044261015655 24.066391523482
5785 1 2.400000000000 76.356000000000 12.835408812524 19.253113218786
5786 1 2.400000000000 79.083000000000 12.300600112002 21.927156721395
5787 1 2.400000000000 79.083000000000 15.509452315133 19.787921919308
5788 1 2.400000000000 76.356000000000 14.974643614611 22.461965421917
5789 2 -1.200000000000 77.719500000000 13.905026213568 20.857539320351
5790 2 -1.200000000000 80.446500000000 13.905026213568 20.857539320351
5791 2 -1.200000000000 77.719500000000 13.370217513046 23.531582822960
5792 2 -1.200000000000 80.446500000000 13.370217513046 23.531582822960
5793 2 -1.200000000000 77.719500000000 16.579069716177 21.392348020873
5794 2 -1.200000000000 80.446500000000 16.579069716177 21.392348020873
5795 2 -1.200000000000 77.719500000000 16.044261015655 24.066391523482
5796 2 -1.200000000000 80.446500000000 16.044261015655 24.066391523482
5797 1 2.400000000000 81.810000000000 12.835408812524 19.253113218786
5798 1 2.400000000000 84.537000000000 12.300600112002 21.927156721395
5799 1 2.400000000000 84.537000000000 15.509452315133 19.787921919308
5800 1 2.400000000000 81.810000000000 14.974643614611 22.461965421917
5801 2 -1.200000000000 83.173500000000 13.905026213568 20.857539320351
5802 2 -1.200000000000 85.900500000000 13.905026213568 20.857539320351
5803 2 -1.200000000000 83.173500000000 13.370217513046 23.531582822960
5804 2 -1.200000000000 85.900500000000 13.370217513046 23.531582822960
5805 2 -1.200000000000 83.173500000000 16.579069716177 21.392348020873
5806 2 -1.200000000000 85.900500000000 16.579069716177 21.392348020873
5807 2 -1.200000000000 83.173500000000 16.044261015655 24.066391523482
5808 2 -1.200000000000 85.900500000000 16.044261015655 24.066391523482
5809 1 2.400000000000 87.264000000000 12.835408812524 19.253113218786
5810 1 2.400000000000 89.991000000000 12.300600112002 21.927156721395
5811 1 2.400000000000 89.991000000000 15.509452315133 19.787921919308
5812 1 2.400000000000 87.264000000000 14.974643614611 22.461965421917
5813 2 -1.200000000000 88.627500000000 13.905026213568 20.857539320351
5814 2 -1.200000000000 91.354500000000 13.905026213568 20.857539320351
5815 2 -1.200000000000 88.627500000000 13.370217513046 23.531582822960
5816 2 -1.200000000000 91.354500000000 13.370217513046 23.531582822960
5817 2 -1.200000000000 88.627500000000 16.579069716177 21.392348020873
5818 2 -1.200000000000 91.354500000000 16.579069716177 21.392348020873
5819 2 -1.200000000000 88.627500000000 16.044261015655 24.066391523482
5820 2 -1.200000000000 91.354500000000 16.044261015655 24.066391523482
5821 1 2.400000000000 92.718000000000 12.835408812524 19.253113218786
5822 1 2.400000000000 95.445000000000 12.300600112002 21.927156721395
5823 1 2.400000000000 95.445000000000 15.509452315133 19.787921919308
5824 1 2.400000000000 92.718000000000 14.974643614611 22.461965421917
5825 2 -1.200000000000 94.081500000000 13.905026213568 20.857539320351
5826 2 -1.200000000000 96.808500000000 13.905026213568 20.857539320351
5827 2 -1.200000000000 94.081500000000 13.370217513046 23.531582822960
5828 2 -1.200000000000 96.808500000000 13.370217513046 23.531582822960
5829 2 -1.200000000000 94.081500000000 16.579069716177 21.392348020873
5830 2 -1.200000000000 96.808500000000 16.579069716177 21.392348020873
5831 2 -1.200000000000 94.081500000000 16.044261015655 24.066391523482
5832 2 -1.200000000000 96.808500000000 16.044261015655 24.066391523482
5833 1 2.400000000000 98.172000000000 12.835408812524 19.253113218786
5834 1 2.400000000000 100.899000000000 12.300600112002 21.927156721395
5835 1 2.400000000000 100.899000000000 15.509452315133 19.787921919308
5836 1 2.400000000000 98.172000000000 14.974643614611 22.461965421917
5837 2 -1.200000000000 99.535500000000 13.905026213568 20.857539320351
5838 2 -1.200000000000 102.262500000000 13.905026213568 20.857539320351
5839 2 -1.200000000000 99.535500000000 13.370217513046 23.531582822960
5840 2 -1.200000000000 102.262500000000 13.370217513046 23.531582822960
5841 2 -1.200000000000 99.535500000000 16.579069716177 21.392348020873
5842 2 -1.200000000000 102.262500000000 16.579069716177 21.392348020873
5843 2 -1.200000000000 99.535500000000 16.044261015655 24.066391523482
5844 2 -1.200000000000 102.262500000000 16.044261015655 24.066391523482
5845 1 2.400000000000 103.626000000000 12.835408812524 19.253113218786
5846 1 2.400000000000 106.353000000000 12.300600112002 21.927156721395
5847 1 2.400000000000 106.353000000000 15.509452315133 19.787921919308
5848 1 2.400000000000 103.626000000000 14.974643614611 22.461965421917
5849 2 -1.200000000000 104.989500000000 13.905026213568 20.857539320351
5850 2 -1.200000000000 107.716500000000 13.905026213568 20.857539320351
5851 2 -1.200000000000 104.989500000000 13.370217513046 23.531582822960
5852 2 -1.200000000000 107.716500000000 13.370217513046 23.531582822960
5853 2 -1.200000000000 104.989500000000 16.579069716177 21.392348020873
5854 2 -1.200000000000 107.716500000000 16.579069716177 21.392348020873
5855 2 -1.200000000000 104.989500000000 16.044261015655 24.066391523482
5856 2 -1.200000000000 107.716500000000 16.044261015655 24.066391523482
5857 1 2.400000000000 109.080000000000 12.835408812524 19.253113218786
5858 1 2.400000000000 111.807000000000 12.300600112002 21.927156721395
5859 1 2.400000000000 111.807000000000 15.509452315133 19.787921919308
5860 1 2.400000000000 109.080000000000 14.974643614611 22.461965421917
5861 2 -1.200000000000 110.443500000000 13.905026213568 20.857539320351
5862 2 -1.200000000000 113.170500000000 13.905026213568 20.857539320351
5863 2 -1.200000000000 110.443500000000 13.370217513046 23.531582822960
5864 2 -1.200000000000 113.170500000000 13.370217513046 23.531582822960
5865 2 -1.200000000000 110.443500000000 16.579069716177 21.392348020873
5866 2 -1.200000000000 113.170500000000 16.579069716177 21.392348020873
5867 2 -1.200000000000 110.443500000000 16.044261015655 24.066391523482
5868 2 -1.200000000000 113.170500000000 16.044261015655 24.066391523482
5869 1 2.400000000000 114.534000000000 12.835408812524 19.253113218786
5870 1 2.400000000000 117.261000000000 12.300600112002 21.927156721395
5871 1 2.400000000000 117.261000000000 15.509452315133 19.787921919308
5872 1 2.400000000000 114.534000000000 14.974643614611 22.461965421917
5873 2 -1.200000000000 115.897500000000 13.905026213568 20.857539320351
5874 2 -1.200000000000 118.624500000000 13.905026213568 20.857539320351
5875 2 -1.200000000000 115.897500000000 13.370217513046 23.531582822960
5876 2 -1.200000000000 118.624500000000 13.370217513046 23.531582822960
5877 2 -1.200000000000 115.897500000000 16.579069716177 21.392348020873
5878 2 -1.200000000000 118.624500000000 16.579069716177 21.392348020873
5879 2 -1.200000000000 115.897500000000 16.044261015655 24.066391523482
5880 2 -1.200000000000 118.624500000000 16.044261015655 24.066391523482
5881 1 2.400000000000 119.988000000000 12.835408812524 19.253113218786
5882 1 2.400000000000 122.715000000000 12.300600112002 21.927156721395
5883 1 2.400000000000 122.715000000000 15.509452315133 19.787921919308
5884 1 2.400000000000 119.988000000000 14.974643614611 22.461965421917
5885 2 -1.200000000000 121.351500000000 13.905026213568 20.857539320351
5886 2 -1.200000000000 124.078500000000 13.905026213568 20.857539320351
5887 2 -1.200000000000 121.351500000000 13.370217513046 23.531582822960
5888 2 -1.200000000000 124.078500000000 13.370217513046 23.531582822960
5889 2 -1.200000000000 121.351500000000 16.579069716177 21.392348020873
5890 2 -1.200000000000 124.078500000000 16.579069716177 21.392348020873
5891 2 -1.200000000000 121.351500000000 16.044261015655 24.066391523482
5892 2 -1.200000000000 124.078500000000 16.044261015655 24.066391523482
5893 1 2.400000000000 125.442000000000 12.835408812524 19.253113218786
5894 1 2.400000000000 128.169000000000 12.300600112002 21.927156721395
5895 1 2.400000000000 128.169000000000 15.509452315133 19.787921919308
5896 1 2.400000000000 125.442000000000 14.974643614611 22.461965421917
5897 2 -1.200000000000 126.805500000000 13.905026213568 20.857539320351
5898 2 -1.200000000000 129.532500000000 13.905026213568 20.857539320351
5899 2 -1.200000000000 126.805500000000 13.370217513046 23.531582822960
5900 2 -1.200000000000 129.532500000000 13.370217513046 23.531582822960
5901 2 -1.200000000000 126.805500000000 16.579069716177 21.392348020873
5902 2 -1.200000000000 129.532500000000 16.579069716177 21.392348020873
5903 2 -1.200000000000 126.805500000000 16.044261015655 24.066391523482
5904 2 -1.200000000000 129.532500000000 16.044261015655 24.066391523482
5905 1 2.400000000000 65.448000000000 11.765791411480 24.601200224004
5906 1 2.400000000000 68.175000000000 11.230982710958 27.275243726613
5907 1 2.400000000000 68.175000000000 14.439834914089 25.136008924526
5908 1 2.400000000000 65.448000000000 13.905026213568 0.000000000000
5909 2 -1.200000000000 66.811500000000 12.835408812524 26.205626325570
5910 2 -1.200000000000 69.538500000000 12.835408812524 26.205626325570
5911 2 -1.200000000000 66.811500000000 12.300600112002 1.069617401044
5912 2 -1.200000000000 69.538500000000 12.300600112002 1.069617401044
5913 2 -1.200000000000 66.811500000000 15.509452315133 26.740435026091
5914 2 -1.200000000000 69.538500000000 15.509452315133 26.740435026091
5915 2 -1.200000000000 66.811500000000 14.974643614611 1.604426101565
5916 2 -1.200000000000 69.538500000000 14.974643614611 1.604426101565
5917 1 2.400000000000 70.902000000000 11.765791411480 24.601200224004
5918 1 2.400000000000 73.629000000000 11.230982710958 27.275243726613
5919 1 2.400000000000 73.629000000000 14.439834914089 25.136008924526
5920 1 2.400000000000 70.902000000000 13.905026213568 0.000000000000
5921 2 -1.200000000000 72.265500000000 12.835408812524 26.205626325570
5922 2 -1.200000000000 74.992500000000 12.835408812524 26.205626325570
5923 2 -1.200000000000 72.265500000000 12.300600112002 1.069617401044
5924 2 -1.200000000000 74.992500000000 12.300600112002 1.069617401044
5925 2 -1.200000000000 72.265500000000 15.509452315133 26.740435026091
5926 2 -1.200000000000 74.992500000000 15.509452315133 26.740435026091
5927 2 -1.200000000000 72.265500000000 14.974643614611 1.604426101565
5928 2 -1.200000000000 74.992500000000 14.974643614611 1.604426101565
5929 1 2.400000000000 76.356000000000 11.765791411480 24.601200224004
5930 1 2.400000000000 79.083000000000 11.230982710958 27.275243726613
5931 1 2.400000000000 79.083000000000 14.439834914089 25.136008924526
5932 1 2.400000000000 76.356000000000 13.905026213568 0.000000000000
5933 2 -1.200000000000 77.719500000000 12.835408812524 26.205626325570
5934 2 -1.200000000000 80.446500000000 12.835408812524 26.205626325570
5935 2 -1.200000000000 77.719500000000 12.300600112002 1.069617401044
5936 2 -1.200000000000 80.446500000000 12.300600112002 1.069617401044
5937 2 -1.200000000000 77.719500000000 15.509452315133 26.740435026091
5938 2 -1.200000000000 80.446500000000 15.509452315133 26.740435026091
5939 2 -1.200000000000 77.719500000000 14.974643614611 1.604426101565
5940 2 -1.200000000000 80.446500000000 14.974643614611 1.604426101565
5941 1 2.400000000000 81.810000000000 11.765791411480 24.601200224004
5942 1 2.400000000000 84.537000000000 11.230982710958 27.275243726613
5943 1 2.400000000000 84.537000000000 14.439834914089 25.136008924526
5944 1 2.400000000000 81.810000000000 13.905026213568 0.000000000000
5945 2 -1.200000000000 83.173500000000 12.835408812524 26.205626325570
5946 2 -1.200000000000 85.900500000000 12.835408812524 26.205626325570
5947 2 -1.200000000000 83.173500000000 12.300600112002 1.069617401044
5948 2 -1.200000000000 85.900500000000 12.300600112002 1.069617401044
5949 2 -1.200000000000 83.173500000000 15.509452315133 26.740435026091
5950 2 -1.200000000000 85.900500000000 15.509452315133 26.740435026091
5951 2 -1.200000000000 83.173500000000 14.974643614611 1.604426101565
5952 2 -1.200000000000 85.900500000000 14.974643614611 1.604426101565
5953 1 2.400000000000 87.264000000000 11.765791411480 24.601200224004
5954 1 2.400000000000 89.991000000000 11.230982710958 27.275243726613
5955 1 2.400000000000 89.991000000000 14.439834914089 25.136008924526
5956 1 2.400000000000 87.264000000000 13.905026213568 0.000000000000
5957 2 -1.200000000000 88.627500000000 12.835408812524 26.205626325570
5958 2 -1.200000000000 91.354500000000 12.835408812524 26.205626325570
5959 2 -1.200000000000 88.627500000000 12.300600112002 1.069617401044
5960 2 -1.200000000000 91.354500000000 12.300600112002 1.069617401044
5961 2 -1.200000000000 88.627500000000 15.509452315133 26.740435026091
5962 2 -1.200000000000 91.354500000000 15.509452315133 26.740435026091
5963 2 -1.200000000000 88.627500000000 14.974643614611 1.604426101565
5964 2 -1.200000000000 91.354500000000 14.974643614611 1.604426101565
5965 1 2.400000000000 92.718000000000 11.765791411480 24.601200224004
5966 1 2.400000000000 95.445000000000 11.230982710958 27.275243726613
5967 1 2.400000000000 95.445000000000 14.439834914089 25.136008924526
5968 1 2.400000000000 92.718000000000 13.905026213568 0.000000000000
5969 2 -1.200000000000 94.081500000000 12.835408812524 26.205626325570
5970 2 -1.200000000000 96.808500000000 12.835408812524 26.205626325570
5971 2 -1.200000000000 94.081500000000 12.300600112002 1.069617401044
5972 2 -1.200000000000 96.808500000000 12.300600112002 1.069617401044
5973 2 -1.200000000000 94.081500000000 15.509452315133 26.740435026091
5974 2 -1.200000000000 96.808500000000 15.509452315133 26.740435026091
5975 2 -1.200000000000 94.081500000000 14.974643614611 1.604426101565
5976 2 -1.200000000000 96.808500000000 14.974643614611 1.604426101565
5977 1 2.400000000000 98.172000000000 11.765791411480 24.601200224004
5978 1 2.400000000000 100.899000000000 11.230982710958 27.275243726613
5979 1 2.400000000000 100.899000000000 14.439834914089 25.136008924526
5980 1 2.400000000000 98.172000000000 13.905026213568 0.000000000000
5981 2 -1.200000000000 99.535500000000 12.835408812524 26.205626325570
5982 2 -1.200000000000 102.262500000000 12.835408812524 26.205626325570
5983 2 -1.200000000000 99.535500000000 12.300600112002 1.069617401044
5984 2 -1.200000000000 102.262500000000 12.300600112002 1.069617401044
5985 2 -1.200000000000 99.535500000000 15.509452315133 26.740435026091
5986 2 -1.200000000000 102.262500000000 15.509452315133 26.740435026091
5987 2 -1.200000000000 99.535500000000 14.974643614611 1.604426101565
5988 2 -1.200000000000 102.262500000000 14.974643614611 1.604426101565
5989 1 2.400000000000 103.626000000000 11.765791411480 24.601200224004
5990 1 2.400000000000 106.353000000000 11.230982710958 27.275243726613
5991 1 2.400000000000 106.353000000000 14.439834914089 25.136008924526
5992 1 2.400000000000 103.626000000000 13.905026213568 0.000000000000
5993 2 -1.200000000000 104.989500000000 12.835408812524 26.205626325570
5994 2 -1.200000000000 107.716500000000 12.835408812524 26.205626325570
5995 2 -1.200000000000 104.989500000000 12.300600112002 1.069617401044
5996 2 -1.200000000000 107.716500000000 12.300600112002 1.069617401044
5997 2 -1.200000000000 104.989500000000 15.509452315133 26.740435026091
5998 2 -1.200000000000 107.716500000000 15.509452315133 26.740435026091
5999 2 -1.200000000000 104.989500000000 14.974643614611 1.604426101565
6000 2 -1.200000000000 107.716500000000 14.974643614611 1.604426101565
6001 1 2.400000000000 109.080000000000 11.765791411480 24.601200224004
6002 1 2.400000000000 111.807000000000 11.230982710958 27.275243726613
6003 1 2.400000000000 111.807000000000 14.439834914089 25.136008924526
6004 1 2.400000000000 109.080000000000 13.905026213568 0.000000000000
6005 2 -1.200000000000 110.443500000000 12.835408812524 26.205626325570
6006 2 -1.200000000000 113.170500000000 12.835408812524 26.205626325570
6007 2 -1.200000000000 110.443500000000 12.300600112002 1.069617401044
6008 2 -1.200000000000 113.170500000000 12.300600112002 1.069617401044
6009 2 -1.200000000000 110.443500000000 15.509452315133 26.740435026091
6010 2 -1.200000000000 113.170500000000 15.509452315133 26.740435026091
6011 2 -1.200000000000 110.443500000000 14.974643614611 1.604426101565
6012 2 -1.200000000000 113.170500000000 14.974643614611 1.604426101565
6013 1 2.400000000000 114.534000000000 11.765791411480 24.601200224004
6014 1 2.400000000000 117.261000000000 11.230982710958 27.275243726613
6015 1 2.400000000000 117.261000000000 14.439834914089 25.136008924526
6016 1 2.400000000000 114.534000000000 13.905026213568 0.000000000000
6017 2 -1.200000000000 115.897500000000 12.835408812524 26.205626325570
6018 2 -1.200000000000 118.624500000000 12.835408812524 26.205626325570
6019 2 -1.200000000000 115.897500000000 12.300600112002 1.069617401044
6020 2 -1.200000000000 118.624500000000 12.300600112002 1.069617401044
6021 2 -1.200000000000 115.897500000000 15.509452315133 26.740435026091
6022 2 -1.200000000000 118.624500000000 15.509452315133 26.740435026091
6023 2 -1.200000000000 115.897500000000 14.974643614611 1.604426101565
6024 2 -1.200000000000 118.624500000000 14.974643614611 1.604426101565
6025 1 2.400000000000 119.988000000000 11.765791411480 24.601200224004
6026 1 2.400000000000 122.715000000000 11.230982710958 27.275243726613
6027 1 2.400000000000 122.715000000000 14.439834914089 25.136008924526
6028 1 2.400000000000 119.988000000000 13.905026213568 0.000000000000
6029 2 -1.200000000000 121.351500000000 12.835408812524 26.205626325570
6030 2 -1.200000000000 124.078500000000 12.835408812524 26.205626325570
6031 2 -1.200000000000 121.351500000000 12.300600112002 1.069617401044
6032 2 -1.200000000000 124.078500000000 12.300600112002 1.069617401044
6033 2 -1.200000000000 121.351500000000 15.509452315133 26.740435026091
6034 2 -1.200000000000 124.078500000000 15.509452315133 26.740435026091
6035 2 -1.200000000000 121.351500000000 14.974643614611 1.604426101565
6036 2 -1.200000000000 124.078500000000 14.974643614611 1.604426101565
6037 1 2.400000000000 125.442000000000 11.765791411480 24.601200224004
6038 1 2.400000000000 128.169000000000 11.230982710958 27.275243726613
6039 1 2.400000000000 128.169000000000 14.439834914089 25.136008924526
6040 1 2.400000000000 125.442000000000 13.905026213568 0.000000000000
6041 2 -1.200000000000 126.805500000000 12.835408812524 26.205626325570
6042 2 -1.200000000000 129.532500000000 12.835408812524 26.205626325570
6043 2 -1.200000000000 126.805500000000 12.300600112002 1.069617401044
6044 2 -1.200000000000 129.532500000000 12.300600112002 1.069617401044
6045 2 -1.200000000000 126.805500000000 15.509452315133 26.740435026091
6046 2 -1.200000000000 129.532500000000 15.509452315133 26.740435026091
6047 2 -1.200000000000 126.805500000000 14.974643614611 1.604426101565
6048 2 -1.200000000000 129.532500000000 14.974643614611 1.604426101565
6049 1 2.400000000000 65.448000000000 21.392348020873 4.278469604175
6050 1 2.400000000000 68.175000000000 20.857539320351 6.952513106784
6051 1 2.400000000000 68.175000000000 24.066391523482 4.813278304696
6052 1 2.400000000000 65.448000000000 23.531582822960 7.487321807306
6053 2 -1.200000000000 66.811500000000 22.461965421917 5.882895705740
6054 2 -1.200000000000 69.538500000000 22.461965421917 5.882895705740
6055 2 -1.200000000000 66.811500000000 21.927156721395 8.556939208349
6056 2 -1.200000000000 69.538500000000 21.927156721395 8.556939208349
6057 2 -1.200000000000 66.811500000000 25.136008924526 6.417704406262
6058 2 -1.200000000000 69.538500000000 25.136008924526 6.417704406262
6059 2 -1.200000000000 66.811500000000 24.601200224004 9.091747908871
6060 2 -1.200000000000 69.538500000000 24.601200224004 9.091747908871
6061 1 2.400000000000 70.902000000000 21.392348020873 4.278469604175
6062 1 2.400000000000 73.629000000000 20.857539320351 6.952513106784
6063 1 2.400000000000 73.629000000000 24.066391523482 4.813278304696
6064 1 2.400000000000 70.902000000000 23.531582822960 7.487321807306
6065 2 -1.200000000000 72.265500000000 22.461965421917 5.882895705740
6066 2 -1.200000000000 74.992500000000 22.461965421917 5.882895705740
6067 2 -1.200000000000 72.265500000000 21.927156721395 8.556939208349
6068 2 -1.200000000000 74.992500000000 21.927156721395 8.556939208349
6069 2 -1.200000000000 72.265500000000 25.136008924526 6.417704406262
6070 2 -1.200000000000 74.992500000000 25.136008924526 6.417704406262
6071 2 -1.200000000000 72.265500000000 24.601200224004 9.091747908871
6072 2 -1.200000000000 74.992500000000 24.601200224004 9.091747908871
6073 1 2.400000000000 76.356000000000 21.392348020873 4.278469604175
6074 1 2.400000000000 79.083000000000 20.857539320351 6.952513106784
6075 1 2.400000000000 79.083000000000 24.066391523482 4.813278304696
6076 1 2.400000000000 76.356000000000 23.531582822960 7.487321807306
6077 2 -1.200000000000 77.719500000000 22.461965421917 5.882895705740
6078 2 -1.200000000000 80.446500000000 22.461965421917 5.882895705740
6079 2 -1.200000000000 77.719500000000 21.927156721395 8.556939208349
6080 2 -1.200000000000 80.446500000000 21.927156721395 8.556939208349
6081 2 -1.200000000000 77.719500000000 25.136008924526 6.417704406262
6082 2 -1.200000000000 80.446500000000 25.136008924526 6.417704406262
6083 2 -1.200000000000 77.719500000000 24.601200224004 9.091747908871
6084 2 -1.200000000000 80.446500000000 24.601200224004 9.091747908871
6085 1 2.400000000000 81.810000000000 21.392348020873 4.278469604175
6086 1 2.400000000000 84.537000000000 20.857539320351 6.952513106784
6087 1 2.400000000000 84.537000000000 24.066391523482 4.813278304696
6088 1 2.400000000000 81.810000000000 23.531582822960 7.487321807306
6089 2 -1.200000000000 83.173500000000 22.461965421917 5.882895705740
6090 2 -1.200000000000 85.900500000000 22.461965421917 5.882895705740
6091 2 -1.200000000000 83.173500000000 21.927156721395 8.556939208349
6092 2 -1.200000000000 85.900500000000 21.927156721395 8.556939208349
6093 2 -1.200000000000 83.173500000000 25.136008924526 6.417704406262
6094 2 -1.200000000000 85.900500000000 25.136008924526 6.417704406262
6095 2 -1.200000000000 83.173500000000 24.601200224004 9.091747908871
6096 2 -1.200000000000 85.900500000000 24.601200224004 9.091747908871
6097 1 2.400000000000 87.264000000000 21.392348020873 4.278469604175
6098 1 2.400000000000 89.991000000000 20.857539320351 6.952513106784
6099 1 2.400000000000 89.991000000000 24.066391523482 4.813278304696
6100 1 2.400000000000 87.264000000000 23.531582822960 7.487321807306
6101 2 -1.200000000000 88.627500000000 22.461965421917 5.882895705740
6102 2 -1.200000000000 91.354500000000 22.461965421917 5.882895705740
6103 2 -1.200000000000 88.627500000000 21.927156721395 8.556939208349
6104 2 -1.200000000000 91.354500000000 21.927156721395 8.556939208349
6105 2 -1.200000000000 88.627500000000 25.136008924526 6.417704406262
6106 2 -1.200000000000 91.354500000000 25.136008924526 6.417704406262
6107 2 -1.200000000000 88.627500000000 24.601200224004 9.091747908871
6108 2 -1.200000000000 91.354500000000 24.601200224004 9.091747908871
6109 1 2.400000000000 92.718000000000 21.392348020873 4.278469604175
6110 1 2.400000000000 95.445000000000 20.857539320351 6.952513106784
6111 1 2.400000000000 95.445000000000 24.066391523482 4.813278304696
6112 1 2.400000000000 92.718000000000 23.531582822960 7.487321807306
6113 2 -1.200000000000 94.081500000000 22.461965421917 5.882895705740
6114 2 -1.200000000000 96.808500000000 22.461965421917 5.882895705740
6115 2 -1.200000000000 94.081500000000 21.927156721395 8.556939208349
6116 2 -1.200000000000 96.808500000000 21.927156721395 8.556939208349
6117 2 -1.200000000000 94.081500000000 25.136008924526 6.417704406262
6118 2 -1.200000000000 96.808500000000 25.136008924526 6.417704406262
6119 2 -1.200000000000 94.081500000000 24.601200224004 9.091747908871
6120 2 -1.200000000000 96.808500000000 24.601200224004 9.091747908871
6121 1 2.400000000000 98.172000000000 21.392348020873 4.278469604175
6122 1 2.400000000000 100.899000000000 20.857539320351 6.952513106784
6123 1 2.400000000000 100.899000000000 24.066391523482 4.813278304696
6124 1 2.400000000000 98.172000000000 23.531582822960 7.487321807306
6125 2 -1.200000000000 99.535500000000 22.461965421917 5.882895705740
6126 2 -1.200000000000 102.262500000000 22.461965421917 5.882895705740
6127 2 -1.200000000000 99.535500000000 21.927156721395 8.556939208349
6128 2 -1.200000000000 102.262500000000 21.927156721395 8.556939208349
6129 2 -1.200000000000 99.535500000000 25.136008924526 6.417704406262
6130 2 -1.200000000000 102.262500000000 25.136008924526 6.417704406262
6131 2 -1.200000000000 99.535500000000 24.601200224004 9.091747908871
6132 2 -1.200000000000 102.262500000000 24.601200224004 9.091747908871
6133 1 2.400000000000 103.626000000000 21.392348020873 4.278469604175
6134 1 2.400000000000 106.353000000000 20.857539320351 6.952513106784
6135 1 2.400000000000 106.353000000000 24.066391523482 4.813278304696
6136 1 2.400000000000 103.626000000000 23.531582822960 7.487321807306
6137 2 -1.200000000000 104.989500000000 22.461965421917 5.882895705740
6138 2 -1.200000000000 107.716500000000 22.461965421917 5.882895705740
6139 2 -1.200000000000 104.989500000000 21.927156721395 8.556939208349
6140 2 -1.200000000000 107.716500000000 21.927156721395 8.556939208349
6141 2 -1.200000000000 104.989500000000 25.136008924526 6.417704406262
6142 2 -1.200000000000 107.716500000000 25.136008924526 6.417704406262
6143 2 -1.200000000000 104.989500000000 24.601200224004 9.091747908871
6144 2 -1.200000000000 107.716500000000 24.601200224004 9.091747908871
6145 1 2.400000000000 109.080000000000 21.392348020873 4.278469604175
6146 1 2.400000000000 111.807000000000 20.857539320351 6.952513106784
6147 1 2.400000000000 111.807000000000 24.066391523482 4.813278304696
6148 1 2.400000000000 109.080000000000 23.531582822960 7.487321807306
6149 2 -1.200000000000 110.443500000000 22.461965421917 5.882895705740
6150 2 -1.200000000000 113.170500000000 22.461965421917 5.882895705740
6151 2 -1.200000000000 110.443500000000 21.927156721395 8.556939208349
6152 2 -1.200000000000 113.170500000000 21.927156721395 8.556939208349
6153 2 -1.200000000000 110.443500000000 25.136008924526 6.417704406262
6154 2 -1.200000000000 113.170500000000 25.136008924526 6.417704406262
6155 2 -1.200000000000 110.443500000000 24.601200224004 9.091747908871
6156 2 -1.200000000000 113.170500000000 24.601200224004 9.091747908871
6157 1 2.400000000000 114.534000000000 21.392348020873 4.278469604175
6158 1 2.400000000000 117.261000000000 20.857539320351 6.952513106784
6159 1 2.400000000000 117.261000000000 24.066391523482 4.813278304696
6160 1 2.400000000000 114.534000000000 23.531582822960 7.487321807306
6161 2 -1.200000000000 115.897500000000 22.461965421917 5.882895705740
6162 2 -1.200000000000 118.624500000000 22.461965421917 5.882895705740
6163 2 -1.200000000000 115.897500000000 21.927156721395 8.556939208349
6164 2 -1.200000000000 118.624500000000 21.927156721395 8.556939208349
6165 2 -1.200000000000 115.897500000000 25.136008924526 6.417704406262
6166 2 -1.200000000000 118.624500000000 25.136008924526 6.417704406262
6167 2 -1.200000000000 115.897500000000 24.601200224004 9.091747908871
6168 2 -1.200000000000 118.624500000000 24.601200224004 9.091747908871
6169 1 2.400000000000 119.988000000000 21.392348020873 4.278469604175
6170 1 2.400000000000 122.715000000000 20.857539320351 6.952513106784
6171 1 2.400000000000 122.715000000000 24.066391523482 4.813278304696
6172 1 2.400000000000 119.988000000000 23.531582822960 7.487321807306
6173 2 -1.200000000000 121.351500000000 22.461965421917 5.882895705740
6174 2 -1.200000000000 124.078500000000 22.461965421917 5.882895705740
6175 2 -1.200000000000 121.351500000000 21.927156721395 8.556939208349
6176 2 -1.200000000000 124.078500000000 21.927156721395 8.556939208349
6177 2 -1.200000000000 121.351500000000 25.136008924526 6.417704406262
6178 2 -1.200000000000 124.078500000000 25.136008924526 6.417704406262
6179 2 -1.200000000000 121.351500000000 24.601200224004 9.091747908871
6180 2 -1.200000000000 124.078500000000 24.601200224004 9.091747908871
6181 1 2.400000000000 125.442000000000 21.392348020873 4.278469604175
6182 1 2.400000000000 128.169000000000 20.857539320351 6.952513106784
6183 1 2.400000000000 128.169000000000 24.066391523482 4.813278304696
6184 1 2.400000000000 125.442000000000 23.531582822960 7.487321807306
6185 2 -1.200000000000 126.805500000000 22.461965421917 5.882895705740
6186 2 -1.200000000000 129.532500000000 22.461965421917 5.882895705740
6187 2 -1.200000000000 126.805500000000 21.927156721395 8.556939208349
6188 2 -1.200000000000 129.532500000000 21.927156721395 8.556939208349
6189 2 -1.200000000000 126.805500000000 25.136008924526 6.417704406262
6190 2 -1.200000000000 129.532500000000 25.136008924526 6.417704406262
6191 2 -1.200000000000 126.805500000000 24.601200224004 9.091747908871
6192 2 -1.200000000000 129.532500000000 24.601200224004 9.091747908871
6193 1 2.400000000000 65.448000000000 20.322730619829 9.626556609393
6194 1 2.400000000000 68.175000000000 19.787921919308 12.300600112002
6195 1 2.400000000000 68.175000000000 22.996774122439 10.161365309915
6196 1 2.400000000000 65.448000000000 22.461965421917 12.835408812524
6197 2 -1.200000000000 66.811500000000 21.392348020873 11.230982710958
6198 2 -1.200000000000 69.538500000000 21.392348020873 11.230982710958
6199 2 -1.200000000000 66.811500000000 20.857539320351 13.905026213568
6200 2 -1.200000000000 69.538500000000 20.857539320351 13.905026213568
6201 2 -1.200000000000 66.811500000000 24.066391523482 11.765791411480
6202 2 -1.200000000000 69.538500000000 24.066391523482 11.765791411480
6203 2 -1.200000000000 66.811500000000 23.531582822960 14.439834914089
6204 2 -1.200000000000 69.538500000000 23.531582822960 14.439834914089
6205 1 2.400000000000 70.902000000000 20.322730619829 9.626556609393
6206 1 2.400000000000 73.629000000000 19.787921919308 12.300600112002
6207 1 2.400000000000 73.629000000000 22.996774122439 10.161365309915
6208 1 2.400000000000 70.902000000000 22.461965421917 12.835408812524
6209 2 -1.200000000000 72.265500000000 21.392348020873 11.230982710958
6210 2 -1.200000000000 74.992500000000 21.392348020873 11.230982710958
6211 2 -1.200000000000 72.265500000000 20.857539320351 13.905026213568
6212 2 -1.200000000000 74.992500000000 20.857539320351 13.905026213568
6213 2 -1.200000000000 72.265500000000 24.066391523482 11.765791411480
6214 2 -1.200000000000 74.992500000000 24.066391523482 11.765791411480
6215 2 -1.200000000000 72.265500000000 23.531582822960 14.439834914089
6216 2 -1.200000000000 74.992500000000 23.531582822960 14.439834914089
6217 1 2.400000000000 76.356000000000 20.322730619829 9.626556609393
6218 1 2.400000000000 79.083000000000 19.787921919308 12.300600112002
6219 1 2.400000000000 79.083000000000 22.996774122439 10.161365309915
6220 1 2.400000000000 76.356000000000 22.461965421917 12.835408812524
6221 2 -1.200000000000 77.719500000000 21.392348020873 11.230982710958
6222 2 -1.200000000000 80.446500000000 21.392348020873 11.230982710958
6223 2 -1.200000000000 77.719500000000 20.857539320351 13.905026213568
6224 2 -1.200000000000 80.446500000000 20.857539320351 13.905026213568
6225 2 -1.200000000000 77.719500000000 24.066391523482 11.765791411480
6226 2 -1.200000000000 80.446500000000 24.066391523482 11.765791411480
6227 2 -1.200000000000 77.719500000000 23.531582822960 14.439834914089
6228 2 -1.200000000000 80.446500000000 23.531582822960 14.439834914089
6229 1 2.400000000000 81.810000000000 20.322730619829 9.626556609393
6230 1 2.400000000000 84.537000000000 19.787921919308 12.300600112002
6231 1 2.400000000000 84.537000000000 22.996774122439 10.161365309915
6232 1 2.400000000000 81.810000000000 22.461965421917 12.835408812524
6233 2 -1.200000000000 83.173500000000 21.392348020873 11.230982710958
6234 2 -1.200000000000 85.900500000000 21.392348020873 11.230982710958
6235 2 -1.200000000000 83.173500000000 20.857539320351 13.905026213568
6236 2 -1.200000000000 85.900500000000 20.857539320351 13.905026213568
6237 2 -1.200000000000 83.173500000000 24.066391523482 11.765791411480
6238 2 -1.200000000000 85.900500000000 24.066391523482 11.765791411480
6239 2 -1.200000000000 83.173500000000 23.531582822960 14.439834914089
6240 2 -1.200000000000 85.900500000000 23.531582822960 14.439834914089
6241 1 2.400000000000 87.264000000000 20.322730619829 9.626556609393
6242 1 2.400000000000 89.991000000000 19.787921919308 12.300600112002
6243 1 2.400000000000 89.991000000000 22.996774122439 10.161365309915
6244 1 2.400000000000 87.264000000000 22.461965421917 12.835408812524
6245 2 -1.200000000000 88.627500000000 21.392348020873 11.230982710958
6246 2 -1.200000000000 91.354500000000 21.392348020873 11.230982710958
6247 2 -1.200000000000 88.627500000000 20.857539320351 13.905026213568
6248 2 -1.200000000000 91.354500000000 20.857539320351 13.905026213568
6249 2 -1.200000000000 88.627500000000 24.066391523482 11.765791411480
6250 2 -1.200000000000 91.354500000000 24.066391523482 11.765791411480
6251 2 -1.200000000000 88.627500000000 23.531582822960 14.439834914089
6252 2 -1.200000000000 91.354500000000 23.531582822960 14.439834914089
6253 1 2.400000000000 92.718000000000 20.322730619829 9.626556609393
6254 1 2.400000000000 95.445000000000 19.787921919308 12.300600112002
6255 1 2.400000000000 95.445000000000 22.996774122439 10.161365309915
6256 1 2.400000000000 92.718000000000 22.461965421917 12.835408812524
6257 2 -1.200000000000 94.081500000000 21.392348020873 11.230982710958
6258 2 -1.200000000000 96.808500000000 21.392348020873 11.230982710958
6259 2 -1.200000000000 94.081500000000 20.857539320351 13.905026213568
6260 2 -1.200000000000 96.808500000000 20.857539320351 13.905026213568
6261 2 -1.200000000000 94.081500000000 24.066391523482 11.765791411480
6262 2 -1.200000000000 96.808500000000 24.066391523482 11.765791411480
6263 2 -1.200000000000 94.081500000000 23.531582822960 14.439834914089
6264 2 -1.200000000000 96.808500000000 23.531582822960 14.439834914089
6265 1 2.400000000000 98.172000000000 20.322730619829 9.626556609393
6266 1 2.400000000000 100.899000000000 19.787921919308 12.300600112002
6267 1 2.400000000000 100.899000000000 22.996774122439 10.161365309915
6268 1 2.400000000000 98.172000000000 22.461965421917 12.835408812524
6269 2 -1.200000000000 99.535500000000 21.392348020873 11.230982710958
6270 2 -1.200000000000 102.262500000000 21.392348020873 11.230982710958
6271 2 -1.200000000000 99.535500000000 20.857539320351 13.905026213568
6272 2 -1.200000000000 102.262500000000 20.857539320351 13.905026213568
6273 2 -1.200000000000 99.535500000000 24.066391523482 11.765791411480
6274 2 -1.200000000000 102.262500000000 24.066391523482 11.765791411480
6275 2 -1.200000000000 99.535500000000 23.531582822960 14.439834914089
6276 2 -1.200000000000 102.262500000000 23.531582822960 14.439834914089
6277 1 2.400000000000 103.626000000000 20.322730619829 9.626556609393
6278 1 2.400000000000 106.353000000000 19.787921919308 12.300600112002
6279 1 2.400000000000 106.353000000000 22.996774122439 10.161365309915
6280 1 2.400000000000 103.626000000000 22.461965421917 12.835408812524
6281 2 -1.200000000000 104.989500000000 21.392348020873 11.230982710958
6282 2 -1.200000000000 107.716500000000 21.392348020873 11.230982710958
6283 2 -1.200000000000 104.989500000000 20.857539320351 13.905026213568
6284 2 -1.200000000000 107.716500000000 20.857539320351 13.905026213568
6285 2 -1.200000000000 104.989500000000 24.066391523482 11.765791411480
6286 2 -1.200000000000 107.716500000000 24.066391523482 11.765791411480
6287 2 -1.200000000000 104.989500000000 23.531582822960 14.439834914089
6288 2 -1.200000000000 107.716500000000 23.531582822960 14.439834914089
6289 1 2.400000000000 109.080000000000 20.322730619829 9.626556609393
6290 1 2.400000000000 111.807000000000 19.787921919308 12.300600112002
6291 1 2.400000000000 111.807000000000 22.996774122439 10.161365309915
6292 1 2.400000000000 109.080000000000 22.461965421917 12.835408812524
6293 2 -1.200000000000 110.443500000000 21.392348020873 11.230982710958
6294 2 -1.200000000000 113.170500000000 21.392348020873 11.230982710958
6295 2 -1.200000000000 110.443500000000 20.857539320351 13.905026213568
6296 2 -1.200000000000 113.170500000000 20.857539320351 13.905026213568
6297 2 -1.200000000000 110.443500000000 24.066391523482 11.765791411480
6298 2 -1.200000000000 113.170500000000 24.066391523482 11.765791411480
6299 2 -1.200000000000 110.443500000000 23.531582822960 14.439834914089
6300 2 -1.200000000000 113.170500000000 23.531582822960 14.439834914089
6301 1 2.400000000000 114.534000000000 20.322730619829 9.626556609393
6302 1 2.400000000000 117.261000000000 19.787921919308 12.300600112002
6303 1 2.400000000000 117.261000000000 22.996774122439 10.161365309915
6304 1 2.400000000000 114.534000000000 22.461965421917 12.835408812524
6305 2 -1.200000000000 115.897500000000 21.392348020873 11.230982710958
6306 2 -1.200000000000 118.624500000000 21.392348020873 11.230982710958
6307 2 -1.200000000000 115.897500000000 20.857539320351 13.905026213568
6308 2 -1.200000000000 118.624500000000 20.857539320351 13.905026213568
6309 2 -1.200000000000 115.897500000000 24.066391523482 11.765791411480
6310 2 -1.200000000000 118.624500000000 24.066391523482 11.765791411480
6311 2 -1.200000000000 115.897500000000 23.531582822960 14.439834914089
6312 2 -1.200000000000 118.624500000000 23.531582822960 14.439834914089
6313 1 2.400000000000 119.988000000000 20.322730619829 9.626556609393
6314 1 2.400000000000 122.715000000000 19.787921919308 12.300600112002
6315 1 2.400000000000 122.715000000000 22.996774122439 10.161365309915
6316 1 2.400000000000 119.988000000000 22.461965421917 12.835408812524
6317 2 -1.200000000000 121.351500000000 21.392348020873 11.230982710958
6318 2 -1.200000000000 124.078500000000 21.392348020873 11.230982710958
6319 2 -1.200000000000 121.351500000000 20.857539320351 13.905026213568
6320 2 -1.200000000000 124.078500000000 20.857539320351 13.905026213568
6321 2 -1.200000000000 121.351500000000 24.066391523482 11.765791411480
6322 2 -1.200000000000 124.078500000000 24.066391523482 11.765791411480
6323 2 -1.200000000000 121.351500000000 23.531582822960 14.439834914089
6324 2 -1.200000000000 124.078500000000 23.531582822960 14.439834914089
6325 1 2.400000000000 125.442000000000 20.322730619829 9.626556609393
6326 1 2.400000000000 128.169000000000 19.787921919308 12.300600112002
6327 1 2.400000000000 128.169000000000 22.996774122439 10.161365309915
6328 1 2.400000000000 125.442000000000 22.461965421917 12.835408812524
6329 2 -1.200000000000 126.805500000000 21.392348020873 11.230982710958
6330 2 -1.200000000000 129.532500000000 21.392348020873 11.230982710958
6331 2 -1.200000000000 126.805500000000 20.857539320351 13.905026213568
6332 2 -1.200000000000 129.532500000000 20.857539320351 13.905026213568
6333 2 -1.200000000000 126.805500000000 24.066391523482 11.765791411480
6334 2 -1.200000000000 129.532500000000 24.066391523482 11.765791411480
6335 2 -1.200000000000 126.805500000000 23.531582822960 14.439834914089
6336 2 -1.200000000000 129.532500000000 23.531582822960 14.439834914089
6337 1 2.400000000000 65.448000000000 19.253113218786 14.974643614611
6338 1 2.400000000000 68.175000000000 18.718304518264 17.648687117220
6339 1 2.400000000000 68.175000000000 21.927156721395 15.509452315133
6340 1 2.400000000000 65.448000000000 21.392348020873 18.183495817742
6341 2 -1.200000000000 66.811500000000 20.322730619829 16.579069716177
6342 2 -1.200000000000 69.538500000000 20.322730619829 16.579069716177
6343 2 -1.200000000000 66.811500000000 19.787921919308 19.253113218786
6344 2 -1.200000000000 69.538500000000 19.787921919308 19.253113218786
6345 2 -1.200000000000 66.811500000000 22.996774122439 17.113878416698
6346 2 -1.200000000000 69.538500000000 22.996774122439 17.113878416698
6347 2 -1.200000000000 66.811500000000 22.461965421917 19.787921919308
6348 2 -1.200000000000 69.538500000000 22.461965421917 19.787921919308
6349 1 2.400000000000 70.902000000000 19.253113218786 14.974643614611
6350 1 2.400000000000 73.629000000000 18.718304518264 17.648687117220
6351 1 2.400000000000 73.629000000000 21.927156721395 15.509452315133
6352 1 2.400000000000 70.902000000000 21.392348020873 18.183495817742
6353 2 -1.200000000000 72.265500000000 20.322730619829 16.579069716177
6354 2 -1.200000000000 74.992500000000 20.322730619829 16.579069716177
6355 2 -1.200000000000 72.265500000000 19.787921919308 19.253113218786
6356 2 -1.200000000000 74.992500000000 19.787921919308 19.253113218786
6357 2 -1.200000000000 72.265500000000 22.996774122439 17.113878416698
6358 2 -1.200000000000 74.992500000000 22.996774122439 17.113878416698
6359 2 -1.200000000000 72.265500000000 22.461965421917 19.787921919308
6360 2 -1.200000000000 74.992500000000 22.461965421917 19.787921919308
6361 1 2.400000000000 76.356000000000 19.253113218786 14.974643614611
6362 1 2.400000000000 79.083000000000 18.718304518264 17.648687117220
6363 1 2.400000000000 79.083000000000 21.927156721395 15.509452315133
6364 1 2.400000000000 76.356000000000 21.392348020873 18.183495817742
6365 2 -1.200000000000 77.719500000000 20.322730619829 16.579069716177
6366 2 -1.200000000000 80.446500000000 20.322730619829 16.579069716177
6367 2 -1.200000000000 77.719500000000 19.787921919308 19.253113218786
6368 2 -1.200000000000 80.446500000000 19.787921919308 19.253113218786
6369 2 -1.200000000000 77.719500000000 22.996774122439 17.113878416698
6370 2 -1.200000000000 80.446500000000 22.996774122439 17.113878416698
6371 2 -1.200000000000 77.719500000000 22.461965421917 19.787921919308
6372 2 -1.200000000000 80.446500000000 22.461965421917 19.787921919308
6373 1 2.400000000000 81.810000000000 19.253113218786 14.974643614611
6374 1 2.400000000000 84.537000000000 18.718304518264 17.648687117220
6375 1 2.400000000000 84.537000000000 21.927156721395 15.509452315133
6376 1 2.400000000000 81.810000000000 21.392348020873 18.183495817742
6377 2 -1.200000000000 83.173500000000 20.322730619829 16.579069716177
6378 2 -1.200000000000 85.900500000000 20.322730619829 16.579069716177
6379 2 -1.200000000000 83.173500000000 19.787921919308 19.253113218786
6380 2 -1.200000000000 85.900500000000 19.787921919308 19.253113218786
6381 2 -1.200000000000 83.173500000000 22.996774122439 17.113878416698
6382 2 -1.200000000000 85.900500000000 22.996774122439 17.113878416698
6383 2 -1.200000000000 83.173500000000 22.461965421917 19.787921919308
6384 2 -1.200000000000 85.900500000000 22.461965421917 19.787921919308
6385 1 2.400000000000 87.264000000000 19.253113218786 14.974643614611
6386 1 2.400000000000 89.991000000000 18.718304518264 17.648687117220
6387 1 2.400000000000 89.991000000000 21.927156721395 15.509452315133
6388 1 2.400000000000 87.264000000000 21.392348020873 18.183495817742
6389 2 -1.200000000000 88.627500000000 20.322730619829 16.579069716177
6390 2 -1.200000000000 91.354500000000 20.322730619829 16.579069716177
6391 2 -1.200000000000 88.627500000000 19.787921919308 19.253113218786
6392 2 -1.200000000000 91.354500000000 19.787921919308 19.253113218786
6393 2 -1.200000000000 88.627500000000 22.996774122439 17.113878416698
6394 2 -1.200000000000 91.354500000000 22.996774122439 17.113878416698
6395 2 -1.200000000000 88.627500000000 22.461965421917 19.787921919308
6396 2 -1.200000000000 91.354500000000 22.461965421917 19.787921919308
6397 1 2.400000000000 92.718000000000 19.253113218786 14.974643614611
6398 1 2.400000000000 95.445000000000 18.718304518264 17.648687117220
6399 1 2.400000000000 95.445000000000 21.927156721395 15.509452315133
6400 1 2.400000000000 92.718000000000 21.392348020873 18.183495817742
6401 2 -1.200000000000 94.081500000000 20.322730619829 16.579069716177
6402 2 -1.200000000000 96.808500000000 20.322730619829 16.579069716177
6403 2 -1.200000000000 94.081500000000 19.787921919308 19.253113218786
6404 2 -1.200000000000 96.808500000000 19.787921919308 19.253113218786
6405 2 -1.200000000000 94.081500000000 22.996774122439 17.113878416698
6406 2 -1.200000000000 96.808500000000 22.996774122439 17.113878416698
6407 2 -1.200000000000 94.081500000000 22.461965421917 19.787921919308
6408 2 -1.200000000000 96.808500000000 22.461965421917 19.787921919308
6409 1 2.400000000000 98.172000000000 19.253113218786 14.974643614611
6410 1 2.400000000000 100.899000000000 18.718304518264 17.648687117220
6411 1 2.400000000000 100.899000000000 21.927156721395 15.509452315133
6412 1 2.400000000000 98.172000000000 21.392348020873 18.183495817742
6413 2 -1.200000000000 99.535500000000 20.322730619829 16.579069716177
6414 2 -1.200000000000 102.262500000000 20.322730619829 16.579069716177
6415 2 -1.200000000000 99.535500000000 19.787921919308 19.253113218786
6416 2 -1.200000000000 102.262500000000 19.787921919308 19.253113218786
6417 2 -1.200000000000 99.535500000000 22.996774122439 17.113878416698
6418 2 -1.200000000000 102.262500000000 22.996774122439 17.113878416698
6419 2 -1.200000000000 99.535500000000 22.461965421917 19.787921919308
6420 2 -1.200000000000 102.262500000000 22.461965421917 19.787921919308
6421 1 2.400000000000 103.626000000000 19.253113218786 14.974643614611
6422 1 2.400000000000 106.353000000000 18.718304518264 17.648687117220
6423 1 2.400000000000 106.353000000000 21.927156721395 15.509452315133
6424 1 2.400000000000 103.626000000000 21.392348020873 18.183495817742
6425 2 -1.200000000000 104.989500000000 20.322730619829 16.579069716177
6426 2 -1.200000000000 107.716500000000 20.322730619829 16.579069716177
6427 2 -1.200000000000 104.989500000000 19.787921919308 19.253113218786
6428 2 -1.200000000000 107.716500000000 19.787921919308 19.253113218786
6429 2 -1.200000000000 104.989500000000 22.996774122439 17.113878416698
6430 2 -1.200000000000 107.716500000000 22.996774122439 17.113878416698
6431 2 -1.200000000000 104.989500000000 22.461965421917 19.787921919308
6432 2 -1.200000000000 107.716500000000 22.461965421917 19.787921919308
6433 1 2.400000000000 109.080000000000 19.253113218786 14.974643614611
6434 1 2.400000000000 111.807000000000 18.718304518264 17.648687117220
6435 1 2.400000000000 111.807000000000 21.927156721395 15.509452315133
6436 1 2.400000000000 109.080000000000 21.392348020873 18.183495817742
6437 2 -1.200000000000 110.443500000000 20.322730619829 16.579069716177
6438 2 -1.200000000000 113.170500000000 20.322730619829 16.579069716177
6439 2 -1.200000000000 110.443500000000 19.787921919308 19.253113218786
6440 2 -1.200000000000 113.170500000000 19.787921919308 19.253113218786
6441 2 -1.200000000000 110.443500000000 22.996774122439 17.113878416698
6442 2 -1.200000000000 113.170500000000 22.996774122439 17.113878416698
6443 2 -1.200000000000 110.443500000000 22.461965421917 19.787921919308
6444 2 -1.200000000000 113.170500000000 22.461965421917 19.787921919308
6445 1 2.400000000000 114.534000000000 19.253113218786 14.974643614611
6446 1 2.400000000000 117.261000000000 18.718304518264 17.648687117220
6447 1 2.400000000000 117.261000000000 21.927156721395 15.509452315133
6448 1 2.400000000000 114.534000000000 21.392348020873 18.183495817742
6449 2 -1.200000000000 115.897500000000 20.322730619829 16.579069716177
6450 2 -1.200000000000 118.624500000000 20.322730619829 16.579069716177
6451 2 -1.200000000000 115.897500000000 19.787921919308 19.253113218786
6452 2 -1.200000000000 118.624500000000 19.787921919308 19.253113218786
6453 2 -1.200000000000 115.897500000000 22.996774122439 17.113878416698
6454 2 -1.200000000000 118.624500000000 22.996774122439 17.113878416698
6455 2 -1.200000000000 115.897500000000 22.461965421917 19.787921919308
6456 2 -1.200000000000 118.624500000000 22.461965421917 19.787921919308
6457 1 2.400000000000 119.988000000000 19.253113218786 14.974643614611
6458 1 2.400000000000 122.715000000000 18.718304518264 17.648687117220
6459 1 2.400000000000 122.715000000000 21.927156721395 15.509452315133
6460 1 2.400000000000 119.988000000000 21.392348020873 18.183495817742
6461 2 -1.200000000000 121.351500000000 20.322730619829 16.579069716177
6462 2 -1.200000000000 124.078500000000 20.322730619829 16.579069716177
6463 2 -1.200000000000 121.351500000000 19.787921919308 19.253113218786
6464 2 -1.200000000000 124.078500000000 19.787921919308 19.253113218786
6465 2 -1.200000000000 121.351500000000 22.996774122439 17.113878416698
6466 2 -1.200000000000 124.078500000000 22.996774122439 17.113878416698
6467 2 -1.200000000000 121.351500000000 22.461965421917 19.787921919308
6468 2 -1.200000000000 124.078500000000 22.461965421917 19.787921919308
6469 1 2.400000000000 125.442000000000 19.253113218786 14.974643614611
6470 1 2.400000000000 128.169000000000 18.718304518264 17.648687117220
6471 1 2.400000000000 128.169000000000 21.927156721395 15.509452315133
6472 1 2.400000000000 125.442000000000 21.392348020873 18.183495817742
6473 2 -1.200000000000 126.805500000000 20.322730619829 16.579069716177
6474 2 -1.200000000000 129.532500000000 20.322730619829 16.579069716177
6475 2 -1.200000000000 126.805500000000 19.787921919308 19.253113218786
6476 2 -1.200000000000 129.532500000000 19.787921919308 19.253113218786
6477 2 -1.200000000000 126.805500000000 22.996774122439 17.113878416698
6478 2 -1.200000000000 129.532500000000 22.996774122439 17.113878416698
6479 2 -1.200000000000 126.805500000000 22.461965421917 19.787921919308
6480 2 -1.200000000000 129.532500000000 22.461965421917 19.787921919308
6481 1 2.400000000000 65.448000000000 18.183495817742 20.322730619829
6482 1 2.400000000000 68.175000000000 17.648687117220 22.996774122439
6483 1 2.400000000000 68.175000000000 20.857539320351 20.857539320351
6484 1 2.400000000000 65.448000000000 20.322730619829 23.531582822960
6485 2 -1.200000000000 66.811500000000 19.253113218786 21.927156721395
6486 2 -1.200000000000 69.538500000000 19.253113218786 21.927156721395
6487 2 -1.200000000000 66.811500000000 18.718304518264 24.601200224004
6488 2 -1.200000000000 69.538500000000 18.718304518264 24.601200224004
6489 2 -1.200000000000 66.811500000000 21.927156721395 22.461965421917
6490 2 -1.200000000000 69.538500000000 21.927156721395 22.461965421917
6491 2 -1.200000000000 66.811500000000 21.392348020873 25.136008924526
6492 2 -1.200000000000 69.538500000000 21.392348020873 25.136008924526
6493 1 2.400000000000 70.902000000000 18.183495817742 20.322730619829
6494 1 2.400000000000 73.629000000000 17.648687117220 22.996774122439
6495 1 2.400000000000 73.629000000000 20.857539320351 20.857539320351
6496 1 2.400000000000 70.902000000000 20.322730619829 23.531582822960
6497 2 -1.200000000000 72.265500000000 19.253113218786 21.927156721395
6498 2 -1.200000000000 74.992500000000 19.253113218786 21.927156721395
6499 2 -1.200000000000 72.265500000000 18.718304518264 24.601200224004
6500 2 -1.200000000000 74.992500000000 18.718304518264 24.601200224004
6501 2 -1.200000000000 72.265500000000 21.927156721395 22.461965421917
6502 2 -1.200000000000 74.992500000000 21.927156721395 22.461965421917
6503 2 -1.200000000000 72.265500000000 21.392348020873 25.136008924526
6504 2 -1.200000000000 74.992500000000 21.392348020873 25.136008924526
6505 1 2.400000000000 76.356000000000 18.183495817742 20.322730619829
6506 1 2.400000000000 79.083000000000 17.648687117220 22.996774122439
6507 1 2.400000000000 79.083000000000 20.857539320351 20.857539320351
6508 1 2.400000000000 76.356000000000 20.322730619829 23.531582822960
6509 2 -1.200000000000 77.719500000000 19.253113218786 21.927156721395
6510 2 -1.200000000000 80.446500000000 19.253113218786 21.927156721395
6511 2 -1.200000000000 77.719500000000 18.718304518264 24.601200224004
6512 2 -1.200000000000 80.446500000000 18.718304518264 24.601200224004
6513 2 -1.200000000000 77.719500000000 21.927156721395 22.461965421917
6514 2 -1.200000000000 80.446500000000 21.927156721395 22.461965421917
6515 2 -1.200000000000 77.719500000000 21.392348020873 25.136008924526
6516 2 -1.200000000000 80.446500000000 21.392348020873 25.136008924526
6517 1 2.400000000000 81.810000000000 18.183495817742 20.322730619829
6518 1 2.400000000000 84.537000000000 17.648687117220 22.996774122439
6519 1 2.400000000000 84.537000000000 20.857539320351 20.857539320351
6520 1 2.400000000000 81.810000000000 20.322730619829 23.531582822960
6521 2 -1.200000000000 83.173500000000 19.253113218786 21.927156721395
6522 2 -1.200000000000 85.900500000000 19.253113218786 21.927156721395
6523 2 -1.200000000000 83.173500000000 18.718304518264 24.601200224004
6524 2 -1.200000000000 85.900500000000 18.718304518264 24.601200224004
6525 2 -1.200000000000 83.173500000000 21.927156721395 22.461965421917
6526 2 -1.200000000000 85.900500000000 21.927156721395 22.461965421917
6527 2 -1.200000000000 83.173500000000 21.392348020873 25.136008924526
6528 2 -1.200000000000 85.900500000000 21.392348020873 25.136008924526
6529 1 2.400000000000 87.264000000000 18.183495817742 20.322730619829
6530 1 2.400000000000 89.991000000000 17.648687117220 22.996774122439
6531 1 2.400000000000 89.991000000000 20.857539320351 20.857539320351
6532 1 2.400000000000 87.264000000000 20.322730619829 23.531582822960
6533 2 -1.200000000000 88.627500000000 19.253113218786 21.927156721395
6534 2 -1.200000000000 91.354500000000 19.253113218786 21.927156721395
6535 2 -1.200000000000 88.627500000000 18.718304518264 24.601200224004
6536 2 -1.200000000000 91.354500000000 18.718304518264 24.601200224004
6537 2 -1.200000000000 88.627500000000 21.927156721395 22.461965421917
6538 2 -1.200000000000 91.354500000000 21.927156721395 22.461965421917
6539 2 -1.200000000000 88.627500000000 21.392348020873 25.136008924526
6540 2 -1.200000000000 91.354500000000 21.392348020873 25.136008924526
6541 1 2.400000000000 92.718000000000 18.183495817742 20.322730619829
6542 1 2.400000000000 95.445000000000 17.648687117220 22.996774122439
6543 1 2.400000000000 95.445000000000 20.857539320351 20.857539320351
6544 1 2.400000000000 92.718000000000 20.322730619829 23.531582822960
6545 2 -1.200000000000 94.081500000000 19.253113218786 21.927156721395
6546 2 -1.200000000000 96.808500000000 19.253113218786 21.927156721395
6547 2 -1.200000000000 94.081500000000 18.718304518264 24.601200224004
6548 2 -1.200000000000 96.808500000000 18.718304518264 24.601200224004
6549 2 -1.200000000000 94.081500000000 21.927156721395 22.461965421917
6550 2 -1.200000000000 96.808500000000 21.927156721395 22.461965421917
6551 2 -1.200000000000 94.081500000000 21.392348020873 25.136008924526
6552 2 -1.200000000000 96.808500000000 21.392348020873 25.136008924526
6553 1 2.400000000000 98.172000000000 18.183495817742 20.322730619829
6554 1 2.400000000000 100.899000000000 17.648687117220 22.996774122439
6555 1 2.400000000000 100.899000000000 20.857539320351 20.857539320351
6556 1 2.400000000000 98.172000000000 20.322730619829 23.531582822960
6557 2 -1.200000000000 99.535500000000 19.253113218786 21.927156721395
6558 2 -1.200000000000 102.262500000000 19.253113218786 21.927156721395
6559 2 -1.200000000000 99.535500000000 18.718304518264 24.601200224004
6560 2 -1.200000000000 102.262500000000 18.718304518264 24.601200224004
6561 2 -1.200000000000 99.535500000000 21.927156721395 22.461965421917
6562 2 -1.200000000000 102.262500000000 21.927156721395 22.461965421917
6563 2 -1.200000000000 99.535500000000 21.392348020873 25.136008924526
6564 2 -1.200000000000 102.262500000000 21.392348020873 25.136008924526
6565 1 2.400000000000 103.626000000000 18.183495817742 20.322730619829
6566 1 2.400000000000 106.353000000000 17.648687117220 22.996774122439
6567 1 2.400000000000 106.353000000000 20.857539320351 20.857539320351
6568 1 2.400000000000 103.626000000000 20.322730619829 23.531582822960
6569 2 -1.200000000000 104.989500000000 19.253113218786 21.927156721395
6570 2 -1.200000000000 107.716500000000 19.253113218786 21.927156721395
6571 2 -1.200000000000 104.989500000000 18.718304518264 24.601200224004
6572 2 -1.200000000000 107.716500000000 18.718304518264 24.601200224004
6573 2 -1.200000000000 104.989500000000 21.927156721395 22.461965421917
6574 2 -1.200000000000 107.716500000000 21.927156721395 22.461965421917
6575 2 -1.200000000000 104.989500000000 21.392348020873 25.136008924526
6576 2 -1.200000000000 107.716500000000 21.392348020873 25.136008924526
6577 1 2.400000000000 109.080000000000 18.183495817742 20.322730619829
6578 1 2.400000000000 111.807000000000 17.648687117220 22.996774122439
6579 1 2.400000000000 111.807000000000 20.857539320351 20.857539320351
6580 1 2.400000000000 109.080000000000 20.322730619829 23.531582822960
6581 2 -1.200000000000 110.443500000000 19.253113218786 21.927156721395
6582 2 -1.200000000000 113.170500000000 19.253113218786 21.927156721395
6583 2 -1.200000000000 110.443500000000 18.718304518264 24.601200224004
6584 2 -1.200000000000 113.170500000000 18.718304518264 24.601200224004
6585 2 -1.200000000000 110.443500000000 21.927156721395 22.461965421917
6586 2 -1.200000000000 113.170500000000 21.927156721395 22.461965421917
6587 2 -1.200000000000 110.443500000000 21.392348020873 25.136008924526
6588 2 -1.200000000000 113.170500000000 21.392348020873 25.136008924526
6589 1 2.400000000000 114.534000000000 18.183495817742 20.322730619829
6590 1 2.400000000000 117.261000000000 17.648687117220 22.996774122439
6591 1 2.400000000000 117.261000000000 20.857539320351 20.857539320351
6592 1 2.400000000000 114.534000000000 20.322730619829 23.531582822960
6593 2 -1.200000000000 115.897500000000 19.253113218786 21.927156721395
6594 2 -1.200000000000 118.624500000000 19.253113218786 21.927156721395
6595 2 -1.200000000000 115.897500000000 18.718304518264 24.601200224004
6596 2 -1.200000000000 118.624500000000 18.718304518264 24.601200224004
6597 2 -1.200000000000 115.897500000000 21.927156721395 22.461965421917
6598 2 -1.200000000000 118.624500000000 21.927156721395 22.461965421917
6599 2 -1.200000000000 115.897500000000 21.392348020873 25.136008924526
6600 2 -1.200000000000 118.624500000000 21.392348020873 25.136008924526
6601 1 2.400000000000 119.988000000000 18.183495817742 20.322730619829
6602 1 2.400000000000 122.715000000000 17.648687117220 22.996774122439
6603 1 2.400000000000 122.715000000000 20.857539320351 20.857539320351
6604 1 2.400000000000 119.988000000000 20.322730619829 23.531582822960
6605 2 -1.200000000000 121.351500000000 19.253113218786 21.927156721395
6606 2 -1.200000000000 124.078500000000 19.253113218786 21.927156721395
6607 2 -1.200000000000 121.351500000000 18.718304518264 24.601200224004
6608 2 -1.200000000000 124.078500000000 18.718304518264 24.601200224004
6609 2 -1.200000000000 121.351500000000 21.927156721395 22.461965421917
6610 2 -1.200000000000 124.078500000000 21.927156721395 22.461965421917
6611 2 -1.200000000000 121.351500000000 21.392348020873 25.136008924526
6612 2 -1.200000000000 124.078500000000 21.392348020873 25.136008924526
6613 1 2.400000000000 125.442000000000 18.183495817742 20.322730619829
6614 1 2.400000000000 128.169000000000 17.648687117220 22.996774122439
6615 1 2.400000000000 128.169000000000 20.857539320351 20.857539320351
6616 1 2.400000000000 125.442000000000 20.322730619829 23.531582822960
6617 2 -1.200000000000 126.805500000000 19.253113218786 21.927156721395
6618 2 -1.200000000000 129.532500000000 19.253113218786 21.927156721395
6619 2 -1.200000000000 126.805500000000 18.718304518264 24.601200224004
6620 2 -1.200000000000 129.532500000000 18.718304518264 24.601200224004
6621 2 -1.200000000000 126.805500000000 21.927156721395 22.461965421917
6622 2 -1.200000000000 129.532500000000 21.927156721395 22.461965421917
6623 2 -1.200000000000 126.805500000000 21.392348020873 25.136008924526
6624 2 -1.200000000000 129.532500000000 21.392348020873 25.136008924526
6625 1 2.400000000000 65.448000000000 17.113878416698 25.670817625048
6626 1 2.400000000000 68.175000000000 16.579069716177 0.534808700522
6627 1 2.400000000000 68.175000000000 19.787921919308 26.205626325570
6628 1 2.400000000000 65.448000000000 19.253113218786 1.069617401044
6629 2 -1.200000000000 66.811500000000 18.183495817742 27.275243726613
6630 2 -1.200000000000 69.538500000000 18.183495817742 27.275243726613
6631 2 -1.200000000000 66.811500000000 17.648687117220 2.139234802087
6632 2 -1.200000000000 69.538500000000 17.648687117220 2.139234802087
6633 2 -1.200000000000 66.811500000000 20.857539320351 0.000000000000
6634 2 -1.200000000000 69.538500000000 20.857539320351 0.000000000000
6635 2 -1.200000000000 66.811500000000 20.322730619829 2.674043502609
6636 2 -1.200000000000 69.538500000000 20.322730619829 2.674043502609
6637 1 2.400000000000 70.902000000000 17.113878416698 25.670817625048
6638 1 2.400000000000 73.629000000000 16.579069716177 0.534808700522
6639 1 2.400000000000 73.629000000000 19.787921919308 26.205626325570
6640 1 2.400000000000 70.902000000000 19.253113218786 1.069617401044
6641 2 -1.200000000000 72.265500000000 18.183495817742 27.275243726613
6642 2 -1.200000000000 74.992500000000 18.183495817742 27.275243726613
6643 2 -1.200000000000 72.265500000000 17.648687117220 2.139234802087
6644 2 -1.200000000000 74.992500000000 17.648687117220 2.139234802087
6645 2 -1.200000000000 72.265500000000 20.857539320351 0.000000000000
6646 2 -1.200000000000 74.992500000000 20.857539320351 0.000000000000
6647 2 -1.200000000000 72.265500000000 20.322730619829 2.674043502609
6648 2 -1.200000000000 74.992500000000 20.322730619829 2.674043502609
6649 1 2.400000000000 76.356000000000 17.113878416698 25.670817625048
6650 1 2.400000000000 79.083000000000 16.579069716177 0.534808700522
6651 1 2.400000000000 79.083000000000 19.787921919308 26.205626325570
6652 1 2.400000000000 76.356000000000 19.253113218786 1.069617401044
6653 2 -1.200000000000 77.719500000000 18.183495817742 27.275243726613
6654 2 -1.200000000000 80.446500000000 18.183495817742 27.275243726613
6655 2 -1.200000000000 77.719500000000 17.648687117220 2.139234802087
6656 2 -1.200000000000 80.446500000000 17.648687117220 2.139234802087
6657 2 -1.200000000000 77.719500000000 20.857539320351 0.000000000000
6658 2 -1.200000000000 80.446500000000 20.857539320351 0.000000000000
6659 2 -1.200000000000 77.719500000000 20.322730619829 2.674043502609
6660 2 -1.200000000000 80.446500000000 20.322730619829 2.674043502609
6661 1 2.400000000000 81.810000000000 17.113878416698 25.670817625048
6662 1 2.400000000000 84.537000000000 16.579069716177 0.534808700522
6663 1 2.400000000000 84.537000000000 19.787921919308 26.205626325570
6664 1 2.400000000000 81.810000000000 19.253113218786 1.069617401044
6665 2 -1.200000000000 83.173500000000 18.183495817742 27.275243726613
6666 2 -1.200000000000 85.900500000000 18.183495817742 27.275243726613
6667 2 -1.200000000000 83.173500000000 17.648687117220 2.139234802087
6668 2 -1.200000000000 85.900500000000 17.648687117220 2.139234802087
6669 2 -1.200000000000 83.173500000000 20.857539320351 0.000000000000
6670 2 -1.200000000000 85.900500000000 20.857539320351 0.000000000000
6671 2 -1.200000000000 83.173500000000 20.322730619829 2.674043502609
6672 2 -1.200000000000 85.900500000000 20.322730619829 2.674043502609
6673 1 2.400000000000 87.264000000000 17.113878416698 25.670817625048
6674 1 2.400000000000 89.991000000000 16.579069716177 0.534808700522
6675 1 2.400000000000 89.991000000000 19.787921919308 26.205626325570
6676 1 2.400000000000 87.264000000000 19.253113218786 1.069617401044
6677 2 -1.200000000000 88.627500000000 18.183495817742 27.275243726613
6678 2 -1.200000000000 91.354500000000 18.183495817742 27.275243726613
6679 2 -1.200000000000 88.627500000000 17.648687117220 2.139234802087
6680 2 -1.200000000000 91.354500000000 17.648687117220 2.139234802087
6681 2 -1.200000000000 88.627500000000 20.857539320351 0.000000000000
6682 2 -1.200000000000 91.354500000000 20.857539320351 0.000000000000
6683 2 -1.200000000000 88.627500000000 20.322730619829 2.674043502609
6684 2 -1.200000000000 91.354500000000 20.322730619829 2.674043502609
6685 1 2.400000000000 92.718000000000 17.113878416698 25.670817625048
6686 1 2.400000000000 95.445000000000 16.579069716177 0.534808700522
6687 1 2.400000000000 95.445000000000 19.787921919308 26.205626325570
6688 1 2.400000000000 92.718000000000 19.253113218786 1.069617401044
6689 2 -1.200000000000 94.081500000000 18.183495817742 27.275243726613
6690 2 -1.200000000000 96.808500000000 18.183495817742 27.275243726613
6691 2 -1.200000000000 94.081500000000 17.648687117220 2.139234802087
6692 2 -1.200000000000 96.808500000000 17.648687117220 2.139234802087
6693 2 -1.200000000000 94.081500000000 20.857539320351 0.000000000000
6694 2 -1.200000000000 96.808500000000 20.857539320351 0.000000000000
6695 2 -1.200000000000 94.081500000000 20.322730619829 2.674043502609
6696 2 -1.200000000000 96.808500000000 20.322730619829 2.674043502609
6697 1 2.400000000000 98.172000000000 17.113878416698 25.670817625048
6698 1 2.400000000000 100.899000000000 16.579069716177 0.534808700522
6699 1 2.400000000000 100.899000000000 19.787921919308 26.205626325570
6700 1 2.400000000000 98.172000000000 19.253113218786 1.069617401044
6701 2 -1.200000000000 99.535500000000 18.183495817742 27.275243726613
6702 2 -1.200000000000 102.262500000000 18.183495817742 27.275243726613
6703 2 -1.200000000000 99.535500000000 17.648687117220 2.139234802087
6704 2 -1.200000000000 102.262500000000 17.648687117220 2.139234802087
6705 2 -1.200000000000 99.535500000000 20.857539320351 0.000000000000
6706 2 -1.200000000000 102.262500000000 20.857539320351 0.000000000000
6707 2 -1.200000000000 99.535500000000 20.322730619829 2.674043502609
6708 2 -1.200000000000 102.262500000000 20.322730619829 2.674043502609
6709 1 2.400000000000 103.626000000000 17.113878416698 25.670817625048
6710 1 2.400000000000 106.353000000000 16.579069716177 0.534808700522
6711 1 2.400000000000 106.353000000000 19.787921919308 26.205626325570
6712 1 2.400000000000 103.626000000000 19.253113218786 1.069617401044
6713 2 -1.200000000000 104.989500000000 18.183495817742 27.275243726613
6714 2 -1.200000000000 107.716500000000 18.183495817742 27.275243726613
6715 2 -1.200000000000 104.989500000000 17.648687117220 2.139234802087
6716 2 -1.200000000000 107.716500000000 17.648687117220 2.139234802087
6717 2 -1.200000000000 104.989500000000 20.857539320351 0.000000000000
6718 2 -1.200000000000 107.716500000000 20.857539320351 0.000000000000
6719 2 -1.200000000000 104.989500000000 20.322730619829 2.674043502609
6720 2 -1.200000000000 107.716500000000 20.322730619829 2.674043502609
6721 1 2.400000000000 109.080000000000 17.113878416698 25.670817625048
6722 1 2.400000000000 111.807000000000 16.579069716177 0.534808700522
6723 1 2.400000000000 111.807000000000 19.787921919308 26.205626325570
6724 1 2.400000000000 109.080000000000 19.253113218786 1.069617401044
6725 2 -1.200000000000 110.443500000000 18.183495817742 27.275243726613
6726 2 -1.200000000000 113.170500000000 18.183495817742 27.275243726613
6727 2 -1.200000000000 110.443500000000 17.648687117220 2.139234802087
6728 2 -1.200000000000 113.170500000000 17.648687117220 2.139234802087
6729 2 -1.200000000000 110.443500000000 20.857539320351 0.000000000000
6730 2 -1.200000000000 113.170500000000 20.857539320351 0.000000000000
6731 2 -1.200000000000 110.443500000000 20.322730619829 2.674043502609
6732 2 -1.200000000000 113.170500000000 20.322730619829 2.674043502609
6733 1 2.400000000000 114.534000000000 17.113878416698 25.670817625048
6734 1 2.400000000000 117.261000000000 16.579069716177 0.534808700522
6735 1 2.400000000000 117.261000000000 19.787921919308 26.205626325570
6736 1 2.400000000000 114.534000000000 19.253113218786 1.069617401044
6737 2 -1.200000000000 115.897500000000 18.183495817742 27.275243726613
6738 2 -1.200000000000 118.624500000000 18.183495817742 27.275243726613
6739 2 -1.200000000000 115.897500000000 17.648687117220 2.139234802087
6740 2 -1.200000000000 118.624500000000 17.648687117220 2.139234802087
6741 2 -1.200000000000 115.897500000000 20.857539320351 0.000000000000
6742 2 -1.200000000000 118.624500000000 20.857539320351 0.000000000000
6743 2 -1.200000000000 115.897500000000 20.322730619829 2.674043502609
6744 2 -1.200000000000 118.624500000000 20.322730619829 2.674043502609
6745 1 2.400000000000 119.988000000000 17.113878416698 25.670817625048
6746 1 2.400000000000 122.715000000000 16.579069716177 0.534808700522
6747 1 2.400000000000 122.715000000000 19.787921919308 26.205626325570
6748 1 2.400000000000 119.988000000000 19.253113218786 1.069617401044
6749 2 -1.200000000000 121.351500000000 18.183495817742 27.275243726613
6750 2 -1.200000000000 124.078500000000 18.183495817742 27.275243726613
6751 2 -1.200000000000 121.351500000000 17.648687117220 2.139234802087
6752 2 -1.200000000000 124.078500000000 17.648687117220 2.139234802087
6753 2 -1.200000000000 121.351500000000 20.857539320351 0.000000000000
6754 2 -1.200000000000 124.078500000000 20.857539320351 0.000000000000
6755 2 -1.200000000000 121.351500000000 20.322730619829 2.674043502609
6756 2 -1.200000000000 124.078500000000 20.322730619829 2.674043502609
6757 1 2.400000000000 125.442000000000 17.113878416698 25.670817625048
6758 1 2.400000000000 128.169000000000 16.579069716177 0.534808700522
6759 1 2.400000000000 128.169000000000 19.787921919308 26.205626325570
6760 1 2.400000000000 125.442000000000 19.253113218786 1.069617401044
6761 2 -1.200000000000 126.805500000000 18.183495817742 27.275243726613
6762 2 -1.200000000000 129.532500000000 18.183495817742 27.275243726613
6763 2 -1.200000000000 126.805500000000 17.648687117220 2.139234802087
6764 2 -1.200000000000 129.532500000000 17.648687117220 2.139234802087
6765 2 -1.200000000000 126.805500000000 20.857539320351 0.000000000000
6766 2 -1.200000000000 129.532500000000 20.857539320351 0.000000000000
6767 2 -1.200000000000 126.805500000000 20.322730619829 2.674043502609
6768 2 -1.200000000000 129.532500000000 20.322730619829 2.674043502609
6769 1 2.400000000000 65.448000000000 26.740435026091 5.348087005218
6770 1 2.400000000000 68.175000000000 26.205626325570 8.022130507827
6771 1 2.400000000000 68.175000000000 1.604426101565 5.882895705740
6772 1 2.400000000000 65.448000000000 1.069617401044 8.556939208349
6773 2 -1.200000000000 66.811500000000 0.000000000000 6.952513106784
6774 2 -1.200000000000 69.538500000000 0.000000000000 6.952513106784
6775 2 -1.200000000000 66.811500000000 27.275243726613 9.626556609393
6776 2 -1.200000000000 69.538500000000 27.275243726613 9.626556609393
6777 2 -1.200000000000 66.811500000000 2.674043502609 7.487321807306
6778 2 -1.200000000000 69.538500000000 2.674043502609 7.487321807306
6779 2 -1.200000000000 66.811500000000 2.139234802087 10.161365309915
6780 2 -1.200000000000 69.538500000000 2.139234802087 10.161365309915
6781 1 2.400000000000 70.902000000000 26.740435026091 5.348087005218
6782 1 2.400000000000 73.629000000000 26.205626325570 8.022130507827
6783 1 2.400000000000 73.629000000000 1.604426101565 5.882895705740
6784 1 2.400000000000 70.902000000000 1.069617401044 8.556939208349
6785 2 -1.200000000000 72.265500000000 0.000000000000 6.952513106784
6786 2 -1.200000000000 74.992500000000 0.000000000000 6.952513106784
6787 2 -1.200000000000 72.265500000000 27.275243726613 9.626556609393
6788 2 -1.200000000000 74.992500000000 27.275243726613 9.626556609393
6789 2 -1.200000000000 72.265500000000 2.674043502609 7.487321807306
6790 2 -1.200000000000 74.992500000000 2.674043502609 7.487321807306
6791 2 -1.200000000000 72.265500000000 2.139234802087 10.161365309915
6792 2 -1.200000000000 74.992500000000 2.139234802087 10.161365309915
6793 1 2.400000000000 76.356000000000 26.740435026091 5.348087005218
6794 1 2.400000000000 79.083000000000 26.205626325570 8.022130507827
6795 1 2.400000000000 79.083000000000 1.604426101565 5.882895705740
6796 1 2.400000000000 76.356000000000 1.069617401044 8.556939208349
6797 2 -1.200000000000 77.719500000000 0.000000000000 6.952513106784
6798 2 -1.200000000000 80.446500000000 0.000000000000 6.952513106784
6799 2 -1.200000000000 77.719500000000 27.275243726613 9.626556609393
6800 2 -1.200000000000 80.446500000000 27.275243726613 9.626556609393
6801 2 -1.200000000000 77.719500000000 2.674043502609 7.487321807306
6802 2 -1.200000000000 80.446500000000 2.674043502609 7.487321807306
6803 2 -1.200000000000 77.719500000000 2.139234802087 10.161365309915
6804 2 -1.200000000000 80.446500000000 2.139234802087 10.161365309915
6805 1 2.400000000000 81.810000000000 26.740435026091 5.348087005218
6806 1 2.400000000000 84.537000000000 26.205626325570 8.022130507827
6807 1 2.400000000000 84.537000000000 1.604426101565 5.882895705740
6808 1 2.400000000000 81.810000000000 1.069617401044 8.556939208349
6809 2 -1.200000000000 83.173500000000 0.000000000000 6.952513106784
6810 2 -1.200000000000 85.900500000000 0.000000000000 6.952513106784
6811 2 -1.200000000000 83.173500000000 27.275243726613 9.626556609393
6812 2 -1.200000000000 85.900500000000 27.275243726613 9.626556609393
6813 2 -1.200000000000 83.173500000000 2.674043502609 7.487321807306
6814 2 -1.200000000000 85.900500000000 2.674043502609 7.487321807306
6815 2 -1.200000000000 83.173500000000 2.139234802087 10.161365309915
6816 2 -1.200000000000 85.900500000000 2.139234802087 10.161365309915
6817 1 2.400000000000 87.264000000000 26.740435026091 5.348087005218
6818 1 2.400000000000 89.991000000000 26.205626325570 8.022130507827
6819 1 2.400000000000 89.991000000000 1.604426101565 5.882895705740
6820 1 2.400000000000 87.264000000000 1.069617401044 8.556939208349
6821 2 -1.200000000000 88.627500000000 0.000000000000 6.952513106784
6822 2 -1.200000000000 91.354500000000 0.000000000000 6.952513106784
6823 2 -1.200000000000 88.627500000000 27.275243726613 9.626556609393
6824 2 -1.200000000000 91.354500000000 27.275243726613 9.626556609393
6825 2 -1.200000000000 88.627500000000 2.674043502609 7.487321807306
6826 2 -1.200000000000 91.354500000000 2.674043502609 7.487321807306
6827 2 -1.200000000000 88.627500000000 2.139234802087 10.161365309915
6828 2 -1.200000000000 91.354500000000 2.139234802087 10.161365309915
6829 1 2.400000000000 92.718000000000 26.740435026091 5.348087005218
6830 1 2.400000000000 95.445000000000 26.205626325570 8.022130507827
6831 1 2.400000000000 95.445000000000 1.604426101565 5.882895705740
6832 1 2.400000000000 92.718000000000 1.069617401044 8.556939208349
6833 2 -1.200000000000 94.081500000000 0.000000000000 6.952513106784
6834 2 -1.200000000000 96.808500000000 0.000000000000 6.952513106784
6835 2 -1.200000000000 94.081500000000 27.275243726613 9.626556609393
6836 2 -1.200000000000 96.808500000000 27.275243726613 9.626556609393
6837 2 -1.200000000000 94.081500000000 2.674043502609 7.487321807306
6838 2 -1.200000000000 96.808500000000 2.674043502609 7.487321807306
6839 2 -1.200000000000 94.081500000000 2.139234802087 10.161365309915
6840 2 -1.200000000000 96.808500000000 2.139234802087 10.161365309915
6841 1 2.400000000000 98.172000000000 26.740435026091 5.348087005218
6842 1 2.400000000000 100.899000000000 26.205626325570 8.022130507827
6843 1 2.400000000000 100.899000000000 1.604426101565 5.882895705740
6844 1 2.400000000000 98.172000000000 1.069617401044 8.556939208349
6845 2 -1.200000000000 99.535500000000 0.000000000000 6.952513106784
6846 2 -1.200000000000 102.262500000000 0.000000000000 6.952513106784
6847 2 -1.200000000000 99.535500000000 27.275243726613 9.626556609393
6848 2 -1.200000000000 102.262500000000 27.275243726613 9.626556609393
6849 2 -1.200000000000 99.535500000000 2.674043502609 7.487321807306
6850 2 -1.200000000000 102.262500000000 2.674043502609 7.487321807306
6851 2 -1.200000000000 99.535500000000 2.139234802087 10.161365309915
6852 2 -1.200000000000 102.262500000000 2.139234802087 10.161365309915
6853 1 2.400000000000 103.626000000000 26.740435026091 5.348087005218
6854 1 2.400000000000 106.353000000000 26.205626325570 8.022130507827
6855 1 2.400000000000 106.353000000000 1.604426101565 5.882895705740
6856 1 2.400000000000 103.626000000000 1.069617401044 8.556939208349
6857 2 -1.200000000000 104.989500000000 0.000000000000 6.952513106784
6858 2 -1.200000000000 107.716500000000 0.000000000000 6.952513106784
6859 2 -1.200000000000 104.989500000000 27.275243726613 9.626556609393
6860 2 -1.200000000000 107.716500000000 27.275243726613 9.626556609393
6861 2 -1.200000000000 104.989500000000 2.674043502609 7.487321807306
6862 2 -1.200000000000 107.716500000000 2.674043502609 7.487321807306
6863 2 -1.200000000000 104.989500000000 2.139234802087 10.161365309915
6864 2 -1.200000000000 107.716500000000 2.139234802087 10.161365309915
6865 1 2.400000000000 109.080000000000 26.740435026091 5.348087005218
6866 1 2.400000000000 111.807000000000 26.205626325570 8.022130507827
6867 1 2.400000000000 111.807000000000 1.604426101565 5.882895705740
6868 1 2.400000000000 109.080000000000 1.069617401044 8.556939208349
6869 2 -1.200000000000 110.443500000000 0.000000000000 6.952513106784
6870 2 -1.200000000000 113.170500000000 0.000000000000 6.952513106784
6871 2 -1.200000000000 110.443500000000 27.275243726613 9.626556609393
6872 2 -1.200000000000 113.170500000000 27.275243726613 9.626556609393
6873 2 -1.200000000000 110.443500000000 2.674043502609 7.487321807306
6874 2 -1.200000000000 113.170500000000 2.674043502609 7.487321807306
6875 2 -1.200000000000 110.443500000000 2.139234802087 10.161365309915
6876 2 -1.200000000000 113.170500000000 2.139234802087 10.161365309915
6877 1 2.400000000000 114.534000000000 26.740435026091 5.348087005218
6878 1 2.400000000000 117.261000000000 26.205626325570 8.022130507827
6879 1 2.400000000000 117.261000000000 1.604426101565 5.882895705740
6880 1 2.400000000000 114.534000000000 1.069617401044 8.556939208349
6881 2 -1.200000000000 115.897500000000 0.000000000000 6.952513106784
6882 2 -1.200000000000 118.624500000000 0.000000000000 6.952513106784
6883 2 -1.200000000000 115.897500000000 27.275243726613 9.626556609393
6884 2 -1.200000000000 118.624500000000 27.275243726613 9.626556609393
6885 2 -1.200000000000 115.897500000000 2.674043502609 7.487321807306
6886 2 -1.200000000000 118.624500000000 2.674043502609 7.487321807306
6887 2 -1.200000000000 115.897500000000 2.139234802087 10.161365309915
6888 2 -1.200000000000 118.624500000000 2.139234802087 10.161365309915
6889 1 2.400000000000 119.988000000000 26.740435026091 5.348087005218
6890 1 2.400000000000 122.715000000000 26.205626325570 8.022130507827
6891 1 2.400000000000 122.715000000000 1.604426101565 5.882895705740
6892 1 2.400000000000 119.988000000000 1.069617401044 8.556939208349
6893 2 -1.200000000000 121.351500000000 0.000000000000 6.952513106784
6894 2 -1.200000000000 124.078500000000 0.000000000000 6.952513106784
6895 2 -1.200000000000 121.351500000000 27.275243726613 9.626556609393
6896 2 -1.200000000000 124.078500000000 27.275243726613 9.626556609393
6897 2 -1.200000000000 121.351500000000 2.674043502609 7.487321807306
6898 2 -1.200000000000 124.078500000000 2.674043502609 7.487321807306
6899 2 -1.200000000000 121.351500000000 2.139234802087 10.161365309915
6900 2 -1.200000000000 124.078500000000 2.139234802087 10.161365309915
6901 1 2.400000000000 125.442000000000 26.740435026091 5.348087005218
6902 1 2.400000000000 128.169000000000 26.205626325570 8.022130507827
6903 1 2.400000000000 128.169000000000 1.604426101565 5.882895705740
6904 1 2.400000000000 125.442000000000 1.069617401044 8.556939208349
6905 2 -1.200000000000 126.805500000000 0.000000000000 6.952513106784
6906 2 -1.200000000000 129.532500000000 0.000000000000 6.952513106784
6907 2 -1.200000000000 126.805500000000 27.275243726613 9.626556609393
6908 2 -1.200000000000 129.532500000000 27.275243726613 9.626556609393
6909 2 -1.200000000000 126.805500000000 2.674043502609 7.487321807306
6910 2 -1.200000000000 129.532500000000 2.674043502609 7.487321807306
6911 2 -1.200000000000 126.805500000000 2.139234802087 10.161365309915
6912 2 -1.200000000000 129.532500000000 2.139234802087 10.161365309915
6913 1 2.400000000000 65.448000000000 25.670817625048 10.696174010437
6914 1 2.400000000000 68.175000000000 25.136008924526 13.370217513046
6915 1 2.400000000000 68.175000000000 0.534808700522 11.230982710958
6916 1 2.400000000000 65.448000000000 0.000000000000 13.905026213568
6917 2 -1.200000000000 66.811500000000 26.740435026091 12.300600112002
6918 2 -1.200000000000 69.538500000000 26.740435026091 12.300600112002
6919 2 -1.200000000000 66.811500000000 26.205626325570 14.974643614611
6920 2 -1.200000000000 69.538500000000 26.205626325570 14.974643614611
6921 2 -1.200000000000 66.811500000000 1.604426101565 12.835408812524
6922 2 -1.200000000000 69.538500000000 1.604426101565 12.835408812524
6923 2 -1.200000000000 66.811500000000 1.069617401044 15.509452315133
6924 2 -1.200000000000 69.538500000000 1.069617401044 15.509452315133
6925 1 2.400000000000 70.902000000000 25.670817625048 10.696174010437
6926 1 2.400000000000 73.629000000000 25.136008924526 13.370217513046
6927 1 2.400000000000 73.629000000000 0.534808700522 11.230982710958
6928 1 2.400000000000 70.902000000000 0.000000000000 13.905026213568
6929 2 -1.200000000000 72.265500000000 26.740435026091 12.300600112002
6930 2 -1.200000000000 74.992500000000 26.740435026091 12.300600112002
6931 2 -1.200000000000 72.265500000000 26.205626325570 14.974643614611
6932 2 -1.200000000000 74.992500000000 26.205626325570 14.974643614611
6933 2 -1.200000000000 72.265500000000 1.604426101565 12.835408812524
6934 2 -1.200000000000 74.992500000000 1.604426101565 12.835408812524
6935 2 -1.200000000000 72.265500000000 1.069617401044 15.509452315133
6936 2 -1.200000000000 74.992500000000 1.069617401044 15.509452315133
6937 1 2.400000000000 76.356000000000 25.670817625048 10.696174010437
6938 1 2.400000000000 79.083000000000 25.136008924526 13.370217513046
6939 1 2.400000000000 79.083000000000 0.534808700522 11.230982710958
6940 1 2.400000000000 76.356000000000 0.000000000000 13.905026213568
6941 2 -1.200000000000 77.719500000000 26.740435026091 12.300600112002
6942 2 -1.200000000000 80.446500000000 26.740435026091 12.300600112002
6943 2 -1.200000000000 77.719500000000 26.205626325570 14.974643614611
6944 2 -1.200000000000 80.446500000000 26.205626325570 14.974643614611
6945 2 -1.200000000000 77.719500000000 1.604426101565 12.835408812524
6946 2 -1.200000000000 80.446500000000 1.604426101565 12.835408812524
6947 2 -1.200000000000 77.719500000000 1.069617401044 15.509452315133
6948 2 -1.200000000000 80.446500000000 1.069617401044 15.509452315133
6949 1 2.400000000000 81.810000000000 25.670817625048 10.696174010437
6950 1 2.400000000000 84.537000000000 25.136008924526 13.370217513046
6951 1 2.400000000000 84.537000000000 0.534808700522 11.230982710958
6952 1 2.400000000000 81.810000000000 0.000000000000 13.905026213568
6953 2 -1.200000000000 83.173500000000 26.740435026091 12.300600112002
6954 2 -1.200000000000 85.900500000000 26.740435026091 12.300600112002
6955 2 -1.200000000000 83.173500000000 26.205626325570 14.974643614611
6956 2 -1.200000000000 85.900500000000 26.205626325570 14.974643614611
6957 2 -1.200000000000 83.173500000000 1.604426101565 12.835408812524
6958 2 -1.200000000000 85.900500000000 1.604426101565 12.835408812524
6959 2 -1.200000000000 83.173500000000 1.069617401044 15.509452315133
6960 2 -1.200000000000 85.900500000000 1.069617401044 15.509452315133
6961 1 2.400000000000 87.264000000000 25.670817625048 10.696174010437
6962 1 2.400000000000 89.991000000000 25.136008924526 13.370217513046
6963 1 2.400000000000 89.991000000000 0.534808700522 11.230982710958
6964 1 2.400000000000 87.264000000000 0.000000000000 13.905026213568
6965 2 -1.200000000000 88.627500000000 26.740435026091 12.300600112002
6966 2 -1.200000000000 91.354500000000 26.740435026091 12.300600112002
6967 2 -1.200000000000 88.627500000000 26.205626325570 14.974643614611
6968 2 -1.200000000000 91.354500000000 26.205626325570 14.974643614611
6969 2 -1.200000000000 88.627500000000 1.604426101565 12.835408812524
6970 2 -1.200000000000 91.354500000000 1.604426101565 12.835408812524
6971 2 -1.200000000000 88.627500000000 1.069617401044 15.509452315133
6972 2 -1.200000000000 91.354500000000 1.069617401044 15.509452315133
6973 1 2.400000000000 92.718000000000 25.670817625048 10.696174010437
6974 1 2.400000000000 95.445000000000 25.136008924526 13.370217513046
6975 1 2.400000000000 95.445000000000 0.534808700522 11.230982710958
6976 1 2.400000000000 92.718000000000 0.000000000000 13.905026213568
6977 2 -1.200000000000 94.081500000000 26.740435026091 12.300600112002
6978 2 -1.200000000000 96.808500000000 26.740435026091 12.300600112002
6979 2 -1.200000000000 94.081500000000 26.205626325570 14.974643614611
6980 2 -1.200000000000 96.808500000000 26.205626325570 14.974643614611
6981 2 -1.200000000000 94.081500000000 1.604426101565 12.835408812524
6982 2 -1.200000000000 96.808500000000 1.604426101565 12.835408812524
6983 2 -1.200000000000 94.081500000000 1.069617401044 15.509452315133
6984 2 -1.200000000000 96.808500000000 1.069617401044 15.509452315133
6985 1 2.400000000000 98.172000000000 25.670817625048 10.696174010437
6986 1 2.400000000000 100.899000000000 25.136008924526 13.370217513046
6987 1 2.400000000000 100.899000000000 0.534808700522 11.230982710958
6988 1 2.400000000000 98.172000000000 0.000000000000 13.905026213568
6989 2 -1.200000000000 99.535500000000 26.740435026091 12.300600112002
6990 2 -1.200000000000 102.262500000000 26.740435026091 12.300600112002
6991 2 -1.200000000000 99.535500000000 26.205626325570 14.974643614611
6992 2 -1.200000000000 102.262500000000 26.205626325570 14.974643614611
6993 2 -1.200000000000 99.535500000000 1.604426101565 12.835408812524
6994 2 -1.200000000000 102.262500000000 1.604426101565 12.835408812524
6995 2 -1.200000000000 99.535500000000 1.069617401044 15.509452315133
6996 2 -1.200000000000 102.262500000000 1.069617401044 15.509452315133
6997 1 2.400000000000 103.626000000000 25.670817625048 10.696174010437
6998 1 2.400000000000 106.353000000000 25.136008924526 13.370217513046
6999 1 2.400000000000 106.353000000000 0.534808700522 11.230982710958
7000 1 2.400000000000 103.626000000000 0.000000000000 13.905026213568
7001 2 -1.200000000000 104.989500000000 26.740435026091 12.300600112002
7002 2 -1.200000000000 107.716500000000 26.740435026091 12.300600112002
7003 2 -1.200000000000 104.989500000000 26.205626325570 14.974643614611
7004 2 -1.200000000000 107.716500000000 26.205626325570 14.974643614611
7005 2 -1.200000000000 104.989500000000 1.604426101565 12.835408812524
7006 2 -1.200000000000 107.716500000000 1.604426101565 12.835408812524
7007 2 -1.200000000000 104.989500000000 1.069617401044 15.509452315133
7008 2 -1.200000000000 107.716500000000 1.069617401044 15.509452315133
7009 1 2.400000000000 109.080000000000 25.670817625048 10.696174010437
7010 1 2.400000000000 111.807000000000 25.136008924526 13.370217513046
7011 1 2.400000000000 111.807000000000 0.534808700522 11.230982710958
7012 1 2.400000000000 109.080000000000 0.000000000000 13.905026213568
7013 2 -1.200000000000 110.443500000000 26.740435026091 12.300600112002
7014 2 -1.200000000000 113.170500000000 26.740435026091 12.300600112002
7015 2 -1.200000000000 110.443500000000 26.205626325570 14.974643614611
7016 2 -1.200000000000 113.170500000000 26.205626325570 14.974643614611
7017 2 -1.200000000000 110.443500000000 1.604426101565 12.835408812524
7018 2 -1.200000000000 113.170500000000 1.604426101565 12.835408812524
7019 2 -1.200000000000 110.443500000000 1.069617401044 15.509452315133
7020 2 -1.200000000000 113.170500000000 1.069617401044 15.509452315133
7021 1 2.400000000000 114.534000000000 25.670817625048 10.696174010437
7022 1 2.400000000000 117.261000000000 25.136008924526 13.370217513046
7023 1 2.400000000000 117.261000000000 0.534808700522 11.230982710958
7024 1 2.400000000000 114.534000000000 0.000000000000 13.905026213568
7025 2 -1.200000000000 115.897500000000 26.740435026091 12.300600112002
7026 2 -1.200000000000 118.624500000000 26.740435026091 12.300600112002
7027 2 -1.200000000000 115.897500000000 26.205626325570 14.974643614611
7028 2 -1.200000000000 118.624500000000 26.205626325570 14.974643614611
7029 2 -1.200000000000 115.897500000000 1.604426101565 12.835408812524
7030 2 -1.200000000000 118.624500000000 1.604426101565 12.835408812524
7031 2 -1.200000000000 115.897500000000 1.069617401044 15.509452315133
7032 2 -1.200000000000 118.624500000000 1.069617401044 15.509452315133
7033 1 2.400000000000 119.988000000000 25.670817625048 10.696174010437
7034 1 2.400000000000 122.715000000000 25.136008924526 13.370217513046
7035 1 2.400000000000 122.715000000000 0.534808700522 11.230982710958
7036 1 2.400000000000 119.988000000000 0.000000000000 13.905026213568
7037 2 -1.200000000000 121.351500000000 26.740435026091 12.300600112002
7038 2 -1.200000000000 124.078500000000 26.740435026091 12.300600112002
7039 2 -1.200000000000 121.351500000000 26.205626325570 14.974643614611
7040 2 -1.200000000000 124.078500000000 26.205626325570 14.974643614611
7041 2 -1.200000000000 121.351500000000 1.604426101565 12.835408812524
7042 2 -1.200000000000 124.078500000000 1.604426101565 12.835408812524
7043 2 -1.200000000000 121.351500000000 1.069617401044 15.509452315133
7044 2 -1.200000000000 124.078500000000 1.069617401044 15.509452315133
7045 1 2.400000000000 125.442000000000 25.670817625048 10.696174010437
7046 1 2.400000000000 128.169000000000 25.136008924526 13.370217513046
7047 1 2.400000000000 128.169000000000 0.534808700522 11.230982710958
7048 1 2.400000000000 125.442000000000 0.000000000000 13.905026213568
7049 2 -1.200000000000 126.805500000000 26.740435026091 12.300600112002
7050 2 -1.200000000000 129.532500000000 26.740435026091 12.300600112002
7051 2 -1.200000000000 126.805500000000 26.205626325570 14.974643614611
7052 2 -1.200000000000 129.532500000000 26.205626325570 14.974643614611
7053 2 -1.200000000000 126.805500000000 1.604426101565 12.835408812524
7054 2 -1.200000000000 129.532500000000 1.604426101565 12.835408812524
7055 2 -1.200000000000 126.805500000000 1.069617401044 15.509452315133
7056 2 -1.200000000000 129.532500000000 1.069617401044 15.509452315133
7057 1 2.400000000000 65.448000000000 24.601200224004 16.044261015655
7058 1 2.400000000000 68.175000000000 24.066391523482 18.718304518264
7059 1 2.400000000000 68.175000000000 27.275243726613 16.579069716177
7060 1 2.400000000000 65.448000000000 26.740435026091 19.253113218786
7061 2 -1.200000000000 66.811500000000 25.670817625048 17.648687117220
7062 2 -1.200000000000 69.538500000000 25.670817625048 17.648687117220
7063 2 -1.200000000000 66.811500000000 25.136008924526 20.322730619829
7064 2 -1.200000000000 69.538500000000 25.136008924526 20.322730619829
7065 2 -1.200000000000 66.811500000000 0.534808700522 18.183495817742
7066 2 -1.200000000000 69.538500000000 0.534808700522 18.183495817742
7067 2 -1.200000000000 66.811500000000 0.000000000000 20.857539320351
7068 2 -1.200000000000 69.538500000000 0.000000000000 20.857539320351
7069 1 2.400000000000 70.902000000000 24.601200224004 16.044261015655
7070 1 2.400000000000 73.629000000000 24.066391523482 18.718304518264
7071 1 2.400000000000 73.629000000000 27.275243726613 16.579069716177
7072 1 2.400000000000 70.902000000000 26.740435026091 19.253113218786
7073 2 -1.200000000000 72.265500000000 25.670817625048 17.648687117220
7074 2 -1.200000000000 74.992500000000 25.670817625048 17.648687117220
7075 2 -1.200000000000 72.265500000000 25.136008924526 20.322730619829
7076 2 -1.200000000000 74.992500000000 25.136008924526 20.322730619829
7077 2 -1.200000000000 72.265500000000 0.534808700522 18.183495817742
7078 2 -1.200000000000 74.992500000000 0.534808700522 18.183495817742
7079 2 -1.200000000000 72.265500000000 0.000000000000 20.857539320351
7080 2 -1.200000000000 74.992500000000 0.000000000000 20.857539320351
7081 1 2.400000000000 76.356000000000 24.601200224004 16.044261015655
7082 1 2.400000000000 79.083000000000 24.066391523482 18.718304518264
7083 1 2.400000000000 79.083000000000 27.275243726613 16.579069716177
7084 1 2.400000000000 76.356000000000 26.740435026091 19.253113218786
7085 2 -1.200000000000 77.719500000000 25.670817625048 17.648687117220
7086 2 -1.200000000000 80.446500000000 25.670817625048 17.648687117220
7087 2 -1.200000000000 77.719500000000 25.136008924526 20.322730619829
7088 2 -1.200000000000 80.446500000000 25.136008924526 20.322730619829
7089 2 -1.200000000000 77.719500000000 0.534808700522 18.183495817742
7090 2 -1.200000000000 80.446500000000 0.534808700522 18.183495817742
7091 2 -1.200000000000 77.719500000000 0.000000000000 20.857539320351
7092 2 -1.200000000000 80.446500000000 0.000000000000 20.857539320351
7093 1 2.400000000000 81.810000000000 24.601200224004 16.044261015655
7094 1 2.400000000000 84.537000000000 24.066391523482 18.718304518264
7095 1 2.400000000000 84.537000000000 27.275243726613 16.579069716177
7096 1 2.400000000000 81.810000000000 26.740435026091 19.253113218786
7097 2 -1.200000000000 83.173500000000 25.670817625048 17.648687117220
7098 2 -1.200000000000 85.900500000000 25.670817625048 17.648687117220
7099 2 -1.200000000000 83.173500000000 25.136008924526 20.322730619829
7100 2 -1.200000000000 85.900500000000 25.136008924526 20.322730619829
7101 2 -1.200000000000 83.173500000000 0.534808700522 18.183495817742
7102 2 -1.200000000000 85.900500000000 0.534808700522 18.183495817742
7103 2 -1.200000000000 83.173500000000 0.000000000000 20.857539320351
7104 2 -1.200000000000 85.900500000000 0.000000000000 20.857539320351
7105 1 2.400000000000 87.264000000000 24.601200224004 16.044261015655
7106 1 2.400000000000 89.991000000000 24.066391523482 18.718304518264
7107 1 2.400000000000 89.991000000000 27.275243726613 16.579069716177
7108 1 2.400000000000 87.264000000000 26.740435026091 19.253113218786
7109 2 -1.200000000000 88.627500000000 25.670817625048 17.648687117220
7110 2 -1.200000000000 91.354500000000 25.670817625048 17.648687117220
7111 2 -1.200000000000 88.627500000000 25.136008924526 20.322730619829
7112 2 -1.200000000000 91.354500000000 25.136008924526 20.322730619829
7113 2 -1.200000000000 88.627500000000 0.534808700522 18.183495817742
7114 2 -1.200000000000 91.354500000000 0.534808700522 18.183495817742
7115 2 -1.200000000000 88.627500000000 0.000000000000 20.857539320351
7116 2 -1.200000000000 91.354500000000 0.000000000000 20.857539320351
7117 1 2.400000000000 92.718000000000 24.601200224004 16.044261015655
7118 1 2.400000000000 95.445000000000 24.066391523482 18.718304518264
7119 1 2.400000000000 95.445000000000 27.275243726613 16.579069716177
7120 1 2.400000000000 92.718000000000 26.740435026091 19.253113218786
7121 2 -1.200000000000 94.081500000000 25.670817625048 17.648687117220
7122 2 -1.200000000000 96.808500000000 25.670817625048 17.648687117220
7123 2 -1.200000000000 94.081500000000 25.136008924526 20.322730619829
7124 2 -1.200000000000 96.808500000000 25.136008924526 20.322730619829
7125 2 -1.200000000000 94.081500000000 0.534808700522 18.183495817742
7126 2 -1.200000000000 96.808500000000 0.534808700522 18.183495817742
7127 2 -1.200000000000 94.081500000000 0.000000000000 20.857539320351
7128 2 -1.200000000000 96.808500000000 0.000000000000 20.857539320351
7129 1 2.400000000000 98.172000000000 24.601200224004 16.044261015655
7130 1 2.400000000000 100.899000000000 24.066391523482 18.718304518264
7131 1 2.400000000000 100.899000000000 27.275243726613 16.579069716177
7132 1 2.400000000000 98.172000000000 26.740435026091 19.253113218786
7133 2 -1.200000000000 99.535500000000 25.670817625048 17.648687117220
7134 2 -1.200000000000 102.262500000000 25.670817625048 17.648687117220
7135 2 -1.200000000000 99.535500000000 25.136008924526 20.322730619829
7136 2 -1.200000000000 102.262500000000 25.136008924526 20.322730619829
7137 2 -1.200000000000 99.535500000000 0.534808700522 18.183495817742
7138 2 -1.200000000000 102.262500000000 0.534808700522 18.183495817742
7139 2 -1.200000000000 99.535500000000 0.000000000000 20.857539320351
7140 2 -1.200000000000 102.262500000000 0.000000000000 20.857539320351
7141 1 2.400000000000 103.626000000000 24.601200224004 16.044261015655
7142 1 2.400000000000 106.353000000000 24.066391523482 18.718304518264
7143 1 2.400000000000 106.353000000000 27.275243726613 16.579069716177
7144 1 2.400000000000 103.626000000000 26.740435026091 19.253113218786
7145 2 -1.200000000000 104.989500000000 25.670817625048 17.648687117220
7146 2 -1.200000000000 107.716500000000 25.670817625048 17.648687117220
7147 2 -1.200000000000 104.989500000000 25.136008924526 20.322730619829
7148 2 -1.200000000000 107.716500000000 25.136008924526 20.322730619829
7149 2 -1.200000000000 104.989500000000 0.534808700522 18.183495817742
7150 2 -1.200000000000 107.716500000000 0.534808700522 18.183495817742
7151 2 -1.200000000000 104.989500000000 0.000000000000 20.857539320351
7152 2 -1.200000000000 107.716500000000 0.000000000000 20.857539320351
7153 1 2.400000000000 109.080000000000 24.601200224004 16.044261015655
7154 1 2.400000000000 111.807000000000 24.066391523482 18.718304518264
7155 1 2.400000000000 111.807000000000 27.275243726613 16.579069716177
7156 1 2.400000000000 109.080000000000 26.740435026091 19.253113218786
7157 2 -1.200000000000 110.443500000000 25.670817625048 17.648687117220
7158 2 -1.200000000000 113.170500000000 25.670817625048 17.648687117220
7159 2 -1.200000000000 110.443500000000 25.136008924526 20.322730619829
7160 2 -1.200000000000 113.170500000000 25.136008924526 20.322730619829
7161 2 -1.200000000000 110.443500000000 0.534808700522 18.183495817742
7162 2 -1.200000000000 113.170500000000 0.534808700522 18.183495817742
7163 2 -1.200000000000 110.443500000000 0.000000000000 20.857539320351
7164 2 -1.200000000000 113.170500000000 0.000000000000 20.857539320351
7165 1 2.400000000000 114.534000000000 24.601200224004 16.044261015655
7166 1 2.400000000000 117.261000000000 24.066391523482 18.718304518264
7167 1 2.400000000000 117.261000000000 27.275243726613 16.579069716177
7168 1 2.400000000000 114.534000000000 26.740435026091 19.253113218786
7169 2 -1.200000000000 115.897500000000 25.670817625048 17.648687117220
7170 2 -1.200000000000 118.624500000000 25.670817625048 17.648687117220
7171 2 -1.200000000000 115.897500000000 25.136008924526 20.322730619829
7172 2 -1.200000000000 118.624500000000 25.136008924526 20.322730619829
7173 2 -1.200000000000 115.897500000000 0.534808700522 18.183495817742
7174 2 -1.200000000000 118.624500000000 0.534808700522 18.183495817742
7175 2 -1.200000000000 115.897500000000 0.000000000000 20.857539320351
7176 2 -1.200000000000 118.624500000000 0.000000000000 20.857539320351
7177 1 2.400000000000 119.988000000000 24.601200224004 16.044261015655
7178 1 2.400000000000 122.715000000000 24.066391523482 18.718304518264
7179 1 2.400000000000 122.715000000000 27.275243726613 16.579069716177
7180 1 2.400000000000 119.988000000000 26.740435026091 19.253113218786
7181 2 -1.200000000000 121.351500000000 25.670817625048 17.648687117220
7182 2 -1.200000000000 124.078500000000 25.670817625048 17.648687117220
7183 2 -1.200000000000 121.351500000000 25.136008924526 20.322730619829
7184 2 -1.200000000000 124.078500000000 25.136008924526 20.322730619829
7185 2 -1.200000000000 121.351500000000 0.534808700522 18.183495817742
7186 2 -1.200000000000 124.078500000000 0.534808700522 18.183495817742
7187 2 -1.200000000000 121.351500000000 0.000000000000 20.857539320351
7188 2 -1.200000000000 124.078500000000 0.000000000000 20.857539320351
7189 1 2.400000000000 125.442000000000 24.601200224004 16.044261015655
7190 1 2.400000000000 128.169000000000 24.066391523482 18.718304518264
7191 1 2.400000000000 128.169000000000 27.275243726613 16.579069716177
7192 1 2.400000000000 125.442000000000 26.740435026091 19.253113218786
7193 2 -1.200000000000 126.805500000000 25.670817625048 17.648687117220
7194 2 -1.200000000000 129.532500000000 25.670817625048 17.648687117220
7195 2 -1.200000000000 126.805500000000 25.136008924526 20.322730619829
7196 2 -1.200000000000 129.532500000000 25.136008924526 20.322730619829
7197 2 -1.200000000000 126.805500000000 0.534808700522 18.183495817742
7198 2 -1.200000000000 129.532500000000 0.534808700522 18.183495817742
7199 2 -1.200000000000 126.805500000000 0.000000000000 20.857539320351
7200 2 -1.200000000000 129.532500000000 0.000000000000 20.857539320351
7201 1 2.400000000000 65.448000000000 23.531582822960 21.392348020873
7202 1 2.400000000000 68.175000000000 22.996774122439 24.066391523482
7203 1 2.400000000000 68.175000000000 26.205626325570 21.927156721395
7204 1 2.400000000000 65.448000000000 25.670817625048 24.601200224004
7205 2 -1.200000000000 66.811500000000 24.601200224004 22.996774122439
7206 2 -1.200000000000 69.538500000000 24.601200224004 22.996774122439
7207 2 -1.200000000000 66.811500000000 24.066391523482 25.670817625048
7208 2 -1.200000000000 69.538500000000 24.066391523482 25.670817625048
7209 2 -1.200000000000 66.811500000000 27.275243726613 23.531582822960
7210 2 -1.200000000000 69.538500000000 27.275243726613 23.531582822960
7211 2 -1.200000000000 66.811500000000 26.740435026091 26.205626325570
7212 2 -1.200000000000 69.538500000000 26.740435026091 26.205626325570
7213 1 2.400000000000 70.902000000000 23.531582822960 21.392348020873
7214 1 2.400000000000 73.629000000000 22.996774122439 24.066391523482
7215 1 2.400000000000 73.629000000000 26.205626325570 21.927156721395
7216 1 2.400000000000 70.902000000000 25.670817625048 24.601200224004
7217 2 -1.200000000000 72.265500000000 24.601200224004 22.996774122439
7218 2 -1.200000000000 74.992500000000 24.601200224004 22.996774122439
7219 2 -1.200000000000 72.265500000000 24.066391523482 25.670817625048
7220 2 -1.200000000000 74.992500000000 24.066391523482 25.670817625048
7221 2 -1.200000000000 72.265500000000 27.275243726613 23.531582822960
7222 2 -1.200000000000 74.992500000000 27.275243726613 23.531582822960
7223 2 -1.200000000000 72.265500000000 26.740435026091 26.205626325570
7224 2 -1.200000000000 74.992500000000 26.740435026091 26.205626325570
7225 1 2.400000000000 76.356000000000 23.531582822960 21.392348020873
7226 1 2.400000000000 79.083000000000 22.996774122439 24.066391523482
7227 1 2.400000000000 79.083000000000 26.205626325570 21.927156721395
7228 1 2.400000000000 76.356000000000 25.670817625048 24.601200224004
7229 2 -1.200000000000 77.719500000000 24.601200224004 22.996774122439
7230 2 -1.200000000000 80.446500000000 24.601200224004 22.996774122439
7231 2 -1.200000000000 77.719500000000 24.066391523482 25.670817625048
7232 2 -1.200000000000 80.446500000000 24.066391523482 25.670817625048
7233 2 -1.200000000000 77.719500000000 27.275243726613 23.531582822960
7234 2 -1.200000000000 80.446500000000 27.275243726613 23.531582822960
7235 2 -1.200000000000 77.719500000000 26.740435026091 26.205626325570
7236 2 -1.200000000000 80.446500000000 26.740435026091 26.205626325570
7237 1 2.400000000000 81.810000000000 23.531582822960 21.392348020873
7238 1 2.400000000000 84.537000000000 22.996774122439 24.066391523482
7239 1 2.400000000000 84.537000000000 26.205626325570 21.927156721395
7240 1 2.400000000000 81.810000000000 25.670817625048 24.601200224004
7241 2 -1.200000000000 83.173500000000 24.601200224004 22.996774122439
7242 2 -1.200000000000 85.900500000000 24.601200224004 22.996774122439
7243 2 -1.200000000000 83.173500000000 24.066391523482 25.670817625048
7244 2 -1.200000000000 85.900500000000 24.066391523482 25.670817625048
7245 2 -1.200000000000 83.173500000000 27.275243726613 23.531582822960
7246 2 -1.200000000000 85.900500000000 27.275243726613 23.531582822960
7247 2 -1.200000000000 83.173500000000 26.740435026091 26.205626325570
7248 2 -1.200000000000 85.900500000000 26.740435026091 26.205626325570
7249 1 2.400000000000 87.264000000000 23.531582822960 21.392348020873
7250 1 2.400000000000 89.991000000000 22.996774122439 24.066391523482
7251 1 2.400000000000 89.991000000000 26.205626325570 21.927156721395
7252 1 2.400000000000 87.264000000000 25.670817625048 24.601200224004
7253 2 -1.200000000000 88.627500000000 24.601200224004 22.996774122439
7254 2 -1.200000000000 91.354500000000 24.601200224004 22.996774122439
7255 2 -1.200000000000 88.627500000000 24.066391523482 25.670817625048
7256 2 -1.200000000000 91.354500000000 24.066391523482 25.670817625048
7257 2 -1.200000000000 88.627500000000 27.275243726613 23.531582822960
7258 2 -1.200000000000 91.354500000000 27.275243726613 23.531582822960
7259 2 -1.200000000000 88.627500000000 26.740435026091 26.205626325570
7260 2 -1.200000000000 91.354500000000 26.740435026091 26.205626325570
7261 1 2.400000000000 92.718000000000 23.531582822960 21.392348020873
7262 1 2.400000000000 95.445000000000 22.996774122439 24.066391523482
7263 1 2.400000000000 95.445000000000 26.205626325570 21.927156721395
7264 1 2.400000000000 92.718000000000 25.670817625048 24.601200224004
7265 2 -1.200000000000 94.081500000000 24.601200224004 22.996774122439
7266 2 -1.200000000000 96.808500000000 24.601200224004 22.996774122439
7267 2 -1.200000000000 94.081500000000 24.066391523482 25.670817625048
7268 2 -1.200000000000 96.808500000000 24.066391523482 25.670817625048
7269 2 -1.200000000000 94.081500000000 27.275243726613 23.531582822960
7270 2 -1.200000000000 96.808500000000 27.275243726613 23.531582822960
7271 2 -1.200000000000 94.081500000000 26.740435026091 26.205626325570
7272 2 -1.200000000000 96.808500000000 26.740435026091 26.205626325570
7273 1 2.400000000000 98.172000000000 23.531582822960 21.392348020873
7274 1 2.400000000000 100.899000000000 22.996774122439 24.066391523482
7275 1 2.400000000000 100.899000000000 26.205626325570 21.927156721395
7276 1 2.400000000000 98.172000000000 25.670817625048 24.601200224004
7277 2 -1.200000000000 99.535500000000 24.601200224004 22.996774122439
7278 2 -1.200000000000 102.262500000000 24.601200224004 22.996774122439
7279 2 -1.200000000000 99.535500000000 24.066391523482 25.670817625048
7280 2 -1.200000000000 102.262500000000 24.066391523482 25.670817625048
7281 2 -1.200000000000 99.535500000000 27.275243726613 23.531582822960
7282 2 -1.200000000000 102.262500000000 27.275243726613 23.531582822960
7283 2 -1.200000000000 99.535500000000 26.740435026091 26.205626325570
7284 2 -1.200000000000 102.262500000000 26.740435026091 26.205626325570
7285 1 2.400000000000 103.626000000000 23.531582822960 21.392348020873
7286 1 2.400000000000 106.353000000000 22.996774122439 24.066391523482
7287 1 2.400000000000 106.353000000000 26.205626325570 21.927156721395
7288 1 2.400000000000 103.626000000000 25.670817625048 24.601200224004
7289 2 -1.200000000000 104.989500000000 24.601200224004 22.996774122439
7290 2 -1.200000000000 107.716500000000 24.601200224004 22.996774122439
7291 2 -1.200000000000 104.989500000000 24.066391523482 25.670817625048
7292 2 -1.200000000000 107.716500000000 24.066391523482 25.670817625048
7293 2 -1.200000000000 104.989500000000 27.275243726613 23.531582822960
7294 2 -1.200000000000 107.716500000000 27.275243726613 23.531582822960
7295 2 -1.200000000000 104.989500000000 26.740435026091 26.205626325570
7296 2 -1.200000000000 107.716500000000 26.740435026091 26.205626325570
7297 1 2.400000000000 109.080000000000 23.531582822960 21.392348020873
7298 1 2.400000000000 111.807000000000 22.996774122439 24.066391523482
7299 1 2.400000000000 111.807000000000 26.205626325570 21.927156721395
7300 1 2.400000000000 109.080000000000 25.670817625048 24.601200224004
7301 2 -1.200000000000 110.443500000000 24.601200224004 22.996774122439
7302 2 -1.200000000000 113.170500000000 24.601200224004 22.996774122439
7303 2 -1.200000000000 110.443500000000 24.066391523482 25.670817625048
7304 2 -1.200000000000 113.170500000000 24.066391523482 25.670817625048
7305 2 -1.200000000000 110.443500000000 27.275243726613 23.531582822960
7306 2 -1.200000000000 113.170500000000 27.275243726613 23.531582822960
7307 2 -1.200000000000 110.443500000000 26.740435026091 26.205626325570
7308 2 -1.200000000000 113.170500000000 26.740435026091 26.205626325570
7309 1 2.400000000000 114.534000000000 23.531582822960 21.392348020873
7310 1 2.400000000000 117.261000000000 22.996774122439 24.066391523482
7311 1 2.400000000000 117.261000000000 26.205626325570 21.927156721395
7312 1 2.400000000000 114.534000000000 25.670817625048 24.601200224004
7313 2 -1.200000000000 115.897500000000 24.601200224004 22.996774122439
7314 2 -1.200000000000 118.624500000000 24.601200224004 22.996774122439
7315 2 -1.200000000000 115.897500000000 24.066391523482 25.670817625048
7316 2 -1.200000000000 118.624500000000 24.066391523482 25.670817625048
7317 2 -1.200000000000 115.897500000000 27.275243726613 23.531582822960
7318 2 -1.200000000000 118.624500000000 27.275243726613 23.531582822960
7319 2 -1.200000000000 115.897500000000 26.740435026091 26.205626325570
7320 2 -1.200000000000 118.624500000000 26.740435026091 26.205626325570
7321 1 2.400000000000 119.988000000000 23.531582822960 21.392348020873
7322 1 2.400000000000 122.715000000000 22.996774122439 24.066391523482
7323 1 2.400000000000 122.715000000000 26.205626325570 21.927156721395
7324 1 2.400000000000 119.988000000000 25.670817625048 24.601200224004
7325 2 -1.200000000000 121.351500000000 24.601200224004 22.996774122439
7326 2 -1.200000000000 124.078500000000 24.601200224004 22.996774122439
7327 2 -1.200000000000 121.351500000000 24.066391523482 25.670817625048
7328 2 -1.200000000000 124.078500000000 24.066391523482 25.670817625048
7329 2 -1.200000000000 121.351500000000 27.275243726613 23.531582822960
7330 2 -1.200000000000 124.078500000000 27.275243726613 23.531582822960
7331 2 -1.200000000000 121.351500000000 26.740435026091 26.205626325570
7332 2 -1.200000000000 124.078500000000 26.740435026091 26.205626325570
7333 1 2.400000000000 125.442000000000 23.531582822960 21.392348020873
7334 1 2.400000000000 128.169000000000 22.996774122439 24.066391523482
7335 1 2.400000000000 128.169000000000 26.205626325570 21.927156721395
7336 1 2.400000000000 125.442000000000 25.670817625048 24.601200224004
7337 2 -1.200000000000 126.805500000000 24.601200224004 22.996774122439
7338 2 -1.200000000000 129.532500000000 24.601200224004 22.996774122439
7339 2 -1.200000000000 126.805500000000 24.066391523482 25.670817625048
7340 2 -1.200000000000 129.532500000000 24.066391523482 25.670817625048
7341 2 -1.200000000000 126.805500000000 27.275243726613 23.531582822960
7342 2 -1.200000000000 129.532500000000 27.275243726613 23.531582822960
7343 2 -1.200000000000 126.805500000000 26.740435026091 26.205626325570
7344 2 -1.200000000000 129.532500000000 26.740435026091 26.205626325570
7345 1 2.400000000000 65.448000000000 22.461965421917 26.740435026091
7346 1 2.400000000000 68.175000000000 21.927156721395 1.604426101565
7347 1 2.400000000000 68.175000000000 25.136008924526 27.275243726613
7348 1 2.400000000000 65.448000000000 24.601200224004 2.139234802087
7349 2 -1.200000000000 66.811500000000 23.531582822960 0.534808700522
7350 2 -1.200000000000 69.538500000000 23.531582822960 0.534808700522
7351 2 -1.200000000000 66.811500000000 22.996774122439 3.208852203131
7352 2 -1.200000000000 69.538500000000 22.996774122439 3.208852203131
7353 2 -1.200000000000 66.811500000000 26.205626325570 1.069617401044
7354 2 -1.200000000000 69.538500000000 26.205626325570 1.069617401044
7355 2 -1.200000000000 66.811500000000 25.670817625048 3.743660903653
7356 2 -1.200000000000 69.538500000000 25.670817625048 3.743660903653
7357 1 2.400000000000 70.902000000000 22.461965421917 26.740435026091
7358 1 2.400000000000 73.629000000000 21.927156721395 1.604426101565
7359 1 2.400000000000 73.629000000000 25.136008924526 27.275243726613
7360 1 2.400000000000 70.902000000000 24.601200224004 2.139234802087
7361 2 -1.200000000000 72.265500000000 23.531582822960 0.534808700522
7362 2 -1.200000000000 74.992500000000 23.531582822960 0.534808700522
7363 2 -1.200000000000 72.265500000000 22.996774122439 3.208852203131
7364 2 -1.200000000000 74.992500000000 22.996774122439 3.208852203131
7365 2 -1.200000000000 72.265500000000 26.205626325570 1.069617401044
7366 2 -1.200000000000 74.992500000000 26.205626325570 1.069617401044
7367 2 -1.200000000000 72.265500000000 25.670817625048 3.743660903653
7368 2 -1.200000000000 74.992500000000 25.670817625048 3.743660903653
7369 1 2.400000000000 76.356000000000 22.461965421917 26.740435026091
7370 1 2.400000000000 79.083000000000 21.927156721395 1.604426101565
7371 1 2.400000000000 79.083000000000 25.136008924526 27.275243726613
7372 1 2.400000000000 76.356000000000 24.601200224004 2.139234802087
7373 2 -1.200000000000 77.719500000000 23.531582822960 0.534808700522
7374 2 -1.200000000000 80.446500000000 23.531582822960 0.534808700522
7375 2 -1.200000000000 77.719500000000 22.996774122439 3.208852203131
7376 2 -1.200000000000 80.446500000000 22.996774122439 3.208852203131
7377 2 -1.200000000000 77.719500000000 26.205626325570 1.069617401044
7378 2 -1.200000000000 80.446500000000 26.205626325570 1.069617401044
7379 2 -1.200000000000 77.719500000000 25.670817625048 3.743660903653
7380 2 -1.200000000000 80.446500000000 25.670817625048 3.743660903653
7381 1 2.400000000000 81.810000000000 22.461965421917 26.740435026091
7382 1 2.400000000000 84.537000000000 21.927156721395 1.604426101565
7383 1 2.400000000000 84.537000000000 25.136008924526 27.275243726613
7384 1 2.400000000000 81.810000000000 24.601200224004 2.139234802087
7385 2 -1.200000000000 83.173500000000 23.531582822960 0.534808700522
7386 2 -1.200000000000 85.900500000000 23.531582822960 0.534808700522
7387 2 -1.200000000000 83.173500000000 22.996774122439 3.208852203131
7388 2 -1.200000000000 85.900500000000 22.996774122439 3.208852203131
7389 2 -1.200000000000 83.173500000000 26.205626325570 1.069617401044
7390 2 -1.200000000000 85.900500000000 26.205626325570 1.069617401044
7391 2 -1.200000000000 83.173500000000 25.670817625048 3.743660903653
7392 2 -1.200000000000 85.900500000000 25.670817625048 3.743660903653
7393 1 2.400000000000 87.264000000000 22.461965421917 26.740435026091
7394 1 2.400000000000 89.991000000000 21.927156721395 1.604426101565
7395 1 2.400000000000 89.991000000000 25.136008924526 27.275243726613
7396 1 2.400000000000 87.264000000000 24.601200224004 2.139234802087
7397 2 -1.200000000000 88.627500000000 23.531582822960 0.534808700522
7398 2 -1.200000000000 91.354500000000 23.531582822960 0.534808700522
7399 2 -1.200000000000 88.627500000000 22.996774122439 3.208852203131
7400 2 -1.200000000000 91.354500000000 22.996774122439 3.208852203131
7401 2 -1.200000000000 88.627500000000 26.205626325570 1.069617401044
7402 2 -1.200000000000 91.354500000000 26.205626325570 1.069617401044
7403 2 -1.200000000000 88.627500000000 25.670817625048 3.743660903653
7404 2 -1.200000000000 91.354500000000 25.670817625048 3.743660903653
7405 1 2.400000000000 92.718000000000 22.461965421917 26.740435026091
7406 1 2.400000000000 95.445000000000 21.927156721395 1.604426101565
7407 1 2.400000000000 95.445000000000 25.136008924526 27.275243726613
7408 1 2.400000000000 92.718000000000 24.601200224004 2.139234802087
7409 2 -1.200000000000 94.081500000000 23.531582822960 0.534808700522
7410 2 -1.200000000000 96.808500000000 23.531582822960 0.534808700522
7411 2 -1.200000000000 94.081500000000 22.996774122439 3.208852203131
7412 2 -1.200000000000 96.808500000000 22.996774122439 3.208852203131
7413 2 -1.200000000000 94.081500000000 26.205626325570 1.069617401044
7414 2 -1.200000000000 96.808500000000 26.205626325570 1.069617401044
7415 2 -1.200000000000 94.081500000000 25.670817625048 3.743660903653
7416 2 -1.200000000000 96.808500000000 25.670817625048 3.743660903653
7417 1 2.400000000000 98.172000000000 22.461965421917 26.740435026091
7418 1 2.400000000000 100.899000000000 21.927156721395 1.604426101565
7419 1 2.400000000000 100.899000000000 25.136008924526 27.275243726613
7420 1 2.400000000000 98.172000000000 24.601200224004 2.139234802087
7421 2 -1.200000000000 99.535500000000 23.531582822960 0.534808700522
7422 2 -1.200000000000 102.262500000000 23.531582822960 0.534808700522
7423 2 -1.200000000000 99.535500000000 22.996774122439 3.208852203131
7424 2 -1.200000000000 102.262500000000 22.996774122439 3.208852203131
7425 2 -1.200000000000 99.535500000000 26.205626325570 1.069617401044
7426 2 -1.200000000000 102.262500000000 26.205626325570 1.069617401044
7427 2 -1.200000000000 99.535500000000 25.670817625048 3.743660903653
7428 2 -1.200000000000 102.262500000000 25.670817625048 3.743660903653
7429 1 2.400000000000 103.626000000000 22.461965421917 26.740435026091
7430 1 2.400000000000 106.353000000000 21.927156721395 1.604426101565
7431 1 2.400000000000 106.353000000000 25.136008924526 27.275243726613
7432 1 2.400000000000 103.626000000000 24.601200224004 2.139234802087
7433 2 -1.200000000000 104.989500000000 23.531582822960 0.534808700522
7434 2 -1.200000000000 107.716500000000 23.531582822960 0.534808700522
7435 2 -1.200000000000 104.989500000000 22.996774122439 3.208852203131
7436 2 -1.200000000000 107.716500000000 22.996774122439 3.208852203131
7437 2 -1.200000000000 104.989500000000 26.205626325570 1.069617401044
7438 2 -1.200000000000 107.716500000000 26.205626325570 1.069617401044
7439 2 -1.200000000000 104.989500000000 25.670817625048 3.743660903653
7440 2 -1.200000000000 107.716500000000 25.670817625048 3.743660903653
7441 1 2.400000000000 109.080000000000 22.461965421917 26.740435026091
7442 1 2.400000000000 111.807000000000 21.927156721395 1.604426101565
7443 1 2.400000000000 111.807000000000 25.136008924526 27.275243726613
7444 1 2.400000000000 109.080000000000 24.601200224004 2.139234802087
7445 2 -1.200000000000 110.443500000000 23.531582822960 0.534808700522
7446 2 -1.200000000000 113.170500000000 23.531582822960 0.534808700522
7447 2 -1.200000000000 110.443500000000 22.996774122439 3.208852203131
7448 2 -1.200000000000 113.170500000000 22.996774122439 3.208852203131
7449 2 -1.200000000000 110.443500000000 26.205626325570 1.069617401044
7450 2 -1.200000000000 113.170500000000 26.205626325570 1.069617401044
7451 2 -1.200000000000 110.443500000000 25.670817625048 3.743660903653
7452 2 -1.200000000000 113.170500000000 25.670817625048 3.743660903653
7453 1 2.400000000000 114.534000000000 22.461965421917 26.740435026091
7454 1 2.400000000000 117.261000000000 21.927156721395 1.604426101565
7455 1 2.400000000000 117.261000000000 25.136008924526 27.275243726613
7456 1 2.400000000000 114.534000000000 24.601200224004 2.139234802087
7457 2 -1.200000000000 115.897500000000 23.531582822960 0.534808700522
7458 2 -1.200000000000 118.624500000000 23.531582822960 0.534808700522
7459 2 -1.200000000000 115.897500000000 22.996774122439 3.208852203131
7460 2 -1.200000000000 118.624500000000 22.996774122439 3.208852203131
7461 2 -1.200000000000 115.897500000000 26.205626325570 1.069617401044
7462 2 -1.200000000000 118.624500000000 26.205626325570 1.069617401044
7463 2 -1.200000000000 115.897500000000 25.670817625048 3.743660903653
7464 2 -1.200000000000 118.624500000000 25.670817625048 3.743660903653
7465 1 2.400000000000 119.988000000000 22.461965421917 26.740435026091
7466 1 2.400000000000 122.715000000000 21.927156721395 1.604426101565
7467 1 2.400000000000 122.715000000000 25.136008924526 27.275243726613
7468 1 2.400000000000 119.988000000000 24.601200224004 2.139234802087
7469 2 -1.200000000000 121.351500000000 23.531582822960 0.534808700522
7470 2 -1.200000000000 124.078500000000 23.531582822960 0.534808700522
7471 2 -1.200000000000 121.351500000000 22.996774122439 3.208852203131
7472 2 -1.200000000000 124.078500000000 22.996774122439 3.208852203131
7473 2 -1.200000000000 121.351500000000 26.205626325570 1.069617401044
7474 2 -1.200000000000 124.078500000000 26.205626325570 1.069617401044
7475 2 -1.200000000000 121.351500000000 25.670817625048 3.743660903653
7476 2 -1.200000000000 124.078500000000 25.670817625048 3.743660903653
7477 1 2.400000000000 125.442000000000 22.461965421917 26.740435026091
7478 1 2.400000000000 128.169000000000 21.927156721395 1.604426101565
7479 1 2.400000000000 128.169000000000 25.136008924526 27.275243726613
7480 1 2.400000000000 125.442000000000 24.601200224004 2.139234802087
7481 2 -1.200000000000 126.805500000000 23.531582822960 0.534808700522
7482 2 -1.200000000000 129.532500000000 23.531582822960 0.534808700522
7483 2 -1.200000000000 126.805500000000 22.996774122439 3.208852203131
7484 2 -1.200000000000 129.532500000000 22.996774122439 3.208852203131
7485 2 -1.200000000000 126.805500000000 26.205626325570 1.069617401044
7486 2 -1.200000000000 129.532500000000 26.205626325570 1.069617401044
7487 2 -1.200000000000 126.805500000000 25.670817625048 3.743660903653
7488 2 -1.200000000000 129.532500000000 25.670817625048 3.743660903653
