Crystalline OU atoms

5328 atoms
2 atom types
0.000000000000 132.252471462729 xlo xhi
0.000000000000 26.719034114279 ylo yhi
0.000000000000 23.139362307549 zlo zhi

Atoms

1 1 2.400000000000 3.148868368160 2.226586176190 3.856560384591
2 1 2.400000000000 3.148868368160 5.566465440475 1.928280192296
3 1 2.400000000000 3.148868368160 5.566465440475 5.784840576887
4 1 2.400000000000 6.297736736320 4.453172352380 3.856560384591
5 2 -1.200000000000 3.936085460200 4.453172352380 3.856560384591
6 2 -1.200000000000 2.361651276120 6.679758528570 3.856560384591
7 2 -1.200000000000 5.510519644280 5.566465440475 1.928280192296
8 2 -1.200000000000 3.936085460200 7.793051616665 1.928280192296
9 2 -1.200000000000 5.510519644280 5.566465440475 5.784840576887
10 2 -1.200000000000 3.936085460200 7.793051616665 5.784840576887
11 2 -1.200000000000 7.084953828360 6.679758528570 3.856560384591
12 2 -1.200000000000 5.510519644280 8.906344704760 3.856560384591
13 1 2.400000000000 9.446605104481 0.000000000000 0.000000000000
14 1 2.400000000000 9.446605104481 3.339879264285 21.211082115253
15 1 2.400000000000 9.446605104481 3.339879264285 1.928280192296
16 1 2.400000000000 12.595473472641 2.226586176190 0.000000000000
17 2 -1.200000000000 10.233822196521 2.226586176190 0.000000000000
18 2 -1.200000000000 8.659388012441 4.453172352380 0.000000000000
19 2 -1.200000000000 11.808256380601 3.339879264285 21.211082115253
20 2 -1.200000000000 10.233822196521 5.566465440475 21.211082115253
21 2 -1.200000000000 11.808256380601 3.339879264285 1.928280192296
22 2 -1.200000000000 10.233822196521 5.566465440475 1.928280192296
23 2 -1.200000000000 13.382690564681 4.453172352380 0.000000000000
24 2 -1.200000000000 11.808256380601 6.679758528570 0.000000000000
25 1 2.400000000000 6.297736736320 4.453172352380 0.000000000000
26 1 2.400000000000 6.297736736320 7.793051616665 21.211082115253
27 1 2.400000000000 6.297736736320 7.793051616665 1.928280192296
28 1 2.400000000000 9.446605104481 6.679758528570 0.000000000000
29 2 -1.200000000000 7.084953828360 6.679758528570 0.000000000000
30 2 -1.200000000000 5.510519644280 8.906344704760 0.000000000000
31 2 -1.200000000000 8.659388012441 7.793051616665 21.211082115253
32 2 -1.200000000000 7.084953828360 10.019637792855 21.211082115253
33 2 -1.200000000000 8.659388012441 7.793051616665 1.928280192296
34 2 -1.200000000000 7.084953828360 10.019637792855 1.928280192296
35 2 -1.200000000000 10.233822196521 8.906344704760 0.000000000000
36 2 -1.200000000000 8.659388012441 11.132930880950 0.000000000000
37 1 2.400000000000 3.148868368160 8.906344704760 0.000000000000
38 1 2.400000000000 3.148868368160 12.246223969044 21.211082115253
39 1 2.400000000000 3.148868368160 12.246223969045 1.928280192296
40 1 2.400000000000 6.297736736320 11.132930880950 0.000000000000
41 2 -1.200000000000 3.936085460200 11.132930880950 0.000000000000
42 2 -1.200000000000 2.361651276120 13.359517057139 0.000000000000
43 2 -1.200000000000 5.510519644280 12.246223969045 21.211082115253
44 2 -1.200000000000 3.936085460200 14.472810145234 21.211082115253
45 2 -1.200000000000 5.510519644280 12.246223969045 1.928280192296
46 2 -1.200000000000 3.936085460200 14.472810145234 1.928280192296
47 2 -1.200000000000 7.084953828360 13.359517057139 0.000000000000
48 2 -1.200000000000 5.510519644280 15.586103233329 0.000000000000
49 1 2.400000000000 3.148868368160 2.226586176190 11.569681153774
50 1 2.400000000000 3.148868368160 5.566465440475 9.641400961479
51 1 2.400000000000 3.148868368160 5.566465440475 13.497961346070
52 1 2.400000000000 6.297736736320 4.453172352380 11.569681153774
53 2 -1.200000000000 3.936085460200 4.453172352380 11.569681153774
54 2 -1.200000000000 2.361651276120 6.679758528570 11.569681153774
55 2 -1.200000000000 5.510519644280 5.566465440475 9.641400961479
56 2 -1.200000000000 3.936085460200 7.793051616665 9.641400961479
57 2 -1.200000000000 5.510519644280 5.566465440475 13.497961346070
58 2 -1.200000000000 3.936085460200 7.793051616665 13.497961346070
59 2 -1.200000000000 7.084953828360 6.679758528570 11.569681153774
60 2 -1.200000000000 5.510519644280 8.906344704760 11.569681153774
61 1 2.400000000000 9.446605104481 0.000000000000 7.713120769183
62 1 2.400000000000 9.446605104481 3.339879264285 5.784840576887
63 1 2.400000000000 9.446605104481 3.339879264285 9.641400961479
64 1 2.400000000000 12.595473472641 2.226586176190 7.713120769183
65 2 -1.200000000000 10.233822196521 2.226586176190 7.713120769183
66 2 -1.200000000000 8.659388012441 4.453172352380 7.713120769183
67 2 -1.200000000000 11.808256380601 3.339879264285 5.784840576887
68 2 -1.200000000000 10.233822196521 5.566465440475 5.784840576887
69 2 -1.200000000000 11.808256380601 3.339879264285 9.641400961479
70 2 -1.200000000000 10.233822196521 5.566465440475 9.641400961479
71 2 -1.200000000000 13.382690564681 4.453172352380 7.713120769183
72 2 -1.200000000000 11.808256380601 6.679758528570 7.713120769183
73 1 2.400000000000 6.297736736320 4.453172352380 7.713120769183
74 1 2.400000000000 6.297736736320 7.793051616665 5.784840576887
75 1 2.400000000000 6.297736736320 7.793051616665 9.641400961479
76 1 2.400000000000 9.446605104481 6.679758528570 7.713120769183
77 2 -1.200000000000 7.084953828360 6.679758528570 7.713120769183
78 2 -1.200000000000 5.510519644280 8.906344704760 7.713120769183
79 2 -1.200000000000 8.659388012441 7.793051616665 5.784840576887
80 2 -1.200000000000 7.084953828360 10.019637792855 5.784840576887
81 2 -1.200000000000 8.659388012441 7.793051616665 9.641400961479
82 2 -1.200000000000 7.084953828360 10.019637792855 9.641400961479
83 2 -1.200000000000 10.233822196521 8.906344704760 7.713120769183
84 2 -1.200000000000 8.659388012441 11.132930880950 7.713120769183
85 1 2.400000000000 3.148868368160 8.906344704760 7.713120769183
86 1 2.400000000000 3.148868368160 12.246223969045 5.784840576887
87 1 2.400000000000 3.148868368160 12.246223969045 9.641400961479
88 1 2.400000000000 6.297736736320 11.132930880950 7.713120769183
89 2 -1.200000000000 3.936085460200 11.132930880950 7.713120769183
90 2 -1.200000000000 2.361651276120 13.359517057139 7.713120769183
91 2 -1.200000000000 5.510519644280 12.246223969045 5.784840576887
92 2 -1.200000000000 3.936085460200 14.472810145234 5.784840576887
93 2 -1.200000000000 5.510519644280 12.246223969045 9.641400961479
94 2 -1.200000000000 3.936085460200 14.472810145234 9.641400961479
95 2 -1.200000000000 7.084953828360 13.359517057139 7.713120769183
96 2 -1.200000000000 5.510519644280 15.586103233329 7.713120769183
97 1 2.400000000000 12.595473472641 2.226586176190 3.856560384591
98 1 2.400000000000 12.595473472641 5.566465440475 1.928280192296
99 1 2.400000000000 12.595473472641 5.566465440475 5.784840576887
100 1 2.400000000000 15.744341840801 4.453172352380 3.856560384591
101 2 -1.200000000000 13.382690564681 4.453172352380 3.856560384591
102 2 -1.200000000000 11.808256380601 6.679758528570 3.856560384591
103 2 -1.200000000000 14.957124748761 5.566465440475 1.928280192296
104 2 -1.200000000000 13.382690564681 7.793051616665 1.928280192296
105 2 -1.200000000000 14.957124748761 5.566465440475 5.784840576887
106 2 -1.200000000000 13.382690564681 7.793051616665 5.784840576887
107 2 -1.200000000000 16.531558932841 6.679758528570 3.856560384591
108 2 -1.200000000000 14.957124748761 8.906344704760 3.856560384591
109 1 2.400000000000 9.446605104481 6.679758528570 3.856560384591
110 1 2.400000000000 9.446605104481 10.019637792855 1.928280192296
111 1 2.400000000000 9.446605104481 10.019637792855 5.784840576887
112 1 2.400000000000 12.595473472641 8.906344704760 3.856560384591
113 2 -1.200000000000 10.233822196521 8.906344704760 3.856560384591
114 2 -1.200000000000 8.659388012441 11.132930880950 3.856560384591
115 2 -1.200000000000 11.808256380601 10.019637792855 1.928280192296
116 2 -1.200000000000 10.233822196521 12.246223969045 1.928280192296
117 2 -1.200000000000 11.808256380601 10.019637792855 5.784840576887
118 2 -1.200000000000 10.233822196521 12.246223969045 5.784840576887
119 2 -1.200000000000 13.382690564681 11.132930880950 3.856560384591
120 2 -1.200000000000 11.808256380601 13.359517057139 3.856560384591
121 1 2.400000000000 6.297736736320 11.132930880950 3.856560384591
122 1 2.400000000000 6.297736736320 14.472810145234 1.928280192296
123 1 2.400000000000 6.297736736320 14.472810145234 5.784840576887
124 1 2.400000000000 9.446605104481 13.359517057139 3.856560384591
125 2 -1.200000000000 7.084953828360 13.359517057139 3.856560384591
126 2 -1.200000000000 5.510519644280 15.586103233329 3.856560384591
127 2 -1.200000000000 8.659388012441 14.472810145234 1.928280192296
128 2 -1.200000000000 7.084953828360 16.699396321424 1.928280192296
129 2 -1.200000000000 8.659388012441 14.472810145234 5.784840576887
130 2 -1.200000000000 7.084953828360 16.699396321424 5.784840576887
131 2 -1.200000000000 10.233822196521 15.586103233329 3.856560384591
132 2 -1.200000000000 8.659388012441 17.812689409519 3.856560384591
133 1 2.400000000000 3.148868368160 15.586103233329 3.856560384591
134 1 2.400000000000 3.148868368160 18.925982497614 1.928280192296
135 1 2.400000000000 3.148868368160 18.925982497614 5.784840576887
136 1 2.400000000000 6.297736736320 17.812689409519 3.856560384591
137 2 -1.200000000000 3.936085460200 17.812689409519 3.856560384591
138 2 -1.200000000000 2.361651276120 20.039275585709 3.856560384591
139 2 -1.200000000000 5.510519644280 18.925982497614 1.928280192296
140 2 -1.200000000000 3.936085460200 21.152568673804 1.928280192296
141 2 -1.200000000000 5.510519644280 18.925982497614 5.784840576887
142 2 -1.200000000000 3.936085460200 21.152568673804 5.784840576887
143 2 -1.200000000000 7.084953828360 20.039275585709 3.856560384591
144 2 -1.200000000000 5.510519644280 22.265861761899 3.856560384591
145 1 2.400000000000 18.893210208961 0.000000000000 0.000000000000
146 1 2.400000000000 18.893210208961 3.339879264285 21.211082115253
147 1 2.400000000000 18.893210208961 3.339879264285 1.928280192296
148 1 2.400000000000 22.042078577122 2.226586176190 0.000000000000
149 2 -1.200000000000 19.680427301001 2.226586176190 0.000000000000
150 2 -1.200000000000 18.105993116921 4.453172352380 0.000000000000
151 2 -1.200000000000 21.254861485081 3.339879264285 21.211082115253
152 2 -1.200000000000 19.680427301001 5.566465440475 21.211082115253
153 2 -1.200000000000 21.254861485081 3.339879264285 1.928280192296
154 2 -1.200000000000 19.680427301001 5.566465440475 1.928280192296
155 2 -1.200000000000 22.829295669162 4.453172352380 0.000000000000
156 2 -1.200000000000 21.254861485081 6.679758528570 0.000000000000
157 1 2.400000000000 15.744341840801 4.453172352380 0.000000000000
158 1 2.400000000000 15.744341840801 7.793051616665 21.211082115253
159 1 2.400000000000 15.744341840801 7.793051616665 1.928280192296
160 1 2.400000000000 18.893210208961 6.679758528570 0.000000000000
161 2 -1.200000000000 16.531558932841 6.679758528570 0.000000000000
162 2 -1.200000000000 14.957124748761 8.906344704760 0.000000000000
163 2 -1.200000000000 18.105993116921 7.793051616665 21.211082115253
164 2 -1.200000000000 16.531558932841 10.019637792855 21.211082115253
165 2 -1.200000000000 18.105993116921 7.793051616665 1.928280192296
166 2 -1.200000000000 16.531558932841 10.019637792855 1.928280192296
167 2 -1.200000000000 19.680427301001 8.906344704760 0.000000000000
168 2 -1.200000000000 18.105993116921 11.132930880950 0.000000000000
169 1 2.400000000000 12.595473472641 8.906344704760 0.000000000000
170 1 2.400000000000 12.595473472641 12.246223969045 21.211082115253
171 1 2.400000000000 12.595473472641 12.246223969045 1.928280192296
172 1 2.400000000000 15.744341840801 11.132930880950 0.000000000000
173 2 -1.200000000000 13.382690564681 11.132930880950 0.000000000000
174 2 -1.200000000000 11.808256380601 13.359517057139 0.000000000000
175 2 -1.200000000000 14.957124748761 12.246223969045 21.211082115253
176 2 -1.200000000000 13.382690564681 14.472810145234 21.211082115253
177 2 -1.200000000000 14.957124748761 12.246223969045 1.928280192296
178 2 -1.200000000000 13.382690564681 14.472810145234 1.928280192296
179 2 -1.200000000000 16.531558932841 13.359517057139 0.000000000000
180 2 -1.200000000000 14.957124748761 15.586103233329 0.000000000000
181 1 2.400000000000 9.446605104481 13.359517057139 0.000000000000
182 1 2.400000000000 9.446605104481 16.699396321424 21.211082115253
183 1 2.400000000000 9.446605104481 16.699396321424 1.928280192296
184 1 2.400000000000 12.595473472641 15.586103233329 0.000000000000
185 2 -1.200000000000 10.233822196521 15.586103233329 0.000000000000
186 2 -1.200000000000 8.659388012441 17.812689409519 0.000000000000
187 2 -1.200000000000 11.808256380601 16.699396321424 21.211082115253
188 2 -1.200000000000 10.233822196521 18.925982497614 21.211082115253
189 2 -1.200000000000 11.808256380601 16.699396321424 1.928280192296
190 2 -1.200000000000 10.233822196521 18.925982497614 1.928280192296
191 2 -1.200000000000 13.382690564681 17.812689409519 0.000000000000
192 2 -1.200000000000 11.808256380601 20.039275585709 0.000000000000
193 1 2.400000000000 6.297736736320 17.812689409519 0.000000000000
194 1 2.400000000000 6.297736736320 21.152568673804 21.211082115253
195 1 2.400000000000 6.297736736320 21.152568673804 1.928280192296
196 1 2.400000000000 9.446605104481 20.039275585709 0.000000000000
197 2 -1.200000000000 7.084953828360 20.039275585709 0.000000000000
198 2 -1.200000000000 5.510519644280 22.265861761899 0.000000000000
199 2 -1.200000000000 8.659388012441 21.152568673804 21.211082115253
200 2 -1.200000000000 7.084953828360 23.379154849994 21.211082115253
201 2 -1.200000000000 8.659388012441 21.152568673804 1.928280192296
202 2 -1.200000000000 7.084953828360 23.379154849994 1.928280192296
203 2 -1.200000000000 10.233822196521 22.265861761899 0.000000000000
204 2 -1.200000000000 8.659388012441 24.492447938089 0.000000000000
205 1 2.400000000000 3.148868368160 22.265861761899 0.000000000000
206 1 2.400000000000 3.148868368160 25.605741026184 21.211082115253
207 1 2.400000000000 3.148868368160 25.605741026184 1.928280192296
208 1 2.400000000000 6.297736736320 24.492447938089 0.000000000000
209 2 -1.200000000000 3.936085460200 24.492447938089 0.000000000000
210 2 -1.200000000000 2.361651276120 0.000000000000 0.000000000000
211 2 -1.200000000000 5.510519644280 25.605741026184 21.211082115253
212 2 -1.200000000000 3.936085460200 1.113293088095 21.211082115253
213 2 -1.200000000000 5.510519644280 25.605741026184 1.928280192296
214 2 -1.200000000000 3.936085460200 1.113293088095 1.928280192296
215 2 -1.200000000000 7.084953828360 0.000000000000 0.000000000000
216 2 -1.200000000000 5.510519644280 2.226586176190 0.000000000000
217 1 2.400000000000 3.148868368160 2.226586176190 19.282801922957
218 1 2.400000000000 3.148868368160 5.566465440475 17.354521730661
219 1 2.400000000000 3.148868368160 5.566465440475 21.211082115253
220 1 2.400000000000 6.297736736320 4.453172352380 19.282801922957
221 2 -1.200000000000 3.936085460200 4.453172352380 19.282801922957
222 2 -1.200000000000 2.361651276120 6.679758528570 19.282801922957
223 2 -1.200000000000 5.510519644280 5.566465440475 17.354521730661
224 2 -1.200000000000 3.936085460200 7.793051616665 17.354521730661
225 2 -1.200000000000 5.510519644280 5.566465440475 21.211082115253
226 2 -1.200000000000 3.936085460200 7.793051616665 21.211082115253
227 2 -1.200000000000 7.084953828360 6.679758528570 19.282801922957
228 2 -1.200000000000 5.510519644280 8.906344704760 19.282801922957
229 1 2.400000000000 9.446605104481 0.000000000000 15.426241538366
230 1 2.400000000000 9.446605104481 3.339879264285 13.497961346070
231 1 2.400000000000 9.446605104481 3.339879264285 17.354521730661
232 1 2.400000000000 12.595473472641 2.226586176190 15.426241538366
233 2 -1.200000000000 10.233822196521 2.226586176190 15.426241538366
234 2 -1.200000000000 8.659388012441 4.453172352380 15.426241538366
235 2 -1.200000000000 11.808256380601 3.339879264285 13.497961346070
236 2 -1.200000000000 10.233822196521 5.566465440475 13.497961346070
237 2 -1.200000000000 11.808256380601 3.339879264285 17.354521730661
238 2 -1.200000000000 10.233822196521 5.566465440475 17.354521730661
239 2 -1.200000000000 13.382690564681 4.453172352380 15.426241538366
240 2 -1.200000000000 11.808256380601 6.679758528570 15.426241538366
241 1 2.400000000000 6.297736736320 4.453172352380 15.426241538366
242 1 2.400000000000 6.297736736320 7.793051616665 13.497961346070
243 1 2.400000000000 6.297736736320 7.793051616665 17.354521730661
244 1 2.400000000000 9.446605104481 6.679758528570 15.426241538366
245 2 -1.200000000000 7.084953828360 6.679758528570 15.426241538366
246 2 -1.200000000000 5.510519644280 8.906344704760 15.426241538366
247 2 -1.200000000000 8.659388012441 7.793051616665 13.497961346070
248 2 -1.200000000000 7.084953828360 10.019637792855 13.497961346070
249 2 -1.200000000000 8.659388012441 7.793051616665 17.354521730661
250 2 -1.200000000000 7.084953828360 10.019637792855 17.354521730661
251 2 -1.200000000000 10.233822196521 8.906344704760 15.426241538366
252 2 -1.200000000000 8.659388012441 11.132930880950 15.426241538366
253 1 2.400000000000 3.148868368160 8.906344704760 15.426241538366
254 1 2.400000000000 3.148868368160 12.246223969044 13.497961346070
255 1 2.400000000000 3.148868368160 12.246223969044 17.354521730661
256 1 2.400000000000 6.297736736320 11.132930880950 15.426241538366
257 2 -1.200000000000 3.936085460200 11.132930880950 15.426241538366
258 2 -1.200000000000 2.361651276120 13.359517057139 15.426241538366
259 2 -1.200000000000 5.510519644280 12.246223969044 13.497961346070
260 2 -1.200000000000 3.936085460200 14.472810145234 13.497961346070
261 2 -1.200000000000 5.510519644280 12.246223969044 17.354521730661
262 2 -1.200000000000 3.936085460200 14.472810145234 17.354521730661
263 2 -1.200000000000 7.084953828360 13.359517057139 15.426241538366
264 2 -1.200000000000 5.510519644280 15.586103233329 15.426241538366
265 1 2.400000000000 12.595473472641 2.226586176190 11.569681153774
266 1 2.400000000000 12.595473472641 5.566465440475 9.641400961479
267 1 2.400000000000 12.595473472641 5.566465440475 13.497961346070
268 1 2.400000000000 15.744341840801 4.453172352380 11.569681153774
269 2 -1.200000000000 13.382690564681 4.453172352380 11.569681153774
270 2 -1.200000000000 11.808256380601 6.679758528570 11.569681153774
271 2 -1.200000000000 14.957124748761 5.566465440475 9.641400961479
272 2 -1.200000000000 13.382690564681 7.793051616665 9.641400961479
273 2 -1.200000000000 14.957124748761 5.566465440475 13.497961346070
274 2 -1.200000000000 13.382690564681 7.793051616665 13.497961346070
275 2 -1.200000000000 16.531558932841 6.679758528570 11.569681153774
276 2 -1.200000000000 14.957124748761 8.906344704760 11.569681153774
277 1 2.400000000000 9.446605104481 6.679758528570 11.569681153774
278 1 2.400000000000 9.446605104481 10.019637792855 9.641400961479
279 1 2.400000000000 9.446605104481 10.019637792855 13.497961346070
280 1 2.400000000000 12.595473472641 8.906344704760 11.569681153774
281 2 -1.200000000000 10.233822196521 8.906344704760 11.569681153774
282 2 -1.200000000000 8.659388012441 11.132930880950 11.569681153774
283 2 -1.200000000000 11.808256380601 10.019637792855 9.641400961479
284 2 -1.200000000000 10.233822196521 12.246223969044 9.641400961479
285 2 -1.200000000000 11.808256380601 10.019637792855 13.497961346070
286 2 -1.200000000000 10.233822196521 12.246223969045 13.497961346070
287 2 -1.200000000000 13.382690564681 11.132930880950 11.569681153774
288 2 -1.200000000000 11.808256380601 13.359517057139 11.569681153774
289 1 2.400000000000 6.297736736320 11.132930880950 11.569681153774
290 1 2.400000000000 6.297736736320 14.472810145234 9.641400961479
291 1 2.400000000000 6.297736736320 14.472810145234 13.497961346070
292 1 2.400000000000 9.446605104481 13.359517057139 11.569681153774
293 2 -1.200000000000 7.084953828360 13.359517057139 11.569681153774
294 2 -1.200000000000 5.510519644280 15.586103233329 11.569681153774
295 2 -1.200000000000 8.659388012441 14.472810145234 9.641400961479
296 2 -1.200000000000 7.084953828360 16.699396321424 9.641400961479
297 2 -1.200000000000 8.659388012441 14.472810145234 13.497961346070
298 2 -1.200000000000 7.084953828360 16.699396321424 13.497961346070
299 2 -1.200000000000 10.233822196521 15.586103233329 11.569681153774
300 2 -1.200000000000 8.659388012441 17.812689409519 11.569681153774
301 1 2.400000000000 3.148868368160 15.586103233329 11.569681153774
302 1 2.400000000000 3.148868368160 18.925982497614 9.641400961479
303 1 2.400000000000 3.148868368160 18.925982497614 13.497961346070
304 1 2.400000000000 6.297736736320 17.812689409519 11.569681153774
305 2 -1.200000000000 3.936085460200 17.812689409519 11.569681153774
306 2 -1.200000000000 2.361651276120 20.039275585709 11.569681153774
307 2 -1.200000000000 5.510519644280 18.925982497614 9.641400961479
308 2 -1.200000000000 3.936085460200 21.152568673804 9.641400961479
309 2 -1.200000000000 5.510519644280 18.925982497614 13.497961346070
310 2 -1.200000000000 3.936085460200 21.152568673804 13.497961346070
311 2 -1.200000000000 7.084953828360 20.039275585709 11.569681153774
312 2 -1.200000000000 5.510519644280 22.265861761899 11.569681153774
313 1 2.400000000000 18.893210208961 0.000000000000 7.713120769183
314 1 2.400000000000 18.893210208961 3.339879264285 5.784840576887
315 1 2.400000000000 18.893210208961 3.339879264285 9.641400961479
316 1 2.400000000000 22.042078577122 2.226586176190 7.713120769183
317 2 -1.200000000000 19.680427301001 2.226586176190 7.713120769183
318 2 -1.200000000000 18.105993116921 4.453172352380 7.713120769183
319 2 -1.200000000000 21.254861485081 3.339879264285 5.784840576887
320 2 -1.200000000000 19.680427301001 5.566465440475 5.784840576887
321 2 -1.200000000000 21.254861485081 3.339879264285 9.641400961479
322 2 -1.200000000000 19.680427301001 5.566465440475 9.641400961479
323 2 -1.200000000000 22.829295669162 4.453172352380 7.713120769183
324 2 -1.200000000000 21.254861485081 6.679758528570 7.713120769183
325 1 2.400000000000 15.744341840801 4.453172352380 7.713120769183
326 1 2.400000000000 15.744341840801 7.793051616665 5.784840576887
327 1 2.400000000000 15.744341840801 7.793051616665 9.641400961479
328 1 2.400000000000 18.893210208961 6.679758528570 7.713120769183
329 2 -1.200000000000 16.531558932841 6.679758528570 7.713120769183
330 2 -1.200000000000 14.957124748761 8.906344704760 7.713120769183
331 2 -1.200000000000 18.105993116921 7.793051616665 5.784840576887
332 2 -1.200000000000 16.531558932841 10.019637792855 5.784840576887
333 2 -1.200000000000 18.105993116921 7.793051616665 9.641400961479
334 2 -1.200000000000 16.531558932841 10.019637792855 9.641400961479
335 2 -1.200000000000 19.680427301001 8.906344704760 7.713120769183
336 2 -1.200000000000 18.105993116921 11.132930880950 7.713120769183
337 1 2.400000000000 12.595473472641 8.906344704760 7.713120769183
338 1 2.400000000000 12.595473472641 12.246223969045 5.784840576887
339 1 2.400000000000 12.595473472641 12.246223969045 9.641400961479
340 1 2.400000000000 15.744341840801 11.132930880950 7.713120769183
341 2 -1.200000000000 13.382690564681 11.132930880950 7.713120769183
342 2 -1.200000000000 11.808256380601 13.359517057139 7.713120769183
343 2 -1.200000000000 14.957124748761 12.246223969044 5.784840576887
344 2 -1.200000000000 13.382690564681 14.472810145234 5.784840576887
345 2 -1.200000000000 14.957124748761 12.246223969044 9.641400961479
346 2 -1.200000000000 13.382690564681 14.472810145234 9.641400961479
347 2 -1.200000000000 16.531558932841 13.359517057139 7.713120769183
348 2 -1.200000000000 14.957124748761 15.586103233329 7.713120769183
349 1 2.400000000000 9.446605104481 13.359517057139 7.713120769183
350 1 2.400000000000 9.446605104481 16.699396321424 5.784840576887
351 1 2.400000000000 9.446605104481 16.699396321424 9.641400961479
352 1 2.400000000000 12.595473472641 15.586103233329 7.713120769183
353 2 -1.200000000000 10.233822196521 15.586103233329 7.713120769183
354 2 -1.200000000000 8.659388012441 17.812689409519 7.713120769183
355 2 -1.200000000000 11.808256380601 16.699396321424 5.784840576887
356 2 -1.200000000000 10.233822196521 18.925982497614 5.784840576887
357 2 -1.200000000000 11.808256380601 16.699396321424 9.641400961479
358 2 -1.200000000000 10.233822196521 18.925982497614 9.641400961479
359 2 -1.200000000000 13.382690564681 17.812689409519 7.713120769183
360 2 -1.200000000000 11.808256380601 20.039275585709 7.713120769183
361 1 2.400000000000 6.297736736320 17.812689409519 7.713120769183
362 1 2.400000000000 6.297736736320 21.152568673804 5.784840576887
363 1 2.400000000000 6.297736736320 21.152568673804 9.641400961479
364 1 2.400000000000 9.446605104481 20.039275585709 7.713120769183
365 2 -1.200000000000 7.084953828360 20.039275585709 7.713120769183
366 2 -1.200000000000 5.510519644280 22.265861761899 7.713120769183
367 2 -1.200000000000 8.659388012441 21.152568673804 5.784840576887
368 2 -1.200000000000 7.084953828360 23.379154849994 5.784840576887
369 2 -1.200000000000 8.659388012441 21.152568673804 9.641400961479
370 2 -1.200000000000 7.084953828360 23.379154849994 9.641400961479
371 2 -1.200000000000 10.233822196521 22.265861761899 7.713120769183
372 2 -1.200000000000 8.659388012441 24.492447938089 7.713120769183
373 1 2.400000000000 3.148868368160 22.265861761899 7.713120769183
374 1 2.400000000000 3.148868368160 25.605741026184 5.784840576887
375 1 2.400000000000 3.148868368160 25.605741026184 9.641400961479
376 1 2.400000000000 6.297736736320 24.492447938089 7.713120769183
377 2 -1.200000000000 3.936085460200 24.492447938089 7.713120769183
378 2 -1.200000000000 2.361651276120 0.000000000000 7.713120769183
379 2 -1.200000000000 5.510519644280 25.605741026184 5.784840576887
380 2 -1.200000000000 3.936085460200 1.113293088095 5.784840576887
381 2 -1.200000000000 5.510519644280 25.605741026184 9.641400961479
382 2 -1.200000000000 3.936085460200 1.113293088095 9.641400961479
383 2 -1.200000000000 7.084953828360 0.000000000000 7.713120769183
384 2 -1.200000000000 5.510519644280 2.226586176190 7.713120769183
385 1 2.400000000000 22.042078577122 2.226586176190 3.856560384591
386 1 2.400000000000 22.042078577122 5.566465440475 1.928280192296
387 1 2.400000000000 22.042078577122 5.566465440475 5.784840576887
388 1 2.400000000000 25.190946945282 4.453172352380 3.856560384591
389 2 -1.200000000000 22.829295669162 4.453172352380 3.856560384591
390 2 -1.200000000000 21.254861485081 6.679758528570 3.856560384591
391 2 -1.200000000000 24.403729853242 5.566465440475 1.928280192296
392 2 -1.200000000000 22.829295669162 7.793051616665 1.928280192296
393 2 -1.200000000000 24.403729853242 5.566465440475 5.784840576887
394 2 -1.200000000000 22.829295669162 7.793051616665 5.784840576887
395 2 -1.200000000000 25.978164037322 6.679758528570 3.856560384591
396 2 -1.200000000000 24.403729853242 8.906344704760 3.856560384591
397 1 2.400000000000 18.893210208961 6.679758528570 3.856560384591
398 1 2.400000000000 18.893210208961 10.019637792855 1.928280192296
399 1 2.400000000000 18.893210208961 10.019637792855 5.784840576887
400 1 2.400000000000 22.042078577122 8.906344704760 3.856560384591
401 2 -1.200000000000 19.680427301001 8.906344704760 3.856560384591
402 2 -1.200000000000 18.105993116921 11.132930880950 3.856560384591
403 2 -1.200000000000 21.254861485081 10.019637792855 1.928280192296
404 2 -1.200000000000 19.680427301001 12.246223969045 1.928280192296
405 2 -1.200000000000 21.254861485081 10.019637792855 5.784840576887
406 2 -1.200000000000 19.680427301001 12.246223969045 5.784840576887
407 2 -1.200000000000 22.829295669162 11.132930880950 3.856560384591
408 2 -1.200000000000 21.254861485081 13.359517057139 3.856560384591
409 1 2.400000000000 15.744341840801 11.132930880950 3.856560384591
410 1 2.400000000000 15.744341840801 14.472810145234 1.928280192296
411 1 2.400000000000 15.744341840801 14.472810145234 5.784840576887
412 1 2.400000000000 18.893210208961 13.359517057139 3.856560384591
413 2 -1.200000000000 16.531558932841 13.359517057139 3.856560384591
414 2 -1.200000000000 14.957124748761 15.586103233329 3.856560384591
415 2 -1.200000000000 18.105993116921 14.472810145234 1.928280192296
416 2 -1.200000000000 16.531558932841 16.699396321424 1.928280192296
417 2 -1.200000000000 18.105993116921 14.472810145234 5.784840576887
418 2 -1.200000000000 16.531558932841 16.699396321424 5.784840576887
419 2 -1.200000000000 19.680427301001 15.586103233329 3.856560384591
420 2 -1.200000000000 18.105993116921 17.812689409519 3.856560384591
421 1 2.400000000000 12.595473472641 15.586103233329 3.856560384591
422 1 2.400000000000 12.595473472641 18.925982497614 1.928280192296
423 1 2.400000000000 12.595473472641 18.925982497614 5.784840576887
424 1 2.400000000000 15.744341840801 17.812689409519 3.856560384591
425 2 -1.200000000000 13.382690564681 17.812689409519 3.856560384591
426 2 -1.200000000000 11.808256380601 20.039275585709 3.856560384591
427 2 -1.200000000000 14.957124748761 18.925982497614 1.928280192296
428 2 -1.200000000000 13.382690564681 21.152568673804 1.928280192296
429 2 -1.200000000000 14.957124748761 18.925982497614 5.784840576887
430 2 -1.200000000000 13.382690564681 21.152568673804 5.784840576887
431 2 -1.200000000000 16.531558932841 20.039275585709 3.856560384591
432 2 -1.200000000000 14.957124748761 22.265861761899 3.856560384591
433 1 2.400000000000 9.446605104481 20.039275585709 3.856560384591
434 1 2.400000000000 9.446605104481 23.379154849994 1.928280192296
435 1 2.400000000000 9.446605104481 23.379154849994 5.784840576887
436 1 2.400000000000 12.595473472641 22.265861761899 3.856560384591
437 2 -1.200000000000 10.233822196521 22.265861761899 3.856560384591
438 2 -1.200000000000 8.659388012441 24.492447938089 3.856560384591
439 2 -1.200000000000 11.808256380601 23.379154849994 1.928280192296
440 2 -1.200000000000 10.233822196521 25.605741026184 1.928280192296
441 2 -1.200000000000 11.808256380601 23.379154849994 5.784840576887
442 2 -1.200000000000 10.233822196521 25.605741026184 5.784840576887
443 2 -1.200000000000 13.382690564681 24.492447938089 3.856560384591
444 2 -1.200000000000 11.808256380601 0.000000000000 3.856560384591
445 1 2.400000000000 6.297736736320 24.492447938089 3.856560384591
446 1 2.400000000000 6.297736736320 1.113293088095 1.928280192296
447 1 2.400000000000 6.297736736320 1.113293088095 5.784840576887
448 1 2.400000000000 9.446605104481 0.000000000000 3.856560384591
449 2 -1.200000000000 7.084953828360 0.000000000000 3.856560384591
450 2 -1.200000000000 5.510519644280 2.226586176190 3.856560384591
451 2 -1.200000000000 8.659388012441 1.113293088095 1.928280192296
452 2 -1.200000000000 7.084953828360 3.339879264285 1.928280192296
453 2 -1.200000000000 8.659388012441 1.113293088095 5.784840576887
454 2 -1.200000000000 7.084953828360 3.339879264285 5.784840576887
455 2 -1.200000000000 10.233822196521 2.226586176190 3.856560384591
456 2 -1.200000000000 8.659388012441 4.453172352380 3.856560384591
457 1 2.400000000000 28.339815313442 0.000000000000 0.000000000000
458 1 2.400000000000 28.339815313442 3.339879264285 21.211082115253
459 1 2.400000000000 28.339815313442 3.339879264285 1.928280192296
460 1 2.400000000000 31.488683681602 2.226586176190 0.000000000000
461 2 -1.200000000000 29.127032405482 2.226586176190 0.000000000000
462 2 -1.200000000000 27.552598221402 4.453172352380 0.000000000000
463 2 -1.200000000000 30.701466589562 3.339879264285 21.211082115253
464 2 -1.200000000000 29.127032405482 5.566465440475 21.211082115253
465 2 -1.200000000000 30.701466589562 3.339879264285 1.928280192296
466 2 -1.200000000000 29.127032405482 5.566465440475 1.928280192296
467 2 -1.200000000000 32.275900773642 4.453172352380 0.000000000000
468 2 -1.200000000000 30.701466589562 6.679758528570 0.000000000000
469 1 2.400000000000 25.190946945282 4.453172352380 0.000000000000
470 1 2.400000000000 25.190946945282 7.793051616665 21.211082115253
471 1 2.400000000000 25.190946945282 7.793051616665 1.928280192296
472 1 2.400000000000 28.339815313442 6.679758528570 0.000000000000
473 2 -1.200000000000 25.978164037322 6.679758528570 0.000000000000
474 2 -1.200000000000 24.403729853242 8.906344704760 0.000000000000
475 2 -1.200000000000 27.552598221402 7.793051616665 21.211082115253
476 2 -1.200000000000 25.978164037322 10.019637792855 21.211082115253
477 2 -1.200000000000 27.552598221402 7.793051616665 1.928280192296
478 2 -1.200000000000 25.978164037322 10.019637792855 1.928280192296
479 2 -1.200000000000 29.127032405482 8.906344704760 0.000000000000
480 2 -1.200000000000 27.552598221402 11.132930880950 0.000000000000
481 1 2.400000000000 22.042078577122 8.906344704760 0.000000000000
482 1 2.400000000000 22.042078577122 12.246223969044 21.211082115253
483 1 2.400000000000 22.042078577122 12.246223969044 1.928280192296
484 1 2.400000000000 25.190946945282 11.132930880950 0.000000000000
485 2 -1.200000000000 22.829295669162 11.132930880950 0.000000000000
486 2 -1.200000000000 21.254861485081 13.359517057139 0.000000000000
487 2 -1.200000000000 24.403729853242 12.246223969044 21.211082115253
488 2 -1.200000000000 22.829295669162 14.472810145234 21.211082115253
489 2 -1.200000000000 24.403729853242 12.246223969044 1.928280192296
490 2 -1.200000000000 22.829295669162 14.472810145234 1.928280192296
491 2 -1.200000000000 25.978164037322 13.359517057139 0.000000000000
492 2 -1.200000000000 24.403729853242 15.586103233329 0.000000000000
493 1 2.400000000000 18.893210208961 13.359517057139 0.000000000000
494 1 2.400000000000 18.893210208961 16.699396321424 21.211082115253
495 1 2.400000000000 18.893210208961 16.699396321424 1.928280192296
496 1 2.400000000000 22.042078577122 15.586103233329 0.000000000000
497 2 -1.200000000000 19.680427301001 15.586103233329 0.000000000000
498 2 -1.200000000000 18.105993116921 17.812689409519 0.000000000000
499 2 -1.200000000000 21.254861485081 16.699396321424 21.211082115253
500 2 -1.200000000000 19.680427301001 18.925982497614 21.211082115253
501 2 -1.200000000000 21.254861485081 16.699396321424 1.928280192296
502 2 -1.200000000000 19.680427301001 18.925982497614 1.928280192296
503 2 -1.200000000000 22.829295669162 17.812689409519 0.000000000000
504 2 -1.200000000000 21.254861485081 20.039275585709 0.000000000000
505 1 2.400000000000 15.744341840801 17.812689409519 0.000000000000
506 1 2.400000000000 15.744341840801 21.152568673804 21.211082115253
507 1 2.400000000000 15.744341840801 21.152568673804 1.928280192296
508 1 2.400000000000 18.893210208961 20.039275585709 0.000000000000
509 2 -1.200000000000 16.531558932841 20.039275585709 0.000000000000
510 2 -1.200000000000 14.957124748761 22.265861761899 0.000000000000
511 2 -1.200000000000 18.105993116921 21.152568673804 21.211082115253
512 2 -1.200000000000 16.531558932841 23.379154849994 21.211082115253
513 2 -1.200000000000 18.105993116921 21.152568673804 1.928280192296
514 2 -1.200000000000 16.531558932841 23.379154849994 1.928280192296
515 2 -1.200000000000 19.680427301001 22.265861761899 0.000000000000
516 2 -1.200000000000 18.105993116921 24.492447938089 0.000000000000
517 1 2.400000000000 12.595473472641 22.265861761899 0.000000000000
518 1 2.400000000000 12.595473472641 25.605741026184 21.211082115253
519 1 2.400000000000 12.595473472641 25.605741026184 1.928280192296
520 1 2.400000000000 15.744341840801 24.492447938089 0.000000000000
521 2 -1.200000000000 13.382690564681 24.492447938089 0.000000000000
522 2 -1.200000000000 11.808256380601 0.000000000000 0.000000000000
523 2 -1.200000000000 14.957124748761 25.605741026184 21.211082115253
524 2 -1.200000000000 13.382690564681 1.113293088095 21.211082115253
525 2 -1.200000000000 14.957124748761 25.605741026184 1.928280192296
526 2 -1.200000000000 13.382690564681 1.113293088095 1.928280192296
527 2 -1.200000000000 16.531558932841 0.000000000000 0.000000000000
528 2 -1.200000000000 14.957124748761 2.226586176190 0.000000000000
529 1 2.400000000000 12.595473472641 2.226586176190 19.282801922957
530 1 2.400000000000 12.595473472641 5.566465440475 17.354521730661
531 1 2.400000000000 12.595473472641 5.566465440475 21.211082115253
532 1 2.400000000000 15.744341840801 4.453172352380 19.282801922957
533 2 -1.200000000000 13.382690564681 4.453172352380 19.282801922957
534 2 -1.200000000000 11.808256380601 6.679758528570 19.282801922957
535 2 -1.200000000000 14.957124748761 5.566465440475 17.354521730661
536 2 -1.200000000000 13.382690564681 7.793051616665 17.354521730661
537 2 -1.200000000000 14.957124748761 5.566465440475 21.211082115253
538 2 -1.200000000000 13.382690564681 7.793051616665 21.211082115253
539 2 -1.200000000000 16.531558932841 6.679758528570 19.282801922957
540 2 -1.200000000000 14.957124748761 8.906344704760 19.282801922957
541 1 2.400000000000 9.446605104481 6.679758528570 19.282801922957
542 1 2.400000000000 9.446605104481 10.019637792855 17.354521730661
543 1 2.400000000000 9.446605104481 10.019637792855 21.211082115253
544 1 2.400000000000 12.595473472641 8.906344704760 19.282801922957
545 2 -1.200000000000 10.233822196521 8.906344704760 19.282801922957
546 2 -1.200000000000 8.659388012441 11.132930880950 19.282801922957
547 2 -1.200000000000 11.808256380601 10.019637792855 17.354521730661
548 2 -1.200000000000 10.233822196521 12.246223969044 17.354521730661
549 2 -1.200000000000 11.808256380601 10.019637792855 21.211082115253
550 2 -1.200000000000 10.233822196521 12.246223969045 21.211082115253
551 2 -1.200000000000 13.382690564681 11.132930880950 19.282801922957
552 2 -1.200000000000 11.808256380601 13.359517057139 19.282801922957
553 1 2.400000000000 6.297736736320 11.132930880950 19.282801922957
554 1 2.400000000000 6.297736736320 14.472810145234 17.354521730661
555 1 2.400000000000 6.297736736320 14.472810145234 21.211082115253
556 1 2.400000000000 9.446605104481 13.359517057139 19.282801922957
557 2 -1.200000000000 7.084953828360 13.359517057139 19.282801922957
558 2 -1.200000000000 5.510519644280 15.586103233329 19.282801922957
559 2 -1.200000000000 8.659388012441 14.472810145234 17.354521730661
560 2 -1.200000000000 7.084953828360 16.699396321424 17.354521730661
561 2 -1.200000000000 8.659388012441 14.472810145234 21.211082115253
562 2 -1.200000000000 7.084953828360 16.699396321424 21.211082115253
563 2 -1.200000000000 10.233822196521 15.586103233329 19.282801922957
564 2 -1.200000000000 8.659388012441 17.812689409519 19.282801922957
565 1 2.400000000000 3.148868368160 15.586103233329 19.282801922957
566 1 2.400000000000 3.148868368160 18.925982497614 17.354521730661
567 1 2.400000000000 3.148868368160 18.925982497614 21.211082115253
568 1 2.400000000000 6.297736736320 17.812689409519 19.282801922957
569 2 -1.200000000000 3.936085460200 17.812689409519 19.282801922957
570 2 -1.200000000000 2.361651276120 20.039275585709 19.282801922957
571 2 -1.200000000000 5.510519644280 18.925982497614 17.354521730661
572 2 -1.200000000000 3.936085460200 21.152568673804 17.354521730661
573 2 -1.200000000000 5.510519644280 18.925982497614 21.211082115253
574 2 -1.200000000000 3.936085460200 21.152568673804 21.211082115253
575 2 -1.200000000000 7.084953828360 20.039275585709 19.282801922957
576 2 -1.200000000000 5.510519644280 22.265861761899 19.282801922957
577 1 2.400000000000 18.893210208961 0.000000000000 15.426241538366
578 1 2.400000000000 18.893210208961 3.339879264285 13.497961346070
579 1 2.400000000000 18.893210208961 3.339879264285 17.354521730661
580 1 2.400000000000 22.042078577122 2.226586176190 15.426241538366
581 2 -1.200000000000 19.680427301001 2.226586176190 15.426241538366
582 2 -1.200000000000 18.105993116921 4.453172352380 15.426241538366
583 2 -1.200000000000 21.254861485081 3.339879264285 13.497961346070
584 2 -1.200000000000 19.680427301001 5.566465440475 13.497961346070
585 2 -1.200000000000 21.254861485081 3.339879264285 17.354521730661
586 2 -1.200000000000 19.680427301001 5.566465440475 17.354521730661
587 2 -1.200000000000 22.829295669162 4.453172352380 15.426241538366
588 2 -1.200000000000 21.254861485081 6.679758528570 15.426241538366
589 1 2.400000000000 15.744341840801 4.453172352380 15.426241538366
590 1 2.400000000000 15.744341840801 7.793051616665 13.497961346070
591 1 2.400000000000 15.744341840801 7.793051616665 17.354521730661
592 1 2.400000000000 18.893210208961 6.679758528570 15.426241538366
593 2 -1.200000000000 16.531558932841 6.679758528570 15.426241538366
594 2 -1.200000000000 14.957124748761 8.906344704760 15.426241538366
595 2 -1.200000000000 18.105993116921 7.793051616665 13.497961346070
596 2 -1.200000000000 16.531558932841 10.019637792855 13.497961346070
597 2 -1.200000000000 18.105993116921 7.793051616665 17.354521730661
598 2 -1.200000000000 16.531558932841 10.019637792855 17.354521730661
599 2 -1.200000000000 19.680427301001 8.906344704760 15.426241538366
600 2 -1.200000000000 18.105993116921 11.132930880950 15.426241538366
601 1 2.400000000000 12.595473472641 8.906344704760 15.426241538366
602 1 2.400000000000 12.595473472641 12.246223969045 13.497961346070
603 1 2.400000000000 12.595473472641 12.246223969045 17.354521730661
604 1 2.400000000000 15.744341840801 11.132930880950 15.426241538366
605 2 -1.200000000000 13.382690564681 11.132930880950 15.426241538366
606 2 -1.200000000000 11.808256380601 13.359517057139 15.426241538366
607 2 -1.200000000000 14.957124748761 12.246223969044 13.497961346070
608 2 -1.200000000000 13.382690564681 14.472810145234 13.497961346070
609 2 -1.200000000000 14.957124748761 12.246223969045 17.354521730661
610 2 -1.200000000000 13.382690564681 14.472810145234 17.354521730661
611 2 -1.200000000000 16.531558932841 13.359517057139 15.426241538366
612 2 -1.200000000000 14.957124748761 15.586103233329 15.426241538366
613 1 2.400000000000 9.446605104481 13.359517057139 15.426241538366
614 1 2.400000000000 9.446605104481 16.699396321424 13.497961346070
615 1 2.400000000000 9.446605104481 16.699396321424 17.354521730661
616 1 2.400000000000 12.595473472641 15.586103233329 15.426241538366
617 2 -1.200000000000 10.233822196521 15.586103233329 15.426241538366
618 2 -1.200000000000 8.659388012441 17.812689409519 15.426241538366
619 2 -1.200000000000 11.808256380601 16.699396321424 13.497961346070
620 2 -1.200000000000 10.233822196521 18.925982497614 13.497961346070
621 2 -1.200000000000 11.808256380601 16.699396321424 17.354521730661
622 2 -1.200000000000 10.233822196521 18.925982497614 17.354521730661
623 2 -1.200000000000 13.382690564681 17.812689409519 15.426241538366
624 2 -1.200000000000 11.808256380601 20.039275585709 15.426241538366
625 1 2.400000000000 6.297736736320 17.812689409519 15.426241538366
626 1 2.400000000000 6.297736736320 21.152568673804 13.497961346070
627 1 2.400000000000 6.297736736320 21.152568673804 17.354521730661
628 1 2.400000000000 9.446605104481 20.039275585709 15.426241538366
629 2 -1.200000000000 7.084953828360 20.039275585709 15.426241538366
630 2 -1.200000000000 5.510519644280 22.265861761899 15.426241538366
631 2 -1.200000000000 8.659388012441 21.152568673804 13.497961346070
632 2 -1.200000000000 7.084953828360 23.379154849994 13.497961346070
633 2 -1.200000000000 8.659388012441 21.152568673804 17.354521730661
634 2 -1.200000000000 7.084953828360 23.379154849994 17.354521730661
635 2 -1.200000000000 10.233822196521 22.265861761899 15.426241538366
636 2 -1.200000000000 8.659388012441 24.492447938089 15.426241538366
637 1 2.400000000000 3.148868368160 22.265861761899 15.426241538366
638 1 2.400000000000 3.148868368160 25.605741026184 13.497961346070
639 1 2.400000000000 3.148868368160 25.605741026184 17.354521730661
640 1 2.400000000000 6.297736736320 24.492447938089 15.426241538366
641 2 -1.200000000000 3.936085460200 24.492447938089 15.426241538366
642 2 -1.200000000000 2.361651276120 0.000000000000 15.426241538366
643 2 -1.200000000000 5.510519644280 25.605741026184 13.497961346070
644 2 -1.200000000000 3.936085460200 1.113293088095 13.497961346070
645 2 -1.200000000000 5.510519644280 25.605741026184 17.354521730661
646 2 -1.200000000000 3.936085460200 1.113293088095 17.354521730661
647 2 -1.200000000000 7.084953828360 0.000000000000 15.426241538366
648 2 -1.200000000000 5.510519644280 2.226586176190 15.426241538366
649 1 2.400000000000 22.042078577122 2.226586176190 11.569681153774
650 1 2.400000000000 22.042078577122 5.566465440475 9.641400961479
651 1 2.400000000000 22.042078577122 5.566465440475 13.497961346070
652 1 2.400000000000 25.190946945282 4.453172352380 11.569681153774
653 2 -1.200000000000 22.829295669162 4.453172352380 11.569681153774
654 2 -1.200000000000 21.254861485081 6.679758528570 11.569681153774
655 2 -1.200000000000 24.403729853242 5.566465440475 9.641400961479
656 2 -1.200000000000 22.829295669162 7.793051616665 9.641400961479
657 2 -1.200000000000 24.403729853242 5.566465440475 13.497961346070
658 2 -1.200000000000 22.829295669162 7.793051616665 13.497961346070
659 2 -1.200000000000 25.978164037322 6.679758528570 11.569681153774
660 2 -1.200000000000 24.403729853242 8.906344704760 11.569681153774
661 1 2.400000000000 18.893210208961 6.679758528570 11.569681153774
662 1 2.400000000000 18.893210208961 10.019637792855 9.641400961479
663 1 2.400000000000 18.893210208961 10.019637792855 13.497961346070
664 1 2.400000000000 22.042078577122 8.906344704760 11.569681153774
665 2 -1.200000000000 19.680427301001 8.906344704760 11.569681153774
666 2 -1.200000000000 18.105993116921 11.132930880950 11.569681153774
667 2 -1.200000000000 21.254861485081 10.019637792855 9.641400961479
668 2 -1.200000000000 19.680427301001 12.246223969044 9.641400961479
669 2 -1.200000000000 21.254861485081 10.019637792855 13.497961346070
670 2 -1.200000000000 19.680427301001 12.246223969045 13.497961346070
671 2 -1.200000000000 22.829295669162 11.132930880950 11.569681153774
672 2 -1.200000000000 21.254861485081 13.359517057139 11.569681153774
673 1 2.400000000000 15.744341840801 11.132930880950 11.569681153774
674 1 2.400000000000 15.744341840801 14.472810145234 9.641400961479
675 1 2.400000000000 15.744341840801 14.472810145234 13.497961346070
676 1 2.400000000000 18.893210208961 13.359517057139 11.569681153774
677 2 -1.200000000000 16.531558932841 13.359517057139 11.569681153774
678 2 -1.200000000000 14.957124748761 15.586103233329 11.569681153774
679 2 -1.200000000000 18.105993116921 14.472810145234 9.641400961479
680 2 -1.200000000000 16.531558932841 16.699396321424 9.641400961479
681 2 -1.200000000000 18.105993116921 14.472810145234 13.497961346070
682 2 -1.200000000000 16.531558932841 16.699396321424 13.497961346070
683 2 -1.200000000000 19.680427301001 15.586103233329 11.569681153774
684 2 -1.200000000000 18.105993116921 17.812689409519 11.569681153774
685 1 2.400000000000 12.595473472641 15.586103233329 11.569681153774
686 1 2.400000000000 12.595473472641 18.925982497614 9.641400961479
687 1 2.400000000000 12.595473472641 18.925982497614 13.497961346070
688 1 2.400000000000 15.744341840801 17.812689409519 11.569681153774
689 2 -1.200000000000 13.382690564681 17.812689409519 11.569681153774
690 2 -1.200000000000 11.808256380601 20.039275585709 11.569681153774
691 2 -1.200000000000 14.957124748761 18.925982497614 9.641400961479
692 2 -1.200000000000 13.382690564681 21.152568673804 9.641400961479
693 2 -1.200000000000 14.957124748761 18.925982497614 13.497961346070
694 2 -1.200000000000 13.382690564681 21.152568673804 13.497961346070
695 2 -1.200000000000 16.531558932841 20.039275585709 11.569681153774
696 2 -1.200000000000 14.957124748761 22.265861761899 11.569681153774
697 1 2.400000000000 9.446605104481 20.039275585709 11.569681153774
698 1 2.400000000000 9.446605104481 23.379154849994 9.641400961479
699 1 2.400000000000 9.446605104481 23.379154849994 13.497961346070
700 1 2.400000000000 12.595473472641 22.265861761899 11.569681153774
701 2 -1.200000000000 10.233822196521 22.265861761899 11.569681153774
702 2 -1.200000000000 8.659388012441 24.492447938089 11.569681153774
703 2 -1.200000000000 11.808256380601 23.379154849994 9.641400961479
704 2 -1.200000000000 10.233822196521 25.605741026184 9.641400961479
705 2 -1.200000000000 11.808256380601 23.379154849994 13.497961346070
706 2 -1.200000000000 10.233822196521 25.605741026184 13.497961346070
707 2 -1.200000000000 13.382690564681 24.492447938089 11.569681153774
708 2 -1.200000000000 11.808256380601 0.000000000000 11.569681153774
709 1 2.400000000000 6.297736736320 24.492447938089 11.569681153774
710 1 2.400000000000 6.297736736320 1.113293088095 9.641400961479
711 1 2.400000000000 6.297736736320 1.113293088095 13.497961346070
712 1 2.400000000000 9.446605104481 0.000000000000 11.569681153774
713 2 -1.200000000000 7.084953828360 0.000000000000 11.569681153774
714 2 -1.200000000000 5.510519644280 2.226586176190 11.569681153774
715 2 -1.200000000000 8.659388012441 1.113293088095 9.641400961479
716 2 -1.200000000000 7.084953828360 3.339879264285 9.641400961479
717 2 -1.200000000000 8.659388012441 1.113293088095 13.497961346070
718 2 -1.200000000000 7.084953828360 3.339879264285 13.497961346070
719 2 -1.200000000000 10.233822196521 2.226586176190 11.569681153774
720 2 -1.200000000000 8.659388012441 4.453172352380 11.569681153774
721 1 2.400000000000 28.339815313442 0.000000000000 7.713120769183
722 1 2.400000000000 28.339815313442 3.339879264285 5.784840576887
723 1 2.400000000000 28.339815313442 3.339879264285 9.641400961479
724 1 2.400000000000 31.488683681602 2.226586176190 7.713120769183
725 2 -1.200000000000 29.127032405482 2.226586176190 7.713120769183
726 2 -1.200000000000 27.552598221402 4.453172352380 7.713120769183
727 2 -1.200000000000 30.701466589562 3.339879264285 5.784840576887
728 2 -1.200000000000 29.127032405482 5.566465440475 5.784840576887
729 2 -1.200000000000 30.701466589562 3.339879264285 9.641400961479
730 2 -1.200000000000 29.127032405482 5.566465440475 9.641400961479
731 2 -1.200000000000 32.275900773642 4.453172352380 7.713120769183
732 2 -1.200000000000 30.701466589562 6.679758528570 7.713120769183
733 1 2.400000000000 25.190946945282 4.453172352380 7.713120769183
734 1 2.400000000000 25.190946945282 7.793051616665 5.784840576887
735 1 2.400000000000 25.190946945282 7.793051616665 9.641400961479
736 1 2.400000000000 28.339815313442 6.679758528570 7.713120769183
737 2 -1.200000000000 25.978164037322 6.679758528570 7.713120769183
738 2 -1.200000000000 24.403729853242 8.906344704760 7.713120769183
739 2 -1.200000000000 27.552598221402 7.793051616665 5.784840576887
740 2 -1.200000000000 25.978164037322 10.019637792855 5.784840576887
741 2 -1.200000000000 27.552598221402 7.793051616665 9.641400961479
742 2 -1.200000000000 25.978164037322 10.019637792855 9.641400961479
743 2 -1.200000000000 29.127032405482 8.906344704760 7.713120769183
744 2 -1.200000000000 27.552598221402 11.132930880950 7.713120769183
745 1 2.400000000000 22.042078577122 8.906344704760 7.713120769183
746 1 2.400000000000 22.042078577122 12.246223969044 5.784840576887
747 1 2.400000000000 22.042078577122 12.246223969044 9.641400961479
748 1 2.400000000000 25.190946945282 11.132930880950 7.713120769183
749 2 -1.200000000000 22.829295669162 11.132930880950 7.713120769183
750 2 -1.200000000000 21.254861485081 13.359517057139 7.713120769183
751 2 -1.200000000000 24.403729853242 12.246223969044 5.784840576887
752 2 -1.200000000000 22.829295669162 14.472810145234 5.784840576887
753 2 -1.200000000000 24.403729853242 12.246223969045 9.641400961479
754 2 -1.200000000000 22.829295669162 14.472810145234 9.641400961479
755 2 -1.200000000000 25.978164037322 13.359517057139 7.713120769183
756 2 -1.200000000000 24.403729853242 15.586103233329 7.713120769183
757 1 2.400000000000 18.893210208961 13.359517057139 7.713120769183
758 1 2.400000000000 18.893210208961 16.699396321424 5.784840576887
759 1 2.400000000000 18.893210208961 16.699396321424 9.641400961479
760 1 2.400000000000 22.042078577122 15.586103233329 7.713120769183
761 2 -1.200000000000 19.680427301001 15.586103233329 7.713120769183
762 2 -1.200000000000 18.105993116921 17.812689409519 7.713120769183
763 2 -1.200000000000 21.254861485081 16.699396321424 5.784840576887
764 2 -1.200000000000 19.680427301001 18.925982497614 5.784840576887
765 2 -1.200000000000 21.254861485081 16.699396321424 9.641400961479
766 2 -1.200000000000 19.680427301001 18.925982497614 9.641400961479
767 2 -1.200000000000 22.829295669162 17.812689409519 7.713120769183
768 2 -1.200000000000 21.254861485081 20.039275585709 7.713120769183
769 1 2.400000000000 15.744341840801 17.812689409519 7.713120769183
770 1 2.400000000000 15.744341840801 21.152568673804 5.784840576887
771 1 2.400000000000 15.744341840801 21.152568673804 9.641400961479
772 1 2.400000000000 18.893210208961 20.039275585709 7.713120769183
773 2 -1.200000000000 16.531558932841 20.039275585709 7.713120769183
774 2 -1.200000000000 14.957124748761 22.265861761899 7.713120769183
775 2 -1.200000000000 18.105993116921 21.152568673804 5.784840576887
776 2 -1.200000000000 16.531558932841 23.379154849994 5.784840576887
777 2 -1.200000000000 18.105993116921 21.152568673804 9.641400961479
778 2 -1.200000000000 16.531558932841 23.379154849994 9.641400961479
779 2 -1.200000000000 19.680427301001 22.265861761899 7.713120769183
780 2 -1.200000000000 18.105993116921 24.492447938089 7.713120769183
781 1 2.400000000000 12.595473472641 22.265861761899 7.713120769183
782 1 2.400000000000 12.595473472641 25.605741026184 5.784840576887
783 1 2.400000000000 12.595473472641 25.605741026184 9.641400961479
784 1 2.400000000000 15.744341840801 24.492447938089 7.713120769183
785 2 -1.200000000000 13.382690564681 24.492447938089 7.713120769183
786 2 -1.200000000000 11.808256380601 0.000000000000 7.713120769183
787 2 -1.200000000000 14.957124748761 25.605741026184 5.784840576887
788 2 -1.200000000000 13.382690564681 1.113293088095 5.784840576887
789 2 -1.200000000000 14.957124748761 25.605741026184 9.641400961479
790 2 -1.200000000000 13.382690564681 1.113293088095 9.641400961479
791 2 -1.200000000000 16.531558932841 0.000000000000 7.713120769183
792 2 -1.200000000000 14.957124748761 2.226586176190 7.713120769183
793 1 2.400000000000 31.488683681602 2.226586176190 3.856560384591
794 1 2.400000000000 31.488683681602 5.566465440475 1.928280192296
795 1 2.400000000000 31.488683681602 5.566465440475 5.784840576887
796 1 2.400000000000 34.637552049762 4.453172352380 3.856560384591
797 2 -1.200000000000 32.275900773642 4.453172352380 3.856560384591
798 2 -1.200000000000 30.701466589562 6.679758528570 3.856560384591
799 2 -1.200000000000 33.850334957722 5.566465440475 1.928280192296
800 2 -1.200000000000 32.275900773642 7.793051616665 1.928280192296
801 2 -1.200000000000 33.850334957722 5.566465440475 5.784840576887
802 2 -1.200000000000 32.275900773642 7.793051616665 5.784840576887
803 2 -1.200000000000 35.424769141802 6.679758528570 3.856560384591
804 2 -1.200000000000 33.850334957722 8.906344704760 3.856560384591
805 1 2.400000000000 28.339815313442 6.679758528570 3.856560384591
806 1 2.400000000000 28.339815313442 10.019637792855 1.928280192296
807 1 2.400000000000 28.339815313442 10.019637792855 5.784840576887
808 1 2.400000000000 31.488683681602 8.906344704760 3.856560384591
809 2 -1.200000000000 29.127032405482 8.906344704760 3.856560384591
810 2 -1.200000000000 27.552598221402 11.132930880950 3.856560384591
811 2 -1.200000000000 30.701466589562 10.019637792855 1.928280192296
812 2 -1.200000000000 29.127032405482 12.246223969044 1.928280192296
813 2 -1.200000000000 30.701466589562 10.019637792855 5.784840576887
814 2 -1.200000000000 29.127032405482 12.246223969045 5.784840576887
815 2 -1.200000000000 32.275900773642 11.132930880950 3.856560384591
816 2 -1.200000000000 30.701466589562 13.359517057139 3.856560384591
817 1 2.400000000000 25.190946945282 11.132930880950 3.856560384591
818 1 2.400000000000 25.190946945282 14.472810145234 1.928280192296
819 1 2.400000000000 25.190946945282 14.472810145234 5.784840576887
820 1 2.400000000000 28.339815313442 13.359517057139 3.856560384591
821 2 -1.200000000000 25.978164037322 13.359517057139 3.856560384591
822 2 -1.200000000000 24.403729853242 15.586103233329 3.856560384591
823 2 -1.200000000000 27.552598221402 14.472810145234 1.928280192296
824 2 -1.200000000000 25.978164037322 16.699396321424 1.928280192296
825 2 -1.200000000000 27.552598221402 14.472810145234 5.784840576887
826 2 -1.200000000000 25.978164037322 16.699396321424 5.784840576887
827 2 -1.200000000000 29.127032405482 15.586103233329 3.856560384591
828 2 -1.200000000000 27.552598221402 17.812689409519 3.856560384591
829 1 2.400000000000 22.042078577122 15.586103233329 3.856560384591
830 1 2.400000000000 22.042078577122 18.925982497614 1.928280192296
831 1 2.400000000000 22.042078577122 18.925982497614 5.784840576887
832 1 2.400000000000 25.190946945282 17.812689409519 3.856560384591
833 2 -1.200000000000 22.829295669162 17.812689409519 3.856560384591
834 2 -1.200000000000 21.254861485081 20.039275585709 3.856560384591
835 2 -1.200000000000 24.403729853242 18.925982497614 1.928280192296
836 2 -1.200000000000 22.829295669162 21.152568673804 1.928280192296
837 2 -1.200000000000 24.403729853242 18.925982497614 5.784840576887
838 2 -1.200000000000 22.829295669162 21.152568673804 5.784840576887
839 2 -1.200000000000 25.978164037322 20.039275585709 3.856560384591
840 2 -1.200000000000 24.403729853242 22.265861761899 3.856560384591
841 1 2.400000000000 18.893210208961 20.039275585709 3.856560384591
842 1 2.400000000000 18.893210208961 23.379154849994 1.928280192296
843 1 2.400000000000 18.893210208961 23.379154849994 5.784840576887
844 1 2.400000000000 22.042078577122 22.265861761899 3.856560384591
845 2 -1.200000000000 19.680427301001 22.265861761899 3.856560384591
846 2 -1.200000000000 18.105993116921 24.492447938089 3.856560384591
847 2 -1.200000000000 21.254861485081 23.379154849994 1.928280192296
848 2 -1.200000000000 19.680427301001 25.605741026184 1.928280192296
849 2 -1.200000000000 21.254861485081 23.379154849994 5.784840576887
850 2 -1.200000000000 19.680427301001 25.605741026184 5.784840576887
851 2 -1.200000000000 22.829295669162 24.492447938089 3.856560384591
852 2 -1.200000000000 21.254861485081 0.000000000000 3.856560384591
853 1 2.400000000000 15.744341840801 24.492447938089 3.856560384591
854 1 2.400000000000 15.744341840801 1.113293088095 1.928280192296
855 1 2.400000000000 15.744341840801 1.113293088095 5.784840576887
856 1 2.400000000000 18.893210208961 0.000000000000 3.856560384591
857 2 -1.200000000000 16.531558932841 0.000000000000 3.856560384591
858 2 -1.200000000000 14.957124748761 2.226586176190 3.856560384591
859 2 -1.200000000000 18.105993116921 1.113293088095 1.928280192296
860 2 -1.200000000000 16.531558932841 3.339879264285 1.928280192296
861 2 -1.200000000000 18.105993116921 1.113293088095 5.784840576887
862 2 -1.200000000000 16.531558932841 3.339879264285 5.784840576887
863 2 -1.200000000000 19.680427301001 2.226586176190 3.856560384591
864 2 -1.200000000000 18.105993116921 4.453172352380 3.856560384591
865 1 2.400000000000 37.786420417923 0.000000000000 0.000000000000
866 1 2.400000000000 37.786420417923 3.339879264285 21.211082115253
867 1 2.400000000000 37.786420417923 3.339879264285 1.928280192296
868 1 2.400000000000 40.935288786083 2.226586176190 0.000000000000
869 2 -1.200000000000 38.573637509963 2.226586176190 0.000000000000
870 2 -1.200000000000 36.999203325883 4.453172352380 0.000000000000
871 2 -1.200000000000 40.148071694043 3.339879264285 21.211082115253
872 2 -1.200000000000 38.573637509963 5.566465440475 21.211082115253
873 2 -1.200000000000 40.148071694043 3.339879264285 1.928280192296
874 2 -1.200000000000 38.573637509963 5.566465440475 1.928280192296
875 2 -1.200000000000 41.722505878123 4.453172352380 0.000000000000
876 2 -1.200000000000 40.148071694043 6.679758528570 0.000000000000
877 1 2.400000000000 34.637552049762 4.453172352380 0.000000000000
878 1 2.400000000000 34.637552049762 7.793051616665 21.211082115253
879 1 2.400000000000 34.637552049762 7.793051616665 1.928280192296
880 1 2.400000000000 37.786420417923 6.679758528570 0.000000000000
881 2 -1.200000000000 35.424769141802 6.679758528570 0.000000000000
882 2 -1.200000000000 33.850334957722 8.906344704760 0.000000000000
883 2 -1.200000000000 36.999203325883 7.793051616665 21.211082115253
884 2 -1.200000000000 35.424769141802 10.019637792855 21.211082115253
885 2 -1.200000000000 36.999203325883 7.793051616665 1.928280192296
886 2 -1.200000000000 35.424769141802 10.019637792855 1.928280192296
887 2 -1.200000000000 38.573637509963 8.906344704760 0.000000000000
888 2 -1.200000000000 36.999203325883 11.132930880950 0.000000000000
889 1 2.400000000000 31.488683681602 8.906344704760 0.000000000000
890 1 2.400000000000 31.488683681602 12.246223969045 21.211082115253
891 1 2.400000000000 31.488683681602 12.246223969045 1.928280192296
892 1 2.400000000000 34.637552049762 11.132930880950 0.000000000000
893 2 -1.200000000000 32.275900773642 11.132930880950 0.000000000000
894 2 -1.200000000000 30.701466589562 13.359517057139 0.000000000000
895 2 -1.200000000000 33.850334957722 12.246223969044 21.211082115253
896 2 -1.200000000000 32.275900773642 14.472810145234 21.211082115253
897 2 -1.200000000000 33.850334957722 12.246223969044 1.928280192296
898 2 -1.200000000000 32.275900773642 14.472810145234 1.928280192296
899 2 -1.200000000000 35.424769141802 13.359517057139 0.000000000000
900 2 -1.200000000000 33.850334957722 15.586103233329 0.000000000000
901 1 2.400000000000 28.339815313442 13.359517057139 0.000000000000
902 1 2.400000000000 28.339815313442 16.699396321424 21.211082115253
903 1 2.400000000000 28.339815313442 16.699396321424 1.928280192296
904 1 2.400000000000 31.488683681602 15.586103233329 0.000000000000
905 2 -1.200000000000 29.127032405482 15.586103233329 0.000000000000
906 2 -1.200000000000 27.552598221402 17.812689409519 0.000000000000
907 2 -1.200000000000 30.701466589562 16.699396321424 21.211082115253
908 2 -1.200000000000 29.127032405482 18.925982497614 21.211082115253
909 2 -1.200000000000 30.701466589562 16.699396321424 1.928280192296
910 2 -1.200000000000 29.127032405482 18.925982497614 1.928280192296
911 2 -1.200000000000 32.275900773642 17.812689409519 0.000000000000
912 2 -1.200000000000 30.701466589562 20.039275585709 0.000000000000
913 1 2.400000000000 25.190946945282 17.812689409519 0.000000000000
914 1 2.400000000000 25.190946945282 21.152568673804 21.211082115253
915 1 2.400000000000 25.190946945282 21.152568673804 1.928280192296
916 1 2.400000000000 28.339815313442 20.039275585709 0.000000000000
917 2 -1.200000000000 25.978164037322 20.039275585709 0.000000000000
918 2 -1.200000000000 24.403729853242 22.265861761899 0.000000000000
919 2 -1.200000000000 27.552598221402 21.152568673804 21.211082115253
920 2 -1.200000000000 25.978164037322 23.379154849994 21.211082115253
921 2 -1.200000000000 27.552598221402 21.152568673804 1.928280192296
922 2 -1.200000000000 25.978164037322 23.379154849994 1.928280192296
923 2 -1.200000000000 29.127032405482 22.265861761899 0.000000000000
924 2 -1.200000000000 27.552598221402 24.492447938089 0.000000000000
925 1 2.400000000000 22.042078577122 22.265861761899 0.000000000000
926 1 2.400000000000 22.042078577122 25.605741026184 21.211082115253
927 1 2.400000000000 22.042078577122 25.605741026184 1.928280192296
928 1 2.400000000000 25.190946945282 24.492447938089 0.000000000000
929 2 -1.200000000000 22.829295669162 24.492447938089 0.000000000000
930 2 -1.200000000000 21.254861485081 0.000000000000 0.000000000000
931 2 -1.200000000000 24.403729853242 25.605741026184 21.211082115253
932 2 -1.200000000000 22.829295669162 1.113293088095 21.211082115253
933 2 -1.200000000000 24.403729853242 25.605741026184 1.928280192296
934 2 -1.200000000000 22.829295669162 1.113293088095 1.928280192296
935 2 -1.200000000000 25.978164037322 0.000000000000 0.000000000000
936 2 -1.200000000000 24.403729853242 2.226586176190 0.000000000000
937 1 2.400000000000 22.042078577122 2.226586176190 19.282801922957
938 1 2.400000000000 22.042078577122 5.566465440475 17.354521730661
939 1 2.400000000000 22.042078577122 5.566465440475 21.211082115253
940 1 2.400000000000 25.190946945282 4.453172352380 19.282801922957
941 2 -1.200000000000 22.829295669162 4.453172352380 19.282801922957
942 2 -1.200000000000 21.254861485081 6.679758528570 19.282801922957
943 2 -1.200000000000 24.403729853242 5.566465440475 17.354521730661
944 2 -1.200000000000 22.829295669162 7.793051616665 17.354521730661
945 2 -1.200000000000 24.403729853242 5.566465440475 21.211082115253
946 2 -1.200000000000 22.829295669162 7.793051616665 21.211082115253
947 2 -1.200000000000 25.978164037322 6.679758528570 19.282801922957
948 2 -1.200000000000 24.403729853242 8.906344704760 19.282801922957
949 1 2.400000000000 18.893210208961 6.679758528570 19.282801922957
950 1 2.400000000000 18.893210208961 10.019637792855 17.354521730661
951 1 2.400000000000 18.893210208961 10.019637792855 21.211082115253
952 1 2.400000000000 22.042078577122 8.906344704760 19.282801922957
953 2 -1.200000000000 19.680427301001 8.906344704760 19.282801922957
954 2 -1.200000000000 18.105993116921 11.132930880950 19.282801922957
955 2 -1.200000000000 21.254861485081 10.019637792855 17.354521730661
956 2 -1.200000000000 19.680427301001 12.246223969045 17.354521730661
957 2 -1.200000000000 21.254861485081 10.019637792855 21.211082115253
958 2 -1.200000000000 19.680427301001 12.246223969045 21.211082115253
959 2 -1.200000000000 22.829295669162 11.132930880950 19.282801922957
960 2 -1.200000000000 21.254861485081 13.359517057139 19.282801922957
961 1 2.400000000000 15.744341840801 11.132930880950 19.282801922957
962 1 2.400000000000 15.744341840801 14.472810145234 17.354521730661
963 1 2.400000000000 15.744341840801 14.472810145234 21.211082115253
964 1 2.400000000000 18.893210208961 13.359517057139 19.282801922957
965 2 -1.200000000000 16.531558932841 13.359517057139 19.282801922957
966 2 -1.200000000000 14.957124748761 15.586103233329 19.282801922957
967 2 -1.200000000000 18.105993116921 14.472810145234 17.354521730661
968 2 -1.200000000000 16.531558932841 16.699396321424 17.354521730661
969 2 -1.200000000000 18.105993116921 14.472810145234 21.211082115253
970 2 -1.200000000000 16.531558932841 16.699396321424 21.211082115253
971 2 -1.200000000000 19.680427301001 15.586103233329 19.282801922957
972 2 -1.200000000000 18.105993116921 17.812689409519 19.282801922957
973 1 2.400000000000 12.595473472641 15.586103233329 19.282801922957
974 1 2.400000000000 12.595473472641 18.925982497614 17.354521730661
975 1 2.400000000000 12.595473472641 18.925982497614 21.211082115253
976 1 2.400000000000 15.744341840801 17.812689409519 19.282801922957
977 2 -1.200000000000 13.382690564681 17.812689409519 19.282801922957
978 2 -1.200000000000 11.808256380601 20.039275585709 19.282801922957
979 2 -1.200000000000 14.957124748761 18.925982497614 17.354521730661
980 2 -1.200000000000 13.382690564681 21.152568673804 17.354521730661
981 2 -1.200000000000 14.957124748761 18.925982497614 21.211082115253
982 2 -1.200000000000 13.382690564681 21.152568673804 21.211082115253
983 2 -1.200000000000 16.531558932841 20.039275585709 19.282801922957
984 2 -1.200000000000 14.957124748761 22.265861761899 19.282801922957
985 1 2.400000000000 9.446605104481 20.039275585709 19.282801922957
986 1 2.400000000000 9.446605104481 23.379154849994 17.354521730661
987 1 2.400000000000 9.446605104481 23.379154849994 21.211082115253
988 1 2.400000000000 12.595473472641 22.265861761899 19.282801922957
989 2 -1.200000000000 10.233822196521 22.265861761899 19.282801922957
990 2 -1.200000000000 8.659388012441 24.492447938089 19.282801922957
991 2 -1.200000000000 11.808256380601 23.379154849994 17.354521730661
992 2 -1.200000000000 10.233822196521 25.605741026184 17.354521730661
993 2 -1.200000000000 11.808256380601 23.379154849994 21.211082115253
994 2 -1.200000000000 10.233822196521 25.605741026184 21.211082115253
995 2 -1.200000000000 13.382690564681 24.492447938089 19.282801922957
996 2 -1.200000000000 11.808256380601 0.000000000000 19.282801922957
997 1 2.400000000000 6.297736736320 24.492447938089 19.282801922957
998 1 2.400000000000 6.297736736320 1.113293088095 17.354521730661
999 1 2.400000000000 6.297736736320 1.113293088095 21.211082115253
1000 1 2.400000000000 9.446605104481 0.000000000000 19.282801922957
1001 2 -1.200000000000 7.084953828360 0.000000000000 19.282801922957
1002 2 -1.200000000000 5.510519644280 2.226586176190 19.282801922957
1003 2 -1.200000000000 8.659388012441 1.113293088095 17.354521730661
1004 2 -1.200000000000 7.084953828360 3.339879264285 17.354521730661
1005 2 -1.200000000000 8.659388012441 1.113293088095 21.211082115253
1006 2 -1.200000000000 7.084953828360 3.339879264285 21.211082115253
1007 2 -1.200000000000 10.233822196521 2.226586176190 19.282801922957
1008 2 -1.200000000000 8.659388012441 4.453172352380 19.282801922957
1009 1 2.400000000000 28.339815313442 0.000000000000 15.426241538366
1010 1 2.400000000000 28.339815313442 3.339879264285 13.497961346070
1011 1 2.400000000000 28.339815313442 3.339879264285 17.354521730661
1012 1 2.400000000000 31.488683681602 2.226586176190 15.426241538366
1013 2 -1.200000000000 29.127032405482 2.226586176190 15.426241538366
1014 2 -1.200000000000 27.552598221402 4.453172352380 15.426241538366
1015 2 -1.200000000000 30.701466589562 3.339879264285 13.497961346070
1016 2 -1.200000000000 29.127032405482 5.566465440475 13.497961346070
1017 2 -1.200000000000 30.701466589562 3.339879264285 17.354521730661
1018 2 -1.200000000000 29.127032405482 5.566465440475 17.354521730661
1019 2 -1.200000000000 32.275900773642 4.453172352380 15.426241538366
1020 2 -1.200000000000 30.701466589562 6.679758528570 15.426241538366
1021 1 2.400000000000 25.190946945282 4.453172352380 15.426241538366
1022 1 2.400000000000 25.190946945282 7.793051616665 13.497961346070
1023 1 2.400000000000 25.190946945282 7.793051616665 17.354521730661
1024 1 2.400000000000 28.339815313442 6.679758528570 15.426241538366
1025 2 -1.200000000000 25.978164037322 6.679758528570 15.426241538366
1026 2 -1.200000000000 24.403729853242 8.906344704760 15.426241538366
1027 2 -1.200000000000 27.552598221402 7.793051616665 13.497961346070
1028 2 -1.200000000000 25.978164037322 10.019637792855 13.497961346070
1029 2 -1.200000000000 27.552598221402 7.793051616665 17.354521730661
1030 2 -1.200000000000 25.978164037322 10.019637792855 17.354521730661
1031 2 -1.200000000000 29.127032405482 8.906344704760 15.426241538366
1032 2 -1.200000000000 27.552598221402 11.132930880950 15.426241538366
1033 1 2.400000000000 22.042078577122 8.906344704760 15.426241538366
1034 1 2.400000000000 22.042078577122 12.246223969045 13.497961346070
1035 1 2.400000000000 22.042078577122 12.246223969045 17.354521730661
1036 1 2.400000000000 25.190946945282 11.132930880950 15.426241538366
1037 2 -1.200000000000 22.829295669162 11.132930880950 15.426241538366
1038 2 -1.200000000000 21.254861485081 13.359517057139 15.426241538366
1039 2 -1.200000000000 24.403729853242 12.246223969044 13.497961346070
1040 2 -1.200000000000 22.829295669162 14.472810145234 13.497961346070
1041 2 -1.200000000000 24.403729853242 12.246223969044 17.354521730661
1042 2 -1.200000000000 22.829295669162 14.472810145234 17.354521730661
1043 2 -1.200000000000 25.978164037322 13.359517057139 15.426241538366
1044 2 -1.200000000000 24.403729853242 15.586103233329 15.426241538366
1045 1 2.400000000000 18.893210208961 13.359517057139 15.426241538366
1046 1 2.400000000000 18.893210208961 16.699396321424 13.497961346070
1047 1 2.400000000000 18.893210208961 16.699396321424 17.354521730661
1048 1 2.400000000000 22.042078577122 15.586103233329 15.426241538366
1049 2 -1.200000000000 19.680427301001 15.586103233329 15.426241538366
1050 2 -1.200000000000 18.105993116921 17.812689409519 15.426241538366
1051 2 -1.200000000000 21.254861485081 16.699396321424 13.497961346070
1052 2 -1.200000000000 19.680427301001 18.925982497614 13.497961346070
1053 2 -1.200000000000 21.254861485081 16.699396321424 17.354521730661
1054 2 -1.200000000000 19.680427301001 18.925982497614 17.354521730661
1055 2 -1.200000000000 22.829295669162 17.812689409519 15.426241538366
1056 2 -1.200000000000 21.254861485081 20.039275585709 15.426241538366
1057 1 2.400000000000 15.744341840801 17.812689409519 15.426241538366
1058 1 2.400000000000 15.744341840801 21.152568673804 13.497961346070
1059 1 2.400000000000 15.744341840801 21.152568673804 17.354521730661
1060 1 2.400000000000 18.893210208961 20.039275585709 15.426241538366
1061 2 -1.200000000000 16.531558932841 20.039275585709 15.426241538366
1062 2 -1.200000000000 14.957124748761 22.265861761899 15.426241538366
1063 2 -1.200000000000 18.105993116921 21.152568673804 13.497961346070
1064 2 -1.200000000000 16.531558932841 23.379154849994 13.497961346070
1065 2 -1.200000000000 18.105993116921 21.152568673804 17.354521730661
1066 2 -1.200000000000 16.531558932841 23.379154849994 17.354521730661
1067 2 -1.200000000000 19.680427301001 22.265861761899 15.426241538366
1068 2 -1.200000000000 18.105993116921 24.492447938089 15.426241538366
1069 1 2.400000000000 12.595473472641 22.265861761899 15.426241538366
1070 1 2.400000000000 12.595473472641 25.605741026184 13.497961346070
1071 1 2.400000000000 12.595473472641 25.605741026184 17.354521730661
1072 1 2.400000000000 15.744341840801 24.492447938089 15.426241538366
1073 2 -1.200000000000 13.382690564681 24.492447938089 15.426241538366
1074 2 -1.200000000000 11.808256380601 0.000000000000 15.426241538366
1075 2 -1.200000000000 14.957124748761 25.605741026184 13.497961346070
1076 2 -1.200000000000 13.382690564681 1.113293088095 13.497961346070
1077 2 -1.200000000000 14.957124748761 25.605741026184 17.354521730661
1078 2 -1.200000000000 13.382690564681 1.113293088095 17.354521730661
1079 2 -1.200000000000 16.531558932841 0.000000000000 15.426241538366
1080 2 -1.200000000000 14.957124748761 2.226586176190 15.426241538366
1081 1 2.400000000000 31.488683681602 2.226586176190 11.569681153774
1082 1 2.400000000000 31.488683681602 5.566465440475 9.641400961479
1083 1 2.400000000000 31.488683681602 5.566465440475 13.497961346070
1084 1 2.400000000000 34.637552049762 4.453172352380 11.569681153774
1085 2 -1.200000000000 32.275900773642 4.453172352380 11.569681153774
1086 2 -1.200000000000 30.701466589562 6.679758528570 11.569681153774
1087 2 -1.200000000000 33.850334957722 5.566465440475 9.641400961479
1088 2 -1.200000000000 32.275900773642 7.793051616665 9.641400961479
1089 2 -1.200000000000 33.850334957722 5.566465440475 13.497961346070
1090 2 -1.200000000000 32.275900773642 7.793051616665 13.497961346070
1091 2 -1.200000000000 35.424769141802 6.679758528570 11.569681153774
1092 2 -1.200000000000 33.850334957722 8.906344704760 11.569681153774
1093 1 2.400000000000 28.339815313442 6.679758528570 11.569681153774
1094 1 2.400000000000 28.339815313442 10.019637792855 9.641400961479
1095 1 2.400000000000 28.339815313442 10.019637792855 13.497961346070
1096 1 2.400000000000 31.488683681602 8.906344704760 11.569681153774
1097 2 -1.200000000000 29.127032405482 8.906344704760 11.569681153774
1098 2 -1.200000000000 27.552598221402 11.132930880950 11.569681153774
1099 2 -1.200000000000 30.701466589562 10.019637792855 9.641400961479
1100 2 -1.200000000000 29.127032405482 12.246223969045 9.641400961479
1101 2 -1.200000000000 30.701466589562 10.019637792855 13.497961346070
1102 2 -1.200000000000 29.127032405482 12.246223969045 13.497961346070
1103 2 -1.200000000000 32.275900773642 11.132930880950 11.569681153774
1104 2 -1.200000000000 30.701466589562 13.359517057139 11.569681153774
1105 1 2.400000000000 25.190946945282 11.132930880950 11.569681153774
1106 1 2.400000000000 25.190946945282 14.472810145234 9.641400961479
1107 1 2.400000000000 25.190946945282 14.472810145234 13.497961346070
1108 1 2.400000000000 28.339815313442 13.359517057139 11.569681153774
1109 2 -1.200000000000 25.978164037322 13.359517057139 11.569681153774
1110 2 -1.200000000000 24.403729853242 15.586103233329 11.569681153774
1111 2 -1.200000000000 27.552598221402 14.472810145234 9.641400961479
1112 2 -1.200000000000 25.978164037322 16.699396321424 9.641400961479
1113 2 -1.200000000000 27.552598221402 14.472810145234 13.497961346070
1114 2 -1.200000000000 25.978164037322 16.699396321424 13.497961346070
1115 2 -1.200000000000 29.127032405482 15.586103233329 11.569681153774
1116 2 -1.200000000000 27.552598221402 17.812689409519 11.569681153774
1117 1 2.400000000000 22.042078577122 15.586103233329 11.569681153774
1118 1 2.400000000000 22.042078577122 18.925982497614 9.641400961479
1119 1 2.400000000000 22.042078577122 18.925982497614 13.497961346070
1120 1 2.400000000000 25.190946945282 17.812689409519 11.569681153774
1121 2 -1.200000000000 22.829295669162 17.812689409519 11.569681153774
1122 2 -1.200000000000 21.254861485081 20.039275585709 11.569681153774
1123 2 -1.200000000000 24.403729853242 18.925982497614 9.641400961479
1124 2 -1.200000000000 22.829295669162 21.152568673804 9.641400961479
1125 2 -1.200000000000 24.403729853242 18.925982497614 13.497961346070
1126 2 -1.200000000000 22.829295669162 21.152568673804 13.497961346070
1127 2 -1.200000000000 25.978164037322 20.039275585709 11.569681153774
1128 2 -1.200000000000 24.403729853242 22.265861761899 11.569681153774
1129 1 2.400000000000 18.893210208961 20.039275585709 11.569681153774
1130 1 2.400000000000 18.893210208961 23.379154849994 9.641400961479
1131 1 2.400000000000 18.893210208961 23.379154849994 13.497961346070
1132 1 2.400000000000 22.042078577122 22.265861761899 11.569681153774
1133 2 -1.200000000000 19.680427301001 22.265861761899 11.569681153774
1134 2 -1.200000000000 18.105993116921 24.492447938089 11.569681153774
1135 2 -1.200000000000 21.254861485081 23.379154849994 9.641400961479
1136 2 -1.200000000000 19.680427301001 25.605741026184 9.641400961479
1137 2 -1.200000000000 21.254861485081 23.379154849994 13.497961346070
1138 2 -1.200000000000 19.680427301001 25.605741026184 13.497961346070
1139 2 -1.200000000000 22.829295669162 24.492447938089 11.569681153774
1140 2 -1.200000000000 21.254861485081 0.000000000000 11.569681153774
1141 1 2.400000000000 15.744341840801 24.492447938089 11.569681153774
1142 1 2.400000000000 15.744341840801 1.113293088095 9.641400961479
1143 1 2.400000000000 15.744341840801 1.113293088095 13.497961346070
1144 1 2.400000000000 18.893210208961 0.000000000000 11.569681153774
1145 2 -1.200000000000 16.531558932841 0.000000000000 11.569681153774
1146 2 -1.200000000000 14.957124748761 2.226586176190 11.569681153774
1147 2 -1.200000000000 18.105993116921 1.113293088095 9.641400961479
1148 2 -1.200000000000 16.531558932841 3.339879264285 9.641400961479
1149 2 -1.200000000000 18.105993116921 1.113293088095 13.497961346070
1150 2 -1.200000000000 16.531558932841 3.339879264285 13.497961346070
1151 2 -1.200000000000 19.680427301001 2.226586176190 11.569681153774
1152 2 -1.200000000000 18.105993116921 4.453172352380 11.569681153774
1153 1 2.400000000000 37.786420417923 0.000000000000 7.713120769183
1154 1 2.400000000000 37.786420417923 3.339879264285 5.784840576887
1155 1 2.400000000000 37.786420417923 3.339879264285 9.641400961479
1156 1 2.400000000000 40.935288786083 2.226586176190 7.713120769183
1157 2 -1.200000000000 38.573637509963 2.226586176190 7.713120769183
1158 2 -1.200000000000 36.999203325883 4.453172352380 7.713120769183
1159 2 -1.200000000000 40.148071694043 3.339879264285 5.784840576887
1160 2 -1.200000000000 38.573637509963 5.566465440475 5.784840576887
1161 2 -1.200000000000 40.148071694043 3.339879264285 9.641400961479
1162 2 -1.200000000000 38.573637509963 5.566465440475 9.641400961479
1163 2 -1.200000000000 41.722505878123 4.453172352380 7.713120769183
1164 2 -1.200000000000 40.148071694043 6.679758528570 7.713120769183
1165 1 2.400000000000 34.637552049762 4.453172352380 7.713120769183
1166 1 2.400000000000 34.637552049762 7.793051616665 5.784840576887
1167 1 2.400000000000 34.637552049762 7.793051616665 9.641400961479
1168 1 2.400000000000 37.786420417923 6.679758528570 7.713120769183
1169 2 -1.200000000000 35.424769141802 6.679758528570 7.713120769183
1170 2 -1.200000000000 33.850334957722 8.906344704760 7.713120769183
1171 2 -1.200000000000 36.999203325883 7.793051616665 5.784840576887
1172 2 -1.200000000000 35.424769141802 10.019637792855 5.784840576887
1173 2 -1.200000000000 36.999203325883 7.793051616665 9.641400961479
1174 2 -1.200000000000 35.424769141802 10.019637792855 9.641400961479
1175 2 -1.200000000000 38.573637509963 8.906344704760 7.713120769183
1176 2 -1.200000000000 36.999203325883 11.132930880950 7.713120769183
1177 1 2.400000000000 31.488683681602 8.906344704760 7.713120769183
1178 1 2.400000000000 31.488683681602 12.246223969045 5.784840576887
1179 1 2.400000000000 31.488683681602 12.246223969045 9.641400961479
1180 1 2.400000000000 34.637552049762 11.132930880950 7.713120769183
1181 2 -1.200000000000 32.275900773642 11.132930880950 7.713120769183
1182 2 -1.200000000000 30.701466589562 13.359517057139 7.713120769183
1183 2 -1.200000000000 33.850334957722 12.246223969044 5.784840576887
1184 2 -1.200000000000 32.275900773642 14.472810145234 5.784840576887
1185 2 -1.200000000000 33.850334957722 12.246223969044 9.641400961479
1186 2 -1.200000000000 32.275900773642 14.472810145234 9.641400961479
1187 2 -1.200000000000 35.424769141802 13.359517057139 7.713120769183
1188 2 -1.200000000000 33.850334957722 15.586103233329 7.713120769183
1189 1 2.400000000000 28.339815313442 13.359517057139 7.713120769183
1190 1 2.400000000000 28.339815313442 16.699396321424 5.784840576887
1191 1 2.400000000000 28.339815313442 16.699396321424 9.641400961479
1192 1 2.400000000000 31.488683681602 15.586103233329 7.713120769183
1193 2 -1.200000000000 29.127032405482 15.586103233329 7.713120769183
1194 2 -1.200000000000 27.552598221402 17.812689409519 7.713120769183
1195 2 -1.200000000000 30.701466589562 16.699396321424 5.784840576887
1196 2 -1.200000000000 29.127032405482 18.925982497614 5.784840576887
1197 2 -1.200000000000 30.701466589562 16.699396321424 9.641400961479
1198 2 -1.200000000000 29.127032405482 18.925982497614 9.641400961479
1199 2 -1.200000000000 32.275900773642 17.812689409519 7.713120769183
1200 2 -1.200000000000 30.701466589562 20.039275585709 7.713120769183
1201 1 2.400000000000 25.190946945282 17.812689409519 7.713120769183
1202 1 2.400000000000 25.190946945282 21.152568673804 5.784840576887
1203 1 2.400000000000 25.190946945282 21.152568673804 9.641400961479
1204 1 2.400000000000 28.339815313442 20.039275585709 7.713120769183
1205 2 -1.200000000000 25.978164037322 20.039275585709 7.713120769183
1206 2 -1.200000000000 24.403729853242 22.265861761899 7.713120769183
1207 2 -1.200000000000 27.552598221402 21.152568673804 5.784840576887
1208 2 -1.200000000000 25.978164037322 23.379154849994 5.784840576887
1209 2 -1.200000000000 27.552598221402 21.152568673804 9.641400961479
1210 2 -1.200000000000 25.978164037322 23.379154849994 9.641400961479
1211 2 -1.200000000000 29.127032405482 22.265861761899 7.713120769183
1212 2 -1.200000000000 27.552598221402 24.492447938089 7.713120769183
1213 1 2.400000000000 22.042078577122 22.265861761899 7.713120769183
1214 1 2.400000000000 22.042078577122 25.605741026184 5.784840576887
1215 1 2.400000000000 22.042078577122 25.605741026184 9.641400961479
1216 1 2.400000000000 25.190946945282 24.492447938089 7.713120769183
1217 2 -1.200000000000 22.829295669162 24.492447938089 7.713120769183
1218 2 -1.200000000000 21.254861485081 0.000000000000 7.713120769183
1219 2 -1.200000000000 24.403729853242 25.605741026184 5.784840576887
1220 2 -1.200000000000 22.829295669162 1.113293088095 5.784840576887
1221 2 -1.200000000000 24.403729853242 25.605741026184 9.641400961479
1222 2 -1.200000000000 22.829295669162 1.113293088095 9.641400961479
1223 2 -1.200000000000 25.978164037322 0.000000000000 7.713120769183
1224 2 -1.200000000000 24.403729853242 2.226586176190 7.713120769183
1225 1 2.400000000000 40.935288786083 2.226586176190 3.856560384591
1226 1 2.400000000000 40.935288786083 5.566465440475 1.928280192296
1227 1 2.400000000000 40.935288786083 5.566465440475 5.784840576887
1228 1 2.400000000000 44.084157154243 4.453172352380 3.856560384591
1229 2 -1.200000000000 41.722505878123 4.453172352380 3.856560384591
1230 2 -1.200000000000 40.148071694043 6.679758528570 3.856560384591
1231 2 -1.200000000000 43.296940062203 5.566465440475 1.928280192296
1232 2 -1.200000000000 41.722505878123 7.793051616665 1.928280192296
1233 2 -1.200000000000 43.296940062203 5.566465440475 5.784840576887
1234 2 -1.200000000000 41.722505878123 7.793051616665 5.784840576887
1235 2 -1.200000000000 44.871374246283 6.679758528570 3.856560384591
1236 2 -1.200000000000 43.296940062203 8.906344704760 3.856560384591
1237 1 2.400000000000 37.786420417923 6.679758528570 3.856560384591
1238 1 2.400000000000 37.786420417923 10.019637792855 1.928280192296
1239 1 2.400000000000 37.786420417923 10.019637792855 5.784840576887
1240 1 2.400000000000 40.935288786083 8.906344704760 3.856560384591
1241 2 -1.200000000000 38.573637509963 8.906344704760 3.856560384591
1242 2 -1.200000000000 36.999203325883 11.132930880950 3.856560384591
1243 2 -1.200000000000 40.148071694043 10.019637792855 1.928280192296
1244 2 -1.200000000000 38.573637509963 12.246223969044 1.928280192296
1245 2 -1.200000000000 40.148071694043 10.019637792855 5.784840576887
1246 2 -1.200000000000 38.573637509963 12.246223969044 5.784840576887
1247 2 -1.200000000000 41.722505878123 11.132930880950 3.856560384591
1248 2 -1.200000000000 40.148071694043 13.359517057139 3.856560384591
1249 1 2.400000000000 34.637552049762 11.132930880950 3.856560384591
1250 1 2.400000000000 34.637552049762 14.472810145234 1.928280192296
1251 1 2.400000000000 34.637552049762 14.472810145234 5.784840576887
1252 1 2.400000000000 37.786420417923 13.359517057139 3.856560384591
1253 2 -1.200000000000 35.424769141802 13.359517057139 3.856560384591
1254 2 -1.200000000000 33.850334957722 15.586103233329 3.856560384591
1255 2 -1.200000000000 36.999203325883 14.472810145234 1.928280192296
1256 2 -1.200000000000 35.424769141802 16.699396321424 1.928280192296
1257 2 -1.200000000000 36.999203325883 14.472810145234 5.784840576887
1258 2 -1.200000000000 35.424769141802 16.699396321424 5.784840576887
1259 2 -1.200000000000 38.573637509963 15.586103233329 3.856560384591
1260 2 -1.200000000000 36.999203325883 17.812689409519 3.856560384591
1261 1 2.400000000000 31.488683681602 15.586103233329 3.856560384591
1262 1 2.400000000000 31.488683681602 18.925982497614 1.928280192296
1263 1 2.400000000000 31.488683681602 18.925982497614 5.784840576887
1264 1 2.400000000000 34.637552049762 17.812689409519 3.856560384591
1265 2 -1.200000000000 32.275900773642 17.812689409519 3.856560384591
1266 2 -1.200000000000 30.701466589562 20.039275585709 3.856560384591
1267 2 -1.200000000000 33.850334957722 18.925982497614 1.928280192296
1268 2 -1.200000000000 32.275900773642 21.152568673804 1.928280192296
1269 2 -1.200000000000 33.850334957722 18.925982497614 5.784840576887
1270 2 -1.200000000000 32.275900773642 21.152568673804 5.784840576887
1271 2 -1.200000000000 35.424769141802 20.039275585709 3.856560384591
1272 2 -1.200000000000 33.850334957722 22.265861761899 3.856560384591
1273 1 2.400000000000 28.339815313442 20.039275585709 3.856560384591
1274 1 2.400000000000 28.339815313442 23.379154849994 1.928280192296
1275 1 2.400000000000 28.339815313442 23.379154849994 5.784840576887
1276 1 2.400000000000 31.488683681602 22.265861761899 3.856560384591
1277 2 -1.200000000000 29.127032405482 22.265861761899 3.856560384591
1278 2 -1.200000000000 27.552598221402 24.492447938089 3.856560384591
1279 2 -1.200000000000 30.701466589562 23.379154849994 1.928280192296
1280 2 -1.200000000000 29.127032405482 25.605741026184 1.928280192296
1281 2 -1.200000000000 30.701466589562 23.379154849994 5.784840576887
1282 2 -1.200000000000 29.127032405482 25.605741026184 5.784840576887
1283 2 -1.200000000000 32.275900773642 24.492447938089 3.856560384591
1284 2 -1.200000000000 30.701466589562 0.000000000000 3.856560384591
1285 1 2.400000000000 25.190946945282 24.492447938089 3.856560384591
1286 1 2.400000000000 25.190946945282 1.113293088095 1.928280192296
1287 1 2.400000000000 25.190946945282 1.113293088095 5.784840576887
1288 1 2.400000000000 28.339815313442 0.000000000000 3.856560384591
1289 2 -1.200000000000 25.978164037322 0.000000000000 3.856560384591
1290 2 -1.200000000000 24.403729853242 2.226586176190 3.856560384591
1291 2 -1.200000000000 27.552598221402 1.113293088095 1.928280192296
1292 2 -1.200000000000 25.978164037322 3.339879264285 1.928280192296
1293 2 -1.200000000000 27.552598221402 1.113293088095 5.784840576887
1294 2 -1.200000000000 25.978164037322 3.339879264285 5.784840576887
1295 2 -1.200000000000 29.127032405482 2.226586176190 3.856560384591
1296 2 -1.200000000000 27.552598221402 4.453172352380 3.856560384591
1297 1 2.400000000000 47.233025522403 0.000000000000 0.000000000000
1298 1 2.400000000000 47.233025522403 3.339879264285 21.211082115253
1299 1 2.400000000000 47.233025522403 3.339879264285 1.928280192296
1300 1 2.400000000000 50.381893890564 2.226586176190 0.000000000000
1301 2 -1.200000000000 48.020242614443 2.226586176190 0.000000000000
1302 2 -1.200000000000 46.445808430363 4.453172352380 0.000000000000
1303 2 -1.200000000000 49.594676798523 3.339879264285 21.211082115253
1304 2 -1.200000000000 48.020242614443 5.566465440475 21.211082115253
1305 2 -1.200000000000 49.594676798523 3.339879264285 1.928280192296
1306 2 -1.200000000000 48.020242614443 5.566465440475 1.928280192296
1307 2 -1.200000000000 51.169110982604 4.453172352380 0.000000000000
1308 2 -1.200000000000 49.594676798523 6.679758528570 0.000000000000
1309 1 2.400000000000 44.084157154243 4.453172352380 0.000000000000
1310 1 2.400000000000 44.084157154243 7.793051616665 21.211082115253
1311 1 2.400000000000 44.084157154243 7.793051616665 1.928280192296
1312 1 2.400000000000 47.233025522403 6.679758528570 0.000000000000
1313 2 -1.200000000000 44.871374246283 6.679758528570 0.000000000000
1314 2 -1.200000000000 43.296940062203 8.906344704760 0.000000000000
1315 2 -1.200000000000 46.445808430363 7.793051616665 21.211082115253
1316 2 -1.200000000000 44.871374246283 10.019637792855 21.211082115253
1317 2 -1.200000000000 46.445808430363 7.793051616665 1.928280192296
1318 2 -1.200000000000 44.871374246283 10.019637792855 1.928280192296
1319 2 -1.200000000000 48.020242614443 8.906344704760 0.000000000000
1320 2 -1.200000000000 46.445808430363 11.132930880950 0.000000000000
1321 1 2.400000000000 40.935288786083 8.906344704760 0.000000000000
1322 1 2.400000000000 40.935288786083 12.246223969045 21.211082115253
1323 1 2.400000000000 40.935288786083 12.246223969045 1.928280192296
1324 1 2.400000000000 44.084157154243 11.132930880950 0.000000000000
1325 2 -1.200000000000 41.722505878123 11.132930880950 0.000000000000
1326 2 -1.200000000000 40.148071694043 13.359517057139 0.000000000000
1327 2 -1.200000000000 43.296940062203 12.246223969045 21.211082115253
1328 2 -1.200000000000 41.722505878123 14.472810145234 21.211082115253
1329 2 -1.200000000000 43.296940062203 12.246223969045 1.928280192296
1330 2 -1.200000000000 41.722505878123 14.472810145234 1.928280192296
1331 2 -1.200000000000 44.871374246283 13.359517057139 0.000000000000
1332 2 -1.200000000000 43.296940062203 15.586103233329 0.000000000000
1333 1 2.400000000000 37.786420417923 13.359517057139 0.000000000000
1334 1 2.400000000000 37.786420417923 16.699396321424 21.211082115253
1335 1 2.400000000000 37.786420417923 16.699396321424 1.928280192296
1336 1 2.400000000000 40.935288786083 15.586103233329 0.000000000000
1337 2 -1.200000000000 38.573637509963 15.586103233329 0.000000000000
1338 2 -1.200000000000 36.999203325883 17.812689409519 0.000000000000
1339 2 -1.200000000000 40.148071694043 16.699396321424 21.211082115253
1340 2 -1.200000000000 38.573637509963 18.925982497614 21.211082115253
1341 2 -1.200000000000 40.148071694043 16.699396321424 1.928280192296
1342 2 -1.200000000000 38.573637509963 18.925982497614 1.928280192296
1343 2 -1.200000000000 41.722505878123 17.812689409519 0.000000000000
1344 2 -1.200000000000 40.148071694043 20.039275585709 0.000000000000
1345 1 2.400000000000 34.637552049762 17.812689409519 0.000000000000
1346 1 2.400000000000 34.637552049762 21.152568673804 21.211082115253
1347 1 2.400000000000 34.637552049762 21.152568673804 1.928280192296
1348 1 2.400000000000 37.786420417923 20.039275585709 0.000000000000
1349 2 -1.200000000000 35.424769141802 20.039275585709 0.000000000000
1350 2 -1.200000000000 33.850334957722 22.265861761899 0.000000000000
1351 2 -1.200000000000 36.999203325883 21.152568673804 21.211082115253
1352 2 -1.200000000000 35.424769141802 23.379154849994 21.211082115253
1353 2 -1.200000000000 36.999203325883 21.152568673804 1.928280192296
1354 2 -1.200000000000 35.424769141802 23.379154849994 1.928280192296
1355 2 -1.200000000000 38.573637509963 22.265861761899 0.000000000000
1356 2 -1.200000000000 36.999203325883 24.492447938089 0.000000000000
1357 1 2.400000000000 31.488683681602 22.265861761899 0.000000000000
1358 1 2.400000000000 31.488683681602 25.605741026184 21.211082115253
1359 1 2.400000000000 31.488683681602 25.605741026184 1.928280192296
1360 1 2.400000000000 34.637552049762 24.492447938089 0.000000000000
1361 2 -1.200000000000 32.275900773642 24.492447938089 0.000000000000
1362 2 -1.200000000000 30.701466589562 0.000000000000 0.000000000000
1363 2 -1.200000000000 33.850334957722 25.605741026184 21.211082115253
1364 2 -1.200000000000 32.275900773642 1.113293088095 21.211082115253
1365 2 -1.200000000000 33.850334957722 25.605741026184 1.928280192296
1366 2 -1.200000000000 32.275900773642 1.113293088095 1.928280192296
1367 2 -1.200000000000 35.424769141802 0.000000000000 0.000000000000
1368 2 -1.200000000000 33.850334957722 2.226586176190 0.000000000000
1369 1 2.400000000000 31.488683681602 2.226586176190 19.282801922957
1370 1 2.400000000000 31.488683681602 5.566465440475 17.354521730661
1371 1 2.400000000000 31.488683681602 5.566465440475 21.211082115253
1372 1 2.400000000000 34.637552049762 4.453172352380 19.282801922957
1373 2 -1.200000000000 32.275900773642 4.453172352380 19.282801922957
1374 2 -1.200000000000 30.701466589562 6.679758528570 19.282801922957
1375 2 -1.200000000000 33.850334957722 5.566465440475 17.354521730661
1376 2 -1.200000000000 32.275900773642 7.793051616665 17.354521730661
1377 2 -1.200000000000 33.850334957722 5.566465440475 21.211082115253
1378 2 -1.200000000000 32.275900773642 7.793051616665 21.211082115253
1379 2 -1.200000000000 35.424769141802 6.679758528570 19.282801922957
1380 2 -1.200000000000 33.850334957722 8.906344704760 19.282801922957
1381 1 2.400000000000 28.339815313442 6.679758528570 19.282801922957
1382 1 2.400000000000 28.339815313442 10.019637792855 17.354521730661
1383 1 2.400000000000 28.339815313442 10.019637792855 21.211082115253
1384 1 2.400000000000 31.488683681602 8.906344704760 19.282801922957
1385 2 -1.200000000000 29.127032405482 8.906344704760 19.282801922957
1386 2 -1.200000000000 27.552598221402 11.132930880950 19.282801922957
1387 2 -1.200000000000 30.701466589562 10.019637792855 17.354521730661
1388 2 -1.200000000000 29.127032405482 12.246223969045 17.354521730661
1389 2 -1.200000000000 30.701466589562 10.019637792855 21.211082115253
1390 2 -1.200000000000 29.127032405482 12.246223969045 21.211082115253
1391 2 -1.200000000000 32.275900773642 11.132930880950 19.282801922957
1392 2 -1.200000000000 30.701466589562 13.359517057139 19.282801922957
1393 1 2.400000000000 25.190946945282 11.132930880950 19.282801922957
1394 1 2.400000000000 25.190946945282 14.472810145234 17.354521730661
1395 1 2.400000000000 25.190946945282 14.472810145234 21.211082115253
1396 1 2.400000000000 28.339815313442 13.359517057139 19.282801922957
1397 2 -1.200000000000 25.978164037322 13.359517057139 19.282801922957
1398 2 -1.200000000000 24.403729853242 15.586103233329 19.282801922957
1399 2 -1.200000000000 27.552598221402 14.472810145234 17.354521730661
1400 2 -1.200000000000 25.978164037322 16.699396321424 17.354521730661
1401 2 -1.200000000000 27.552598221402 14.472810145234 21.211082115253
1402 2 -1.200000000000 25.978164037322 16.699396321424 21.211082115253
1403 2 -1.200000000000 29.127032405482 15.586103233329 19.282801922957
1404 2 -1.200000000000 27.552598221402 17.812689409519 19.282801922957
1405 1 2.400000000000 22.042078577122 15.586103233329 19.282801922957
1406 1 2.400000000000 22.042078577122 18.925982497614 17.354521730661
1407 1 2.400000000000 22.042078577122 18.925982497614 21.211082115253
1408 1 2.400000000000 25.190946945282 17.812689409519 19.282801922957
1409 2 -1.200000000000 22.829295669162 17.812689409519 19.282801922957
1410 2 -1.200000000000 21.254861485081 20.039275585709 19.282801922957
1411 2 -1.200000000000 24.403729853242 18.925982497614 17.354521730661
1412 2 -1.200000000000 22.829295669162 21.152568673804 17.354521730661
1413 2 -1.200000000000 24.403729853242 18.925982497614 21.211082115253
1414 2 -1.200000000000 22.829295669162 21.152568673804 21.211082115253
1415 2 -1.200000000000 25.978164037322 20.039275585709 19.282801922957
1416 2 -1.200000000000 24.403729853242 22.265861761899 19.282801922957
1417 1 2.400000000000 18.893210208961 20.039275585709 19.282801922957
1418 1 2.400000000000 18.893210208961 23.379154849994 17.354521730661
1419 1 2.400000000000 18.893210208961 23.379154849994 21.211082115253
1420 1 2.400000000000 22.042078577122 22.265861761899 19.282801922957
1421 2 -1.200000000000 19.680427301001 22.265861761899 19.282801922957
1422 2 -1.200000000000 18.105993116921 24.492447938089 19.282801922957
1423 2 -1.200000000000 21.254861485081 23.379154849994 17.354521730661
1424 2 -1.200000000000 19.680427301001 25.605741026184 17.354521730661
1425 2 -1.200000000000 21.254861485081 23.379154849994 21.211082115253
1426 2 -1.200000000000 19.680427301001 25.605741026184 21.211082115253
1427 2 -1.200000000000 22.829295669162 24.492447938089 19.282801922957
1428 2 -1.200000000000 21.254861485081 0.000000000000 19.282801922957
1429 1 2.400000000000 15.744341840801 24.492447938089 19.282801922957
1430 1 2.400000000000 15.744341840801 1.113293088095 17.354521730661
1431 1 2.400000000000 15.744341840801 1.113293088095 21.211082115253
1432 1 2.400000000000 18.893210208961 0.000000000000 19.282801922957
1433 2 -1.200000000000 16.531558932841 0.000000000000 19.282801922957
1434 2 -1.200000000000 14.957124748761 2.226586176190 19.282801922957
1435 2 -1.200000000000 18.105993116921 1.113293088095 17.354521730661
1436 2 -1.200000000000 16.531558932841 3.339879264285 17.354521730661
1437 2 -1.200000000000 18.105993116921 1.113293088095 21.211082115253
1438 2 -1.200000000000 16.531558932841 3.339879264285 21.211082115253
1439 2 -1.200000000000 19.680427301001 2.226586176190 19.282801922957
1440 2 -1.200000000000 18.105993116921 4.453172352380 19.282801922957
1441 1 2.400000000000 37.786420417923 0.000000000000 15.426241538366
1442 1 2.400000000000 37.786420417923 3.339879264285 13.497961346070
1443 1 2.400000000000 37.786420417923 3.339879264285 17.354521730661
1444 1 2.400000000000 40.935288786083 2.226586176190 15.426241538366
1445 2 -1.200000000000 38.573637509963 2.226586176190 15.426241538366
1446 2 -1.200000000000 36.999203325883 4.453172352380 15.426241538366
1447 2 -1.200000000000 40.148071694043 3.339879264285 13.497961346070
1448 2 -1.200000000000 38.573637509963 5.566465440475 13.497961346070
1449 2 -1.200000000000 40.148071694043 3.339879264285 17.354521730661
1450 2 -1.200000000000 38.573637509963 5.566465440475 17.354521730661
1451 2 -1.200000000000 41.722505878123 4.453172352380 15.426241538366
1452 2 -1.200000000000 40.148071694043 6.679758528570 15.426241538366
1453 1 2.400000000000 34.637552049762 4.453172352380 15.426241538366
1454 1 2.400000000000 34.637552049762 7.793051616665 13.497961346070
1455 1 2.400000000000 34.637552049762 7.793051616665 17.354521730661
1456 1 2.400000000000 37.786420417923 6.679758528570 15.426241538366
1457 2 -1.200000000000 35.424769141802 6.679758528570 15.426241538366
1458 2 -1.200000000000 33.850334957722 8.906344704760 15.426241538366
1459 2 -1.200000000000 36.999203325883 7.793051616665 13.497961346070
1460 2 -1.200000000000 35.424769141802 10.019637792855 13.497961346070
1461 2 -1.200000000000 36.999203325883 7.793051616665 17.354521730661
1462 2 -1.200000000000 35.424769141802 10.019637792855 17.354521730661
1463 2 -1.200000000000 38.573637509963 8.906344704760 15.426241538366
1464 2 -1.200000000000 36.999203325883 11.132930880950 15.426241538366
1465 1 2.400000000000 31.488683681602 8.906344704760 15.426241538366
1466 1 2.400000000000 31.488683681602 12.246223969045 13.497961346070
1467 1 2.400000000000 31.488683681602 12.246223969044 17.354521730661
1468 1 2.400000000000 34.637552049762 11.132930880950 15.426241538366
1469 2 -1.200000000000 32.275900773642 11.132930880950 15.426241538366
1470 2 -1.200000000000 30.701466589562 13.359517057139 15.426241538366
1471 2 -1.200000000000 33.850334957722 12.246223969045 13.497961346070
1472 2 -1.200000000000 32.275900773642 14.472810145234 13.497961346070
1473 2 -1.200000000000 33.850334957722 12.246223969044 17.354521730661
1474 2 -1.200000000000 32.275900773642 14.472810145234 17.354521730661
1475 2 -1.200000000000 35.424769141802 13.359517057139 15.426241538366
1476 2 -1.200000000000 33.850334957722 15.586103233329 15.426241538366
1477 1 2.400000000000 28.339815313442 13.359517057139 15.426241538366
1478 1 2.400000000000 28.339815313442 16.699396321424 13.497961346070
1479 1 2.400000000000 28.339815313442 16.699396321424 17.354521730661
1480 1 2.400000000000 31.488683681602 15.586103233329 15.426241538366
1481 2 -1.200000000000 29.127032405482 15.586103233329 15.426241538366
1482 2 -1.200000000000 27.552598221402 17.812689409519 15.426241538366
1483 2 -1.200000000000 30.701466589562 16.699396321424 13.497961346070
1484 2 -1.200000000000 29.127032405482 18.925982497614 13.497961346070
1485 2 -1.200000000000 30.701466589562 16.699396321424 17.354521730661
1486 2 -1.200000000000 29.127032405482 18.925982497614 17.354521730661
1487 2 -1.200000000000 32.275900773642 17.812689409519 15.426241538366
1488 2 -1.200000000000 30.701466589562 20.039275585709 15.426241538366
1489 1 2.400000000000 25.190946945282 17.812689409519 15.426241538366
1490 1 2.400000000000 25.190946945282 21.152568673804 13.497961346070
1491 1 2.400000000000 25.190946945282 21.152568673804 17.354521730661
1492 1 2.400000000000 28.339815313442 20.039275585709 15.426241538366
1493 2 -1.200000000000 25.978164037322 20.039275585709 15.426241538366
1494 2 -1.200000000000 24.403729853242 22.265861761899 15.426241538366
1495 2 -1.200000000000 27.552598221402 21.152568673804 13.497961346070
1496 2 -1.200000000000 25.978164037322 23.379154849994 13.497961346070
1497 2 -1.200000000000 27.552598221402 21.152568673804 17.354521730661
1498 2 -1.200000000000 25.978164037322 23.379154849994 17.354521730661
1499 2 -1.200000000000 29.127032405482 22.265861761899 15.426241538366
1500 2 -1.200000000000 27.552598221402 24.492447938089 15.426241538366
1501 1 2.400000000000 22.042078577122 22.265861761899 15.426241538366
1502 1 2.400000000000 22.042078577122 25.605741026184 13.497961346070
1503 1 2.400000000000 22.042078577122 25.605741026184 17.354521730661
1504 1 2.400000000000 25.190946945282 24.492447938089 15.426241538366
1505 2 -1.200000000000 22.829295669162 24.492447938089 15.426241538366
1506 2 -1.200000000000 21.254861485081 0.000000000000 15.426241538366
1507 2 -1.200000000000 24.403729853242 25.605741026184 13.497961346070
1508 2 -1.200000000000 22.829295669162 1.113293088095 13.497961346070
1509 2 -1.200000000000 24.403729853242 25.605741026184 17.354521730661
1510 2 -1.200000000000 22.829295669162 1.113293088095 17.354521730661
1511 2 -1.200000000000 25.978164037322 0.000000000000 15.426241538366
1512 2 -1.200000000000 24.403729853242 2.226586176190 15.426241538366
1513 1 2.400000000000 40.935288786083 2.226586176190 11.569681153774
1514 1 2.400000000000 40.935288786083 5.566465440475 9.641400961479
1515 1 2.400000000000 40.935288786083 5.566465440475 13.497961346070
1516 1 2.400000000000 44.084157154243 4.453172352380 11.569681153774
1517 2 -1.200000000000 41.722505878123 4.453172352380 11.569681153774
1518 2 -1.200000000000 40.148071694043 6.679758528570 11.569681153774
1519 2 -1.200000000000 43.296940062203 5.566465440475 9.641400961479
1520 2 -1.200000000000 41.722505878123 7.793051616665 9.641400961479
1521 2 -1.200000000000 43.296940062203 5.566465440475 13.497961346070
1522 2 -1.200000000000 41.722505878123 7.793051616665 13.497961346070
1523 2 -1.200000000000 44.871374246283 6.679758528570 11.569681153774
1524 2 -1.200000000000 43.296940062203 8.906344704760 11.569681153774
1525 1 2.400000000000 37.786420417923 6.679758528570 11.569681153774
1526 1 2.400000000000 37.786420417923 10.019637792855 9.641400961479
1527 1 2.400000000000 37.786420417923 10.019637792855 13.497961346070
1528 1 2.400000000000 40.935288786083 8.906344704760 11.569681153774
1529 2 -1.200000000000 38.573637509963 8.906344704760 11.569681153774
1530 2 -1.200000000000 36.999203325883 11.132930880950 11.569681153774
1531 2 -1.200000000000 40.148071694043 10.019637792855 9.641400961479
1532 2 -1.200000000000 38.573637509963 12.246223969044 9.641400961479
1533 2 -1.200000000000 40.148071694043 10.019637792855 13.497961346070
1534 2 -1.200000000000 38.573637509963 12.246223969044 13.497961346070
1535 2 -1.200000000000 41.722505878123 11.132930880950 11.569681153774
1536 2 -1.200000000000 40.148071694043 13.359517057139 11.569681153774
1537 1 2.400000000000 34.637552049762 11.132930880950 11.569681153774
1538 1 2.400000000000 34.637552049762 14.472810145234 9.641400961479
1539 1 2.400000000000 34.637552049762 14.472810145234 13.497961346070
1540 1 2.400000000000 37.786420417923 13.359517057139 11.569681153774
1541 2 -1.200000000000 35.424769141802 13.359517057139 11.569681153774
1542 2 -1.200000000000 33.850334957722 15.586103233329 11.569681153774
1543 2 -1.200000000000 36.999203325883 14.472810145234 9.641400961479
1544 2 -1.200000000000 35.424769141802 16.699396321424 9.641400961479
1545 2 -1.200000000000 36.999203325883 14.472810145234 13.497961346070
1546 2 -1.200000000000 35.424769141802 16.699396321424 13.497961346070
1547 2 -1.200000000000 38.573637509963 15.586103233329 11.569681153774
1548 2 -1.200000000000 36.999203325883 17.812689409519 11.569681153774
1549 1 2.400000000000 31.488683681602 15.586103233329 11.569681153774
1550 1 2.400000000000 31.488683681602 18.925982497614 9.641400961479
1551 1 2.400000000000 31.488683681602 18.925982497614 13.497961346070
1552 1 2.400000000000 34.637552049762 17.812689409519 11.569681153774
1553 2 -1.200000000000 32.275900773642 17.812689409519 11.569681153774
1554 2 -1.200000000000 30.701466589562 20.039275585709 11.569681153774
1555 2 -1.200000000000 33.850334957722 18.925982497614 9.641400961479
1556 2 -1.200000000000 32.275900773642 21.152568673804 9.641400961479
1557 2 -1.200000000000 33.850334957722 18.925982497614 13.497961346070
1558 2 -1.200000000000 32.275900773642 21.152568673804 13.497961346070
1559 2 -1.200000000000 35.424769141802 20.039275585709 11.569681153774
1560 2 -1.200000000000 33.850334957722 22.265861761899 11.569681153774
1561 1 2.400000000000 28.339815313442 20.039275585709 11.569681153774
1562 1 2.400000000000 28.339815313442 23.379154849994 9.641400961479
1563 1 2.400000000000 28.339815313442 23.379154849994 13.497961346070
1564 1 2.400000000000 31.488683681602 22.265861761899 11.569681153774
1565 2 -1.200000000000 29.127032405482 22.265861761899 11.569681153774
1566 2 -1.200000000000 27.552598221402 24.492447938089 11.569681153774
1567 2 -1.200000000000 30.701466589562 23.379154849994 9.641400961479
1568 2 -1.200000000000 29.127032405482 25.605741026184 9.641400961479
1569 2 -1.200000000000 30.701466589562 23.379154849994 13.497961346070
1570 2 -1.200000000000 29.127032405482 25.605741026184 13.497961346070
1571 2 -1.200000000000 32.275900773642 24.492447938089 11.569681153774
1572 2 -1.200000000000 30.701466589562 0.000000000000 11.569681153774
1573 1 2.400000000000 25.190946945282 24.492447938089 11.569681153774
1574 1 2.400000000000 25.190946945282 1.113293088095 9.641400961479
1575 1 2.400000000000 25.190946945282 1.113293088095 13.497961346070
1576 1 2.400000000000 28.339815313442 0.000000000000 11.569681153774
1577 2 -1.200000000000 25.978164037322 0.000000000000 11.569681153774
1578 2 -1.200000000000 24.403729853242 2.226586176190 11.569681153774
1579 2 -1.200000000000 27.552598221402 1.113293088095 9.641400961479
1580 2 -1.200000000000 25.978164037322 3.339879264285 9.641400961479
1581 2 -1.200000000000 27.552598221402 1.113293088095 13.497961346070
1582 2 -1.200000000000 25.978164037322 3.339879264285 13.497961346070
1583 2 -1.200000000000 29.127032405482 2.226586176190 11.569681153774
1584 2 -1.200000000000 27.552598221402 4.453172352380 11.569681153774
1585 1 2.400000000000 47.233025522403 0.000000000000 7.713120769183
1586 1 2.400000000000 47.233025522403 3.339879264285 5.784840576887
1587 1 2.400000000000 47.233025522403 3.339879264285 9.641400961479
1588 1 2.400000000000 50.381893890564 2.226586176190 7.713120769183
1589 2 -1.200000000000 48.020242614443 2.226586176190 7.713120769183
1590 2 -1.200000000000 46.445808430363 4.453172352380 7.713120769183
1591 2 -1.200000000000 49.594676798523 3.339879264285 5.784840576887
1592 2 -1.200000000000 48.020242614443 5.566465440475 5.784840576887
1593 2 -1.200000000000 49.594676798523 3.339879264285 9.641400961479
1594 2 -1.200000000000 48.020242614443 5.566465440475 9.641400961479
1595 2 -1.200000000000 51.169110982604 4.453172352380 7.713120769183
1596 2 -1.200000000000 49.594676798523 6.679758528570 7.713120769183
1597 1 2.400000000000 44.084157154243 4.453172352380 7.713120769183
1598 1 2.400000000000 44.084157154243 7.793051616665 5.784840576887
1599 1 2.400000000000 44.084157154243 7.793051616665 9.641400961479
1600 1 2.400000000000 47.233025522403 6.679758528570 7.713120769183
1601 2 -1.200000000000 44.871374246283 6.679758528570 7.713120769183
1602 2 -1.200000000000 43.296940062203 8.906344704760 7.713120769183
1603 2 -1.200000000000 46.445808430363 7.793051616665 5.784840576887
1604 2 -1.200000000000 44.871374246283 10.019637792855 5.784840576887
1605 2 -1.200000000000 46.445808430363 7.793051616665 9.641400961479
1606 2 -1.200000000000 44.871374246283 10.019637792855 9.641400961479
1607 2 -1.200000000000 48.020242614443 8.906344704760 7.713120769183
1608 2 -1.200000000000 46.445808430363 11.132930880950 7.713120769183
1609 1 2.400000000000 40.935288786083 8.906344704760 7.713120769183
1610 1 2.400000000000 40.935288786083 12.246223969045 5.784840576887
1611 1 2.400000000000 40.935288786083 12.246223969045 9.641400961479
1612 1 2.400000000000 44.084157154243 11.132930880950 7.713120769183
1613 2 -1.200000000000 41.722505878123 11.132930880950 7.713120769183
1614 2 -1.200000000000 40.148071694043 13.359517057139 7.713120769183
1615 2 -1.200000000000 43.296940062203 12.246223969045 5.784840576887
1616 2 -1.200000000000 41.722505878123 14.472810145234 5.784840576887
1617 2 -1.200000000000 43.296940062203 12.246223969044 9.641400961479
1618 2 -1.200000000000 41.722505878123 14.472810145234 9.641400961479
1619 2 -1.200000000000 44.871374246283 13.359517057139 7.713120769183
1620 2 -1.200000000000 43.296940062203 15.586103233329 7.713120769183
1621 1 2.400000000000 37.786420417923 13.359517057139 7.713120769183
1622 1 2.400000000000 37.786420417923 16.699396321424 5.784840576887
1623 1 2.400000000000 37.786420417923 16.699396321424 9.641400961479
1624 1 2.400000000000 40.935288786083 15.586103233329 7.713120769183
1625 2 -1.200000000000 38.573637509963 15.586103233329 7.713120769183
1626 2 -1.200000000000 36.999203325883 17.812689409519 7.713120769183
1627 2 -1.200000000000 40.148071694043 16.699396321424 5.784840576887
1628 2 -1.200000000000 38.573637509963 18.925982497614 5.784840576887
1629 2 -1.200000000000 40.148071694043 16.699396321424 9.641400961479
1630 2 -1.200000000000 38.573637509963 18.925982497614 9.641400961479
1631 2 -1.200000000000 41.722505878123 17.812689409519 7.713120769183
1632 2 -1.200000000000 40.148071694043 20.039275585709 7.713120769183
1633 1 2.400000000000 34.637552049762 17.812689409519 7.713120769183
1634 1 2.400000000000 34.637552049762 21.152568673804 5.784840576887
1635 1 2.400000000000 34.637552049762 21.152568673804 9.641400961479
1636 1 2.400000000000 37.786420417923 20.039275585709 7.713120769183
1637 2 -1.200000000000 35.424769141802 20.039275585709 7.713120769183
1638 2 -1.200000000000 33.850334957722 22.265861761899 7.713120769183
1639 2 -1.200000000000 36.999203325883 21.152568673804 5.784840576887
1640 2 -1.200000000000 35.424769141802 23.379154849994 5.784840576887
1641 2 -1.200000000000 36.999203325883 21.152568673804 9.641400961479
1642 2 -1.200000000000 35.424769141802 23.379154849994 9.641400961479
1643 2 -1.200000000000 38.573637509963 22.265861761899 7.713120769183
1644 2 -1.200000000000 36.999203325883 24.492447938089 7.713120769183
1645 1 2.400000000000 31.488683681602 22.265861761899 7.713120769183
1646 1 2.400000000000 31.488683681602 25.605741026184 5.784840576887
1647 1 2.400000000000 31.488683681602 25.605741026184 9.641400961479
1648 1 2.400000000000 34.637552049762 24.492447938089 7.713120769183
1649 2 -1.200000000000 32.275900773642 24.492447938089 7.713120769183
1650 2 -1.200000000000 30.701466589562 0.000000000000 7.713120769183
1651 2 -1.200000000000 33.850334957722 25.605741026184 5.784840576887
1652 2 -1.200000000000 32.275900773642 1.113293088095 5.784840576887
1653 2 -1.200000000000 33.850334957722 25.605741026184 9.641400961479
1654 2 -1.200000000000 32.275900773642 1.113293088095 9.641400961479
1655 2 -1.200000000000 35.424769141802 0.000000000000 7.713120769183
1656 2 -1.200000000000 33.850334957722 2.226586176190 7.713120769183
1657 1 2.400000000000 50.381893890564 2.226586176190 3.856560384591
1658 1 2.400000000000 50.381893890564 5.566465440475 1.928280192296
1659 1 2.400000000000 50.381893890564 5.566465440475 5.784840576887
1660 1 2.400000000000 53.530762258724 4.453172352380 3.856560384591
1661 2 -1.200000000000 51.169110982604 4.453172352380 3.856560384591
1662 2 -1.200000000000 49.594676798523 6.679758528570 3.856560384591
1663 2 -1.200000000000 52.743545166684 5.566465440475 1.928280192296
1664 2 -1.200000000000 51.169110982604 7.793051616665 1.928280192296
1665 2 -1.200000000000 52.743545166684 5.566465440475 5.784840576887
1666 2 -1.200000000000 51.169110982604 7.793051616665 5.784840576887
1667 2 -1.200000000000 54.317979350764 6.679758528570 3.856560384591
1668 2 -1.200000000000 52.743545166684 8.906344704760 3.856560384591
1669 1 2.400000000000 47.233025522403 6.679758528570 3.856560384591
1670 1 2.400000000000 47.233025522403 10.019637792855 1.928280192296
1671 1 2.400000000000 47.233025522403 10.019637792855 5.784840576887
1672 1 2.400000000000 50.381893890564 8.906344704760 3.856560384591
1673 2 -1.200000000000 48.020242614443 8.906344704760 3.856560384591
1674 2 -1.200000000000 46.445808430363 11.132930880950 3.856560384591
1675 2 -1.200000000000 49.594676798523 10.019637792855 1.928280192296
1676 2 -1.200000000000 48.020242614443 12.246223969044 1.928280192296
1677 2 -1.200000000000 49.594676798523 10.019637792855 5.784840576887
1678 2 -1.200000000000 48.020242614443 12.246223969044 5.784840576887
1679 2 -1.200000000000 51.169110982604 11.132930880950 3.856560384591
1680 2 -1.200000000000 49.594676798523 13.359517057139 3.856560384591
1681 1 2.400000000000 44.084157154243 11.132930880950 3.856560384591
1682 1 2.400000000000 44.084157154243 14.472810145234 1.928280192296
1683 1 2.400000000000 44.084157154243 14.472810145234 5.784840576887
1684 1 2.400000000000 47.233025522403 13.359517057139 3.856560384591
1685 2 -1.200000000000 44.871374246283 13.359517057139 3.856560384591
1686 2 -1.200000000000 43.296940062203 15.586103233329 3.856560384591
1687 2 -1.200000000000 46.445808430363 14.472810145234 1.928280192296
1688 2 -1.200000000000 44.871374246283 16.699396321424 1.928280192296
1689 2 -1.200000000000 46.445808430363 14.472810145234 5.784840576887
1690 2 -1.200000000000 44.871374246283 16.699396321424 5.784840576887
1691 2 -1.200000000000 48.020242614443 15.586103233329 3.856560384591
1692 2 -1.200000000000 46.445808430363 17.812689409519 3.856560384591
1693 1 2.400000000000 40.935288786083 15.586103233329 3.856560384591
1694 1 2.400000000000 40.935288786083 18.925982497614 1.928280192296
1695 1 2.400000000000 40.935288786083 18.925982497614 5.784840576887
1696 1 2.400000000000 44.084157154243 17.812689409519 3.856560384591
1697 2 -1.200000000000 41.722505878123 17.812689409519 3.856560384591
1698 2 -1.200000000000 40.148071694043 20.039275585709 3.856560384591
1699 2 -1.200000000000 43.296940062203 18.925982497614 1.928280192296
1700 2 -1.200000000000 41.722505878123 21.152568673804 1.928280192296
1701 2 -1.200000000000 43.296940062203 18.925982497614 5.784840576887
1702 2 -1.200000000000 41.722505878123 21.152568673804 5.784840576887
1703 2 -1.200000000000 44.871374246283 20.039275585709 3.856560384591
1704 2 -1.200000000000 43.296940062203 22.265861761899 3.856560384591
1705 1 2.400000000000 37.786420417923 20.039275585709 3.856560384591
1706 1 2.400000000000 37.786420417923 23.379154849994 1.928280192296
1707 1 2.400000000000 37.786420417923 23.379154849994 5.784840576887
1708 1 2.400000000000 40.935288786083 22.265861761899 3.856560384591
1709 2 -1.200000000000 38.573637509963 22.265861761899 3.856560384591
1710 2 -1.200000000000 36.999203325883 24.492447938089 3.856560384591
1711 2 -1.200000000000 40.148071694043 23.379154849994 1.928280192296
1712 2 -1.200000000000 38.573637509963 25.605741026184 1.928280192296
1713 2 -1.200000000000 40.148071694043 23.379154849994 5.784840576887
1714 2 -1.200000000000 38.573637509963 25.605741026184 5.784840576887
1715 2 -1.200000000000 41.722505878123 24.492447938089 3.856560384591
1716 2 -1.200000000000 40.148071694043 0.000000000000 3.856560384591
1717 1 2.400000000000 34.637552049762 24.492447938089 3.856560384591
1718 1 2.400000000000 34.637552049762 1.113293088095 1.928280192296
1719 1 2.400000000000 34.637552049762 1.113293088095 5.784840576887
1720 1 2.400000000000 37.786420417923 0.000000000000 3.856560384591
1721 2 -1.200000000000 35.424769141802 0.000000000000 3.856560384591
1722 2 -1.200000000000 33.850334957722 2.226586176190 3.856560384591
1723 2 -1.200000000000 36.999203325883 1.113293088095 1.928280192296
1724 2 -1.200000000000 35.424769141802 3.339879264285 1.928280192296
1725 2 -1.200000000000 36.999203325883 1.113293088095 5.784840576887
1726 2 -1.200000000000 35.424769141802 3.339879264285 5.784840576887
1727 2 -1.200000000000 38.573637509963 2.226586176190 3.856560384591
1728 2 -1.200000000000 36.999203325883 4.453172352380 3.856560384591
1729 1 2.400000000000 56.679630626884 0.000000000000 0.000000000000
1730 1 2.400000000000 56.679630626884 3.339879264285 21.211082115253
1731 1 2.400000000000 56.679630626884 3.339879264285 1.928280192296
1732 1 2.400000000000 59.828498995044 2.226586176190 0.000000000000
1733 2 -1.200000000000 57.466847718924 2.226586176190 0.000000000000
1734 2 -1.200000000000 55.892413534844 4.453172352380 0.000000000000
1735 2 -1.200000000000 59.041281903004 3.339879264285 21.211082115253
1736 2 -1.200000000000 57.466847718924 5.566465440475 21.211082115253
1737 2 -1.200000000000 59.041281903004 3.339879264285 1.928280192296
1738 2 -1.200000000000 57.466847718924 5.566465440475 1.928280192296
1739 2 -1.200000000000 60.615716087084 4.453172352380 0.000000000000
1740 2 -1.200000000000 59.041281903004 6.679758528570 0.000000000000
1741 1 2.400000000000 53.530762258724 4.453172352380 0.000000000000
1742 1 2.400000000000 53.530762258724 7.793051616665 21.211082115253
1743 1 2.400000000000 53.530762258724 7.793051616665 1.928280192296
1744 1 2.400000000000 56.679630626884 6.679758528570 0.000000000000
1745 2 -1.200000000000 54.317979350764 6.679758528570 0.000000000000
1746 2 -1.200000000000 52.743545166684 8.906344704760 0.000000000000
1747 2 -1.200000000000 55.892413534844 7.793051616665 21.211082115253
1748 2 -1.200000000000 54.317979350764 10.019637792855 21.211082115253
1749 2 -1.200000000000 55.892413534844 7.793051616665 1.928280192296
1750 2 -1.200000000000 54.317979350764 10.019637792855 1.928280192296
1751 2 -1.200000000000 57.466847718924 8.906344704760 0.000000000000
1752 2 -1.200000000000 55.892413534844 11.132930880950 0.000000000000
1753 1 2.400000000000 50.381893890564 8.906344704760 0.000000000000
1754 1 2.400000000000 50.381893890564 12.246223969044 21.211082115253
1755 1 2.400000000000 50.381893890564 12.246223969044 1.928280192296
1756 1 2.400000000000 53.530762258724 11.132930880950 0.000000000000
1757 2 -1.200000000000 51.169110982604 11.132930880950 0.000000000000
1758 2 -1.200000000000 49.594676798523 13.359517057139 0.000000000000
1759 2 -1.200000000000 52.743545166684 12.246223969044 21.211082115253
1760 2 -1.200000000000 51.169110982604 14.472810145234 21.211082115253
1761 2 -1.200000000000 52.743545166684 12.246223969044 1.928280192296
1762 2 -1.200000000000 51.169110982604 14.472810145234 1.928280192296
1763 2 -1.200000000000 54.317979350764 13.359517057139 0.000000000000
1764 2 -1.200000000000 52.743545166684 15.586103233329 0.000000000000
1765 1 2.400000000000 47.233025522403 13.359517057139 0.000000000000
1766 1 2.400000000000 47.233025522403 16.699396321424 21.211082115253
1767 1 2.400000000000 47.233025522403 16.699396321424 1.928280192296
1768 1 2.400000000000 50.381893890564 15.586103233329 0.000000000000
1769 2 -1.200000000000 48.020242614443 15.586103233329 0.000000000000
1770 2 -1.200000000000 46.445808430363 17.812689409519 0.000000000000
1771 2 -1.200000000000 49.594676798523 16.699396321424 21.211082115253
1772 2 -1.200000000000 48.020242614443 18.925982497614 21.211082115253
1773 2 -1.200000000000 49.594676798523 16.699396321424 1.928280192296
1774 2 -1.200000000000 48.020242614443 18.925982497614 1.928280192296
1775 2 -1.200000000000 51.169110982604 17.812689409519 0.000000000000
1776 2 -1.200000000000 49.594676798523 20.039275585709 0.000000000000
1777 1 2.400000000000 44.084157154243 17.812689409519 0.000000000000
1778 1 2.400000000000 44.084157154243 21.152568673804 21.211082115253
1779 1 2.400000000000 44.084157154243 21.152568673804 1.928280192296
1780 1 2.400000000000 47.233025522403 20.039275585709 0.000000000000
1781 2 -1.200000000000 44.871374246283 20.039275585709 0.000000000000
1782 2 -1.200000000000 43.296940062203 22.265861761899 0.000000000000
1783 2 -1.200000000000 46.445808430363 21.152568673804 21.211082115253
1784 2 -1.200000000000 44.871374246283 23.379154849994 21.211082115253
1785 2 -1.200000000000 46.445808430363 21.152568673804 1.928280192296
1786 2 -1.200000000000 44.871374246283 23.379154849994 1.928280192296
1787 2 -1.200000000000 48.020242614443 22.265861761899 0.000000000000
1788 2 -1.200000000000 46.445808430363 24.492447938089 0.000000000000
1789 1 2.400000000000 40.935288786083 22.265861761899 0.000000000000
1790 1 2.400000000000 40.935288786083 25.605741026184 21.211082115253
1791 1 2.400000000000 40.935288786083 25.605741026184 1.928280192296
1792 1 2.400000000000 44.084157154243 24.492447938089 0.000000000000
1793 2 -1.200000000000 41.722505878123 24.492447938089 0.000000000000
1794 2 -1.200000000000 40.148071694043 0.000000000000 0.000000000000
1795 2 -1.200000000000 43.296940062203 25.605741026184 21.211082115253
1796 2 -1.200000000000 41.722505878123 1.113293088095 21.211082115253
1797 2 -1.200000000000 43.296940062203 25.605741026184 1.928280192296
1798 2 -1.200000000000 41.722505878123 1.113293088095 1.928280192296
1799 2 -1.200000000000 44.871374246283 0.000000000000 0.000000000000
1800 2 -1.200000000000 43.296940062203 2.226586176190 0.000000000000
1801 1 2.400000000000 40.935288786083 2.226586176190 19.282801922957
1802 1 2.400000000000 40.935288786083 5.566465440475 17.354521730661
1803 1 2.400000000000 40.935288786083 5.566465440475 21.211082115253
1804 1 2.400000000000 44.084157154243 4.453172352380 19.282801922957
1805 2 -1.200000000000 41.722505878123 4.453172352380 19.282801922957
1806 2 -1.200000000000 40.148071694043 6.679758528570 19.282801922957
1807 2 -1.200000000000 43.296940062203 5.566465440475 17.354521730661
1808 2 -1.200000000000 41.722505878123 7.793051616665 17.354521730661
1809 2 -1.200000000000 43.296940062203 5.566465440475 21.211082115253
1810 2 -1.200000000000 41.722505878123 7.793051616665 21.211082115253
1811 2 -1.200000000000 44.871374246283 6.679758528570 19.282801922957
1812 2 -1.200000000000 43.296940062203 8.906344704760 19.282801922957
1813 1 2.400000000000 37.786420417923 6.679758528570 19.282801922957
1814 1 2.400000000000 37.786420417923 10.019637792855 17.354521730661
1815 1 2.400000000000 37.786420417923 10.019637792855 21.211082115253
1816 1 2.400000000000 40.935288786083 8.906344704760 19.282801922957
1817 2 -1.200000000000 38.573637509963 8.906344704760 19.282801922957
1818 2 -1.200000000000 36.999203325883 11.132930880950 19.282801922957
1819 2 -1.200000000000 40.148071694043 10.019637792855 17.354521730661
1820 2 -1.200000000000 38.573637509963 12.246223969045 17.354521730661
1821 2 -1.200000000000 40.148071694043 10.019637792855 21.211082115253
1822 2 -1.200000000000 38.573637509963 12.246223969044 21.211082115253
1823 2 -1.200000000000 41.722505878123 11.132930880950 19.282801922957
1824 2 -1.200000000000 40.148071694043 13.359517057139 19.282801922957
1825 1 2.400000000000 34.637552049762 11.132930880950 19.282801922957
1826 1 2.400000000000 34.637552049762 14.472810145234 17.354521730661
1827 1 2.400000000000 34.637552049762 14.472810145234 21.211082115253
1828 1 2.400000000000 37.786420417923 13.359517057139 19.282801922957
1829 2 -1.200000000000 35.424769141802 13.359517057139 19.282801922957
1830 2 -1.200000000000 33.850334957722 15.586103233329 19.282801922957
1831 2 -1.200000000000 36.999203325883 14.472810145234 17.354521730661
1832 2 -1.200000000000 35.424769141802 16.699396321424 17.354521730661
1833 2 -1.200000000000 36.999203325883 14.472810145234 21.211082115253
1834 2 -1.200000000000 35.424769141802 16.699396321424 21.211082115253
1835 2 -1.200000000000 38.573637509963 15.586103233329 19.282801922957
1836 2 -1.200000000000 36.999203325883 17.812689409519 19.282801922957
1837 1 2.400000000000 31.488683681602 15.586103233329 19.282801922957
1838 1 2.400000000000 31.488683681602 18.925982497614 17.354521730661
1839 1 2.400000000000 31.488683681602 18.925982497614 21.211082115253
1840 1 2.400000000000 34.637552049762 17.812689409519 19.282801922957
1841 2 -1.200000000000 32.275900773642 17.812689409519 19.282801922957
1842 2 -1.200000000000 30.701466589562 20.039275585709 19.282801922957
1843 2 -1.200000000000 33.850334957722 18.925982497614 17.354521730661
1844 2 -1.200000000000 32.275900773642 21.152568673804 17.354521730661
1845 2 -1.200000000000 33.850334957722 18.925982497614 21.211082115253
1846 2 -1.200000000000 32.275900773642 21.152568673804 21.211082115253
1847 2 -1.200000000000 35.424769141802 20.039275585709 19.282801922957
1848 2 -1.200000000000 33.850334957722 22.265861761899 19.282801922957
1849 1 2.400000000000 28.339815313442 20.039275585709 19.282801922957
1850 1 2.400000000000 28.339815313442 23.379154849994 17.354521730661
1851 1 2.400000000000 28.339815313442 23.379154849994 21.211082115253
1852 1 2.400000000000 31.488683681602 22.265861761899 19.282801922957
1853 2 -1.200000000000 29.127032405482 22.265861761899 19.282801922957
1854 2 -1.200000000000 27.552598221402 24.492447938089 19.282801922957
1855 2 -1.200000000000 30.701466589562 23.379154849994 17.354521730661
1856 2 -1.200000000000 29.127032405482 25.605741026184 17.354521730661
1857 2 -1.200000000000 30.701466589562 23.379154849994 21.211082115253
1858 2 -1.200000000000 29.127032405482 25.605741026184 21.211082115253
1859 2 -1.200000000000 32.275900773642 24.492447938089 19.282801922957
1860 2 -1.200000000000 30.701466589562 0.000000000000 19.282801922957
1861 1 2.400000000000 25.190946945282 24.492447938089 19.282801922957
1862 1 2.400000000000 25.190946945282 1.113293088095 17.354521730661
1863 1 2.400000000000 25.190946945282 1.113293088095 21.211082115253
1864 1 2.400000000000 28.339815313442 0.000000000000 19.282801922957
1865 2 -1.200000000000 25.978164037322 0.000000000000 19.282801922957
1866 2 -1.200000000000 24.403729853242 2.226586176190 19.282801922957
1867 2 -1.200000000000 27.552598221402 1.113293088095 17.354521730661
1868 2 -1.200000000000 25.978164037322 3.339879264285 17.354521730661
1869 2 -1.200000000000 27.552598221402 1.113293088095 21.211082115253
1870 2 -1.200000000000 25.978164037322 3.339879264285 21.211082115253
1871 2 -1.200000000000 29.127032405482 2.226586176190 19.282801922957
1872 2 -1.200000000000 27.552598221402 4.453172352380 19.282801922957
1873 1 2.400000000000 47.233025522403 0.000000000000 15.426241538366
1874 1 2.400000000000 47.233025522403 3.339879264285 13.497961346070
1875 1 2.400000000000 47.233025522403 3.339879264285 17.354521730661
1876 1 2.400000000000 50.381893890564 2.226586176190 15.426241538366
1877 2 -1.200000000000 48.020242614443 2.226586176190 15.426241538366
1878 2 -1.200000000000 46.445808430363 4.453172352380 15.426241538366
1879 2 -1.200000000000 49.594676798523 3.339879264285 13.497961346070
1880 2 -1.200000000000 48.020242614443 5.566465440475 13.497961346070
1881 2 -1.200000000000 49.594676798523 3.339879264285 17.354521730661
1882 2 -1.200000000000 48.020242614443 5.566465440475 17.354521730661
1883 2 -1.200000000000 51.169110982604 4.453172352380 15.426241538366
1884 2 -1.200000000000 49.594676798523 6.679758528570 15.426241538366
1885 1 2.400000000000 44.084157154243 4.453172352380 15.426241538366
1886 1 2.400000000000 44.084157154243 7.793051616665 13.497961346070
1887 1 2.400000000000 44.084157154243 7.793051616665 17.354521730661
1888 1 2.400000000000 47.233025522403 6.679758528570 15.426241538366
1889 2 -1.200000000000 44.871374246283 6.679758528570 15.426241538366
1890 2 -1.200000000000 43.296940062203 8.906344704760 15.426241538366
1891 2 -1.200000000000 46.445808430363 7.793051616665 13.497961346070
1892 2 -1.200000000000 44.871374246283 10.019637792855 13.497961346070
1893 2 -1.200000000000 46.445808430363 7.793051616665 17.354521730661
1894 2 -1.200000000000 44.871374246283 10.019637792855 17.354521730661
1895 2 -1.200000000000 48.020242614443 8.906344704760 15.426241538366
1896 2 -1.200000000000 46.445808430363 11.132930880950 15.426241538366
1897 1 2.400000000000 40.935288786083 8.906344704760 15.426241538366
1898 1 2.400000000000 40.935288786083 12.246223969045 13.497961346070
1899 1 2.400000000000 40.935288786083 12.246223969045 17.354521730661
1900 1 2.400000000000 44.084157154243 11.132930880950 15.426241538366
1901 2 -1.200000000000 41.722505878123 11.132930880950 15.426241538366
1902 2 -1.200000000000 40.148071694043 13.359517057139 15.426241538366
1903 2 -1.200000000000 43.296940062203 12.246223969045 13.497961346070
1904 2 -1.200000000000 41.722505878123 14.472810145234 13.497961346070
1905 2 -1.200000000000 43.296940062203 12.246223969044 17.354521730661
1906 2 -1.200000000000 41.722505878123 14.472810145234 17.354521730661
1907 2 -1.200000000000 44.871374246283 13.359517057139 15.426241538366
1908 2 -1.200000000000 43.296940062203 15.586103233329 15.426241538366
1909 1 2.400000000000 37.786420417923 13.359517057139 15.426241538366
1910 1 2.400000000000 37.786420417923 16.699396321424 13.497961346070
1911 1 2.400000000000 37.786420417923 16.699396321424 17.354521730661
1912 1 2.400000000000 40.935288786083 15.586103233329 15.426241538366
1913 2 -1.200000000000 38.573637509963 15.586103233329 15.426241538366
1914 2 -1.200000000000 36.999203325883 17.812689409519 15.426241538366
1915 2 -1.200000000000 40.148071694043 16.699396321424 13.497961346070
1916 2 -1.200000000000 38.573637509963 18.925982497614 13.497961346070
1917 2 -1.200000000000 40.148071694043 16.699396321424 17.354521730661
1918 2 -1.200000000000 38.573637509963 18.925982497614 17.354521730661
1919 2 -1.200000000000 41.722505878123 17.812689409519 15.426241538366
1920 2 -1.200000000000 40.148071694043 20.039275585709 15.426241538366
1921 1 2.400000000000 34.637552049762 17.812689409519 15.426241538366
1922 1 2.400000000000 34.637552049762 21.152568673804 13.497961346070
1923 1 2.400000000000 34.637552049762 21.152568673804 17.354521730661
1924 1 2.400000000000 37.786420417923 20.039275585709 15.426241538366
1925 2 -1.200000000000 35.424769141802 20.039275585709 15.426241538366
1926 2 -1.200000000000 33.850334957722 22.265861761899 15.426241538366
1927 2 -1.200000000000 36.999203325883 21.152568673804 13.497961346070
1928 2 -1.200000000000 35.424769141802 23.379154849994 13.497961346070
1929 2 -1.200000000000 36.999203325883 21.152568673804 17.354521730661
1930 2 -1.200000000000 35.424769141802 23.379154849994 17.354521730661
1931 2 -1.200000000000 38.573637509963 22.265861761899 15.426241538366
1932 2 -1.200000000000 36.999203325883 24.492447938089 15.426241538366
1933 1 2.400000000000 31.488683681602 22.265861761899 15.426241538366
1934 1 2.400000000000 31.488683681602 25.605741026184 13.497961346070
1935 1 2.400000000000 31.488683681602 25.605741026184 17.354521730661
1936 1 2.400000000000 34.637552049762 24.492447938089 15.426241538366
1937 2 -1.200000000000 32.275900773642 24.492447938089 15.426241538366
1938 2 -1.200000000000 30.701466589562 0.000000000000 15.426241538366
1939 2 -1.200000000000 33.850334957722 25.605741026184 13.497961346070
1940 2 -1.200000000000 32.275900773642 1.113293088095 13.497961346070
1941 2 -1.200000000000 33.850334957722 25.605741026184 17.354521730661
1942 2 -1.200000000000 32.275900773642 1.113293088095 17.354521730661
1943 2 -1.200000000000 35.424769141802 0.000000000000 15.426241538366
1944 2 -1.200000000000 33.850334957722 2.226586176190 15.426241538366
1945 1 2.400000000000 50.381893890564 2.226586176190 11.569681153774
1946 1 2.400000000000 50.381893890564 5.566465440475 9.641400961479
1947 1 2.400000000000 50.381893890564 5.566465440475 13.497961346070
1948 1 2.400000000000 53.530762258724 4.453172352380 11.569681153774
1949 2 -1.200000000000 51.169110982604 4.453172352380 11.569681153774
1950 2 -1.200000000000 49.594676798523 6.679758528570 11.569681153774
1951 2 -1.200000000000 52.743545166684 5.566465440475 9.641400961479
1952 2 -1.200000000000 51.169110982604 7.793051616665 9.641400961479
1953 2 -1.200000000000 52.743545166684 5.566465440475 13.497961346070
1954 2 -1.200000000000 51.169110982604 7.793051616665 13.497961346070
1955 2 -1.200000000000 54.317979350764 6.679758528570 11.569681153774
1956 2 -1.200000000000 52.743545166684 8.906344704760 11.569681153774
1957 1 2.400000000000 47.233025522403 6.679758528570 11.569681153774
1958 1 2.400000000000 47.233025522403 10.019637792855 9.641400961479
1959 1 2.400000000000 47.233025522403 10.019637792855 13.497961346070
1960 1 2.400000000000 50.381893890564 8.906344704760 11.569681153774
1961 2 -1.200000000000 48.020242614443 8.906344704760 11.569681153774
1962 2 -1.200000000000 46.445808430363 11.132930880950 11.569681153774
1963 2 -1.200000000000 49.594676798523 10.019637792855 9.641400961479
1964 2 -1.200000000000 48.020242614443 12.246223969044 9.641400961479
1965 2 -1.200000000000 49.594676798523 10.019637792855 13.497961346070
1966 2 -1.200000000000 48.020242614443 12.246223969044 13.497961346070
1967 2 -1.200000000000 51.169110982604 11.132930880950 11.569681153774
1968 2 -1.200000000000 49.594676798523 13.359517057139 11.569681153774
1969 1 2.400000000000 44.084157154243 11.132930880950 11.569681153774
1970 1 2.400000000000 44.084157154243 14.472810145234 9.641400961479
1971 1 2.400000000000 44.084157154243 14.472810145234 13.497961346070
1972 1 2.400000000000 47.233025522403 13.359517057139 11.569681153774
1973 2 -1.200000000000 44.871374246283 13.359517057139 11.569681153774
1974 2 -1.200000000000 43.296940062203 15.586103233329 11.569681153774
1975 2 -1.200000000000 46.445808430363 14.472810145234 9.641400961479
1976 2 -1.200000000000 44.871374246283 16.699396321424 9.641400961479
1977 2 -1.200000000000 46.445808430363 14.472810145234 13.497961346070
1978 2 -1.200000000000 44.871374246283 16.699396321424 13.497961346070
1979 2 -1.200000000000 48.020242614443 15.586103233329 11.569681153774
1980 2 -1.200000000000 46.445808430363 17.812689409519 11.569681153774
1981 1 2.400000000000 40.935288786083 15.586103233329 11.569681153774
1982 1 2.400000000000 40.935288786083 18.925982497614 9.641400961479
1983 1 2.400000000000 40.935288786083 18.925982497614 13.497961346070
1984 1 2.400000000000 44.084157154243 17.812689409519 11.569681153774
1985 2 -1.200000000000 41.722505878123 17.812689409519 11.569681153774
1986 2 -1.200000000000 40.148071694043 20.039275585709 11.569681153774
1987 2 -1.200000000000 43.296940062203 18.925982497614 9.641400961479
1988 2 -1.200000000000 41.722505878123 21.152568673804 9.641400961479
1989 2 -1.200000000000 43.296940062203 18.925982497614 13.497961346070
1990 2 -1.200000000000 41.722505878123 21.152568673804 13.497961346070
1991 2 -1.200000000000 44.871374246283 20.039275585709 11.569681153774
1992 2 -1.200000000000 43.296940062203 22.265861761899 11.569681153774
1993 1 2.400000000000 37.786420417923 20.039275585709 11.569681153774
1994 1 2.400000000000 37.786420417923 23.379154849994 9.641400961479
1995 1 2.400000000000 37.786420417923 23.379154849994 13.497961346070
1996 1 2.400000000000 40.935288786083 22.265861761899 11.569681153774
1997 2 -1.200000000000 38.573637509963 22.265861761899 11.569681153774
1998 2 -1.200000000000 36.999203325883 24.492447938089 11.569681153774
1999 2 -1.200000000000 40.148071694043 23.379154849994 9.641400961479
2000 2 -1.200000000000 38.573637509963 25.605741026184 9.641400961479
2001 2 -1.200000000000 40.148071694043 23.379154849994 13.497961346070
2002 2 -1.200000000000 38.573637509963 25.605741026184 13.497961346070
2003 2 -1.200000000000 41.722505878123 24.492447938089 11.569681153774
2004 2 -1.200000000000 40.148071694043 0.000000000000 11.569681153774
2005 1 2.400000000000 34.637552049762 24.492447938089 11.569681153774
2006 1 2.400000000000 34.637552049762 1.113293088095 9.641400961479
2007 1 2.400000000000 34.637552049762 1.113293088095 13.497961346070
2008 1 2.400000000000 37.786420417923 0.000000000000 11.569681153774
2009 2 -1.200000000000 35.424769141802 0.000000000000 11.569681153774
2010 2 -1.200000000000 33.850334957722 2.226586176190 11.569681153774
2011 2 -1.200000000000 36.999203325883 1.113293088095 9.641400961479
2012 2 -1.200000000000 35.424769141802 3.339879264285 9.641400961479
2013 2 -1.200000000000 36.999203325883 1.113293088095 13.497961346070
2014 2 -1.200000000000 35.424769141802 3.339879264285 13.497961346070
2015 2 -1.200000000000 38.573637509963 2.226586176190 11.569681153774
2016 2 -1.200000000000 36.999203325883 4.453172352380 11.569681153774
2017 1 2.400000000000 56.679630626884 0.000000000000 7.713120769183
2018 1 2.400000000000 56.679630626884 3.339879264285 5.784840576887
2019 1 2.400000000000 56.679630626884 3.339879264285 9.641400961479
2020 1 2.400000000000 59.828498995044 2.226586176190 7.713120769183
2021 2 -1.200000000000 57.466847718924 2.226586176190 7.713120769183
2022 2 -1.200000000000 55.892413534844 4.453172352380 7.713120769183
2023 2 -1.200000000000 59.041281903004 3.339879264285 5.784840576887
2024 2 -1.200000000000 57.466847718924 5.566465440475 5.784840576887
2025 2 -1.200000000000 59.041281903004 3.339879264285 9.641400961479
2026 2 -1.200000000000 57.466847718924 5.566465440475 9.641400961479
2027 2 -1.200000000000 60.615716087084 4.453172352380 7.713120769183
2028 2 -1.200000000000 59.041281903004 6.679758528570 7.713120769183
2029 1 2.400000000000 53.530762258724 4.453172352380 7.713120769183
2030 1 2.400000000000 53.530762258724 7.793051616665 5.784840576887
2031 1 2.400000000000 53.530762258724 7.793051616665 9.641400961479
2032 1 2.400000000000 56.679630626884 6.679758528570 7.713120769183
2033 2 -1.200000000000 54.317979350764 6.679758528570 7.713120769183
2034 2 -1.200000000000 52.743545166684 8.906344704760 7.713120769183
2035 2 -1.200000000000 55.892413534844 7.793051616665 5.784840576887
2036 2 -1.200000000000 54.317979350764 10.019637792855 5.784840576887
2037 2 -1.200000000000 55.892413534844 7.793051616665 9.641400961479
2038 2 -1.200000000000 54.317979350764 10.019637792855 9.641400961479
2039 2 -1.200000000000 57.466847718924 8.906344704760 7.713120769183
2040 2 -1.200000000000 55.892413534844 11.132930880950 7.713120769183
2041 1 2.400000000000 50.381893890564 8.906344704760 7.713120769183
2042 1 2.400000000000 50.381893890564 12.246223969045 5.784840576887
2043 1 2.400000000000 50.381893890564 12.246223969044 9.641400961479
2044 1 2.400000000000 53.530762258724 11.132930880950 7.713120769183
2045 2 -1.200000000000 51.169110982604 11.132930880950 7.713120769183
2046 2 -1.200000000000 49.594676798523 13.359517057139 7.713120769183
2047 2 -1.200000000000 52.743545166684 12.246223969045 5.784840576887
2048 2 -1.200000000000 51.169110982604 14.472810145234 5.784840576887
2049 2 -1.200000000000 52.743545166684 12.246223969044 9.641400961479
2050 2 -1.200000000000 51.169110982604 14.472810145234 9.641400961479
2051 2 -1.200000000000 54.317979350764 13.359517057139 7.713120769183
2052 2 -1.200000000000 52.743545166684 15.586103233329 7.713120769183
2053 1 2.400000000000 47.233025522403 13.359517057139 7.713120769183
2054 1 2.400000000000 47.233025522403 16.699396321424 5.784840576887
2055 1 2.400000000000 47.233025522403 16.699396321424 9.641400961479
2056 1 2.400000000000 50.381893890564 15.586103233329 7.713120769183
2057 2 -1.200000000000 48.020242614443 15.586103233329 7.713120769183
2058 2 -1.200000000000 46.445808430363 17.812689409519 7.713120769183
2059 2 -1.200000000000 49.594676798523 16.699396321424 5.784840576887
2060 2 -1.200000000000 48.020242614443 18.925982497614 5.784840576887
2061 2 -1.200000000000 49.594676798523 16.699396321424 9.641400961479
2062 2 -1.200000000000 48.020242614443 18.925982497614 9.641400961479
2063 2 -1.200000000000 51.169110982604 17.812689409519 7.713120769183
2064 2 -1.200000000000 49.594676798523 20.039275585709 7.713120769183
2065 1 2.400000000000 44.084157154243 17.812689409519 7.713120769183
2066 1 2.400000000000 44.084157154243 21.152568673804 5.784840576887
2067 1 2.400000000000 44.084157154243 21.152568673804 9.641400961479
2068 1 2.400000000000 47.233025522403 20.039275585709 7.713120769183
2069 2 -1.200000000000 44.871374246283 20.039275585709 7.713120769183
2070 2 -1.200000000000 43.296940062203 22.265861761899 7.713120769183
2071 2 -1.200000000000 46.445808430363 21.152568673804 5.784840576887
2072 2 -1.200000000000 44.871374246283 23.379154849994 5.784840576887
2073 2 -1.200000000000 46.445808430363 21.152568673804 9.641400961479
2074 2 -1.200000000000 44.871374246283 23.379154849994 9.641400961479
2075 2 -1.200000000000 48.020242614443 22.265861761899 7.713120769183
2076 2 -1.200000000000 46.445808430363 24.492447938089 7.713120769183
2077 1 2.400000000000 40.935288786083 22.265861761899 7.713120769183
2078 1 2.400000000000 40.935288786083 25.605741026184 5.784840576887
2079 1 2.400000000000 40.935288786083 25.605741026184 9.641400961479
2080 1 2.400000000000 44.084157154243 24.492447938089 7.713120769183
2081 2 -1.200000000000 41.722505878123 24.492447938089 7.713120769183
2082 2 -1.200000000000 40.148071694043 0.000000000000 7.713120769183
2083 2 -1.200000000000 43.296940062203 25.605741026184 5.784840576887
2084 2 -1.200000000000 41.722505878123 1.113293088095 5.784840576887
2085 2 -1.200000000000 43.296940062203 25.605741026184 9.641400961479
2086 2 -1.200000000000 41.722505878123 1.113293088095 9.641400961479
2087 2 -1.200000000000 44.871374246283 0.000000000000 7.713120769183
2088 2 -1.200000000000 43.296940062203 2.226586176190 7.713120769183
2089 1 2.400000000000 59.828498995044 2.226586176190 3.856560384591
2090 1 2.400000000000 59.828498995044 5.566465440475 1.928280192296
2091 1 2.400000000000 59.828498995044 5.566465440475 5.784840576887
2092 1 2.400000000000 62.977367363204 4.453172352380 3.856560384591
2093 2 -1.200000000000 60.615716087084 4.453172352380 3.856560384591
2094 2 -1.200000000000 59.041281903004 6.679758528570 3.856560384591
2095 2 -1.200000000000 62.190150271164 5.566465440475 1.928280192296
2096 2 -1.200000000000 60.615716087084 7.793051616665 1.928280192296
2097 2 -1.200000000000 62.190150271164 5.566465440475 5.784840576887
2098 2 -1.200000000000 60.615716087084 7.793051616665 5.784840576887
2099 2 -1.200000000000 63.764584455244 6.679758528570 3.856560384591
2100 2 -1.200000000000 62.190150271164 8.906344704760 3.856560384591
2101 1 2.400000000000 56.679630626884 6.679758528570 3.856560384591
2102 1 2.400000000000 56.679630626884 10.019637792855 1.928280192296
2103 1 2.400000000000 56.679630626884 10.019637792855 5.784840576887
2104 1 2.400000000000 59.828498995044 8.906344704760 3.856560384591
2105 2 -1.200000000000 57.466847718924 8.906344704760 3.856560384591
2106 2 -1.200000000000 55.892413534844 11.132930880950 3.856560384591
2107 2 -1.200000000000 59.041281903004 10.019637792855 1.928280192296
2108 2 -1.200000000000 57.466847718924 12.246223969045 1.928280192296
2109 2 -1.200000000000 59.041281903004 10.019637792855 5.784840576887
2110 2 -1.200000000000 57.466847718924 12.246223969044 5.784840576887
2111 2 -1.200000000000 60.615716087084 11.132930880950 3.856560384591
2112 2 -1.200000000000 59.041281903004 13.359517057139 3.856560384591
2113 1 2.400000000000 53.530762258724 11.132930880950 3.856560384591
2114 1 2.400000000000 53.530762258724 14.472810145234 1.928280192296
2115 1 2.400000000000 53.530762258724 14.472810145234 5.784840576887
2116 1 2.400000000000 56.679630626884 13.359517057139 3.856560384591
2117 2 -1.200000000000 54.317979350764 13.359517057139 3.856560384591
2118 2 -1.200000000000 52.743545166684 15.586103233329 3.856560384591
2119 2 -1.200000000000 55.892413534844 14.472810145234 1.928280192296
2120 2 -1.200000000000 54.317979350764 16.699396321424 1.928280192296
2121 2 -1.200000000000 55.892413534844 14.472810145234 5.784840576887
2122 2 -1.200000000000 54.317979350764 16.699396321424 5.784840576887
2123 2 -1.200000000000 57.466847718924 15.586103233329 3.856560384591
2124 2 -1.200000000000 55.892413534844 17.812689409519 3.856560384591
2125 1 2.400000000000 50.381893890564 15.586103233329 3.856560384591
2126 1 2.400000000000 50.381893890564 18.925982497614 1.928280192296
2127 1 2.400000000000 50.381893890564 18.925982497614 5.784840576887
2128 1 2.400000000000 53.530762258724 17.812689409519 3.856560384591
2129 2 -1.200000000000 51.169110982604 17.812689409519 3.856560384591
2130 2 -1.200000000000 49.594676798523 20.039275585709 3.856560384591
2131 2 -1.200000000000 52.743545166684 18.925982497614 1.928280192296
2132 2 -1.200000000000 51.169110982604 21.152568673804 1.928280192296
2133 2 -1.200000000000 52.743545166684 18.925982497614 5.784840576887
2134 2 -1.200000000000 51.169110982604 21.152568673804 5.784840576887
2135 2 -1.200000000000 54.317979350764 20.039275585709 3.856560384591
2136 2 -1.200000000000 52.743545166684 22.265861761899 3.856560384591
2137 1 2.400000000000 47.233025522403 20.039275585709 3.856560384591
2138 1 2.400000000000 47.233025522403 23.379154849994 1.928280192296
2139 1 2.400000000000 47.233025522403 23.379154849994 5.784840576887
2140 1 2.400000000000 50.381893890564 22.265861761899 3.856560384591
2141 2 -1.200000000000 48.020242614443 22.265861761899 3.856560384591
2142 2 -1.200000000000 46.445808430363 24.492447938089 3.856560384591
2143 2 -1.200000000000 49.594676798523 23.379154849994 1.928280192296
2144 2 -1.200000000000 48.020242614443 25.605741026184 1.928280192296
2145 2 -1.200000000000 49.594676798523 23.379154849994 5.784840576887
2146 2 -1.200000000000 48.020242614443 25.605741026184 5.784840576887
2147 2 -1.200000000000 51.169110982604 24.492447938089 3.856560384591
2148 2 -1.200000000000 49.594676798523 0.000000000000 3.856560384591
2149 1 2.400000000000 44.084157154243 24.492447938089 3.856560384591
2150 1 2.400000000000 44.084157154243 1.113293088095 1.928280192296
2151 1 2.400000000000 44.084157154243 1.113293088095 5.784840576887
2152 1 2.400000000000 47.233025522403 0.000000000000 3.856560384591
2153 2 -1.200000000000 44.871374246283 0.000000000000 3.856560384591
2154 2 -1.200000000000 43.296940062203 2.226586176190 3.856560384591
2155 2 -1.200000000000 46.445808430363 1.113293088095 1.928280192296
2156 2 -1.200000000000 44.871374246283 3.339879264285 1.928280192296
2157 2 -1.200000000000 46.445808430363 1.113293088095 5.784840576887
2158 2 -1.200000000000 44.871374246283 3.339879264285 5.784840576887
2159 2 -1.200000000000 48.020242614443 2.226586176190 3.856560384591
2160 2 -1.200000000000 46.445808430363 4.453172352380 3.856560384591
2161 1 2.400000000000 59.828498995044 8.906344704760 0.000000000000
2162 1 2.400000000000 59.828498995044 12.246223969044 21.211082115253
2163 1 2.400000000000 59.828498995044 12.246223969044 1.928280192296
2164 1 2.400000000000 62.977367363204 11.132930880950 0.000000000000
2165 2 -1.200000000000 60.615716087084 11.132930880950 0.000000000000
2166 2 -1.200000000000 59.041281903004 13.359517057139 0.000000000000
2167 2 -1.200000000000 62.190150271164 12.246223969045 21.211082115253
2168 2 -1.200000000000 60.615716087084 14.472810145234 21.211082115253
2169 2 -1.200000000000 62.190150271164 12.246223969044 1.928280192296
2170 2 -1.200000000000 60.615716087084 14.472810145234 1.928280192296
2171 2 -1.200000000000 63.764584455244 13.359517057139 0.000000000000
2172 2 -1.200000000000 62.190150271164 15.586103233329 0.000000000000
2173 1 2.400000000000 56.679630626884 13.359517057139 0.000000000000
2174 1 2.400000000000 56.679630626884 16.699396321424 21.211082115253
2175 1 2.400000000000 56.679630626884 16.699396321424 1.928280192296
2176 1 2.400000000000 59.828498995044 15.586103233329 0.000000000000
2177 2 -1.200000000000 57.466847718924 15.586103233329 0.000000000000
2178 2 -1.200000000000 55.892413534844 17.812689409519 0.000000000000
2179 2 -1.200000000000 59.041281903004 16.699396321424 21.211082115253
2180 2 -1.200000000000 57.466847718924 18.925982497614 21.211082115253
2181 2 -1.200000000000 59.041281903004 16.699396321424 1.928280192296
2182 2 -1.200000000000 57.466847718924 18.925982497614 1.928280192296
2183 2 -1.200000000000 60.615716087084 17.812689409519 0.000000000000
2184 2 -1.200000000000 59.041281903004 20.039275585709 0.000000000000
2185 1 2.400000000000 53.530762258724 17.812689409519 0.000000000000
2186 1 2.400000000000 53.530762258724 21.152568673804 21.211082115253
2187 1 2.400000000000 53.530762258724 21.152568673804 1.928280192296
2188 1 2.400000000000 56.679630626884 20.039275585709 0.000000000000
2189 2 -1.200000000000 54.317979350764 20.039275585709 0.000000000000
2190 2 -1.200000000000 52.743545166684 22.265861761899 0.000000000000
2191 2 -1.200000000000 55.892413534844 21.152568673804 21.211082115253
2192 2 -1.200000000000 54.317979350764 23.379154849994 21.211082115253
2193 2 -1.200000000000 55.892413534844 21.152568673804 1.928280192296
2194 2 -1.200000000000 54.317979350764 23.379154849994 1.928280192296
2195 2 -1.200000000000 57.466847718924 22.265861761899 0.000000000000
2196 2 -1.200000000000 55.892413534844 24.492447938089 0.000000000000
2197 1 2.400000000000 50.381893890564 22.265861761899 0.000000000000
2198 1 2.400000000000 50.381893890564 25.605741026184 21.211082115253
2199 1 2.400000000000 50.381893890564 25.605741026184 1.928280192296
2200 1 2.400000000000 53.530762258724 24.492447938089 0.000000000000
2201 2 -1.200000000000 51.169110982604 24.492447938089 0.000000000000
2202 2 -1.200000000000 49.594676798523 0.000000000000 0.000000000000
2203 2 -1.200000000000 52.743545166684 25.605741026184 21.211082115253
2204 2 -1.200000000000 51.169110982604 1.113293088095 21.211082115253
2205 2 -1.200000000000 52.743545166684 25.605741026184 1.928280192296
2206 2 -1.200000000000 51.169110982604 1.113293088095 1.928280192296
2207 2 -1.200000000000 54.317979350764 0.000000000000 0.000000000000
2208 2 -1.200000000000 52.743545166684 2.226586176190 0.000000000000
2209 1 2.400000000000 50.381893890564 2.226586176190 19.282801922957
2210 1 2.400000000000 50.381893890564 5.566465440475 17.354521730661
2211 1 2.400000000000 50.381893890564 5.566465440475 21.211082115253
2212 1 2.400000000000 53.530762258724 4.453172352380 19.282801922957
2213 2 -1.200000000000 51.169110982604 4.453172352380 19.282801922957
2214 2 -1.200000000000 49.594676798523 6.679758528570 19.282801922957
2215 2 -1.200000000000 52.743545166684 5.566465440475 17.354521730661
2216 2 -1.200000000000 51.169110982604 7.793051616665 17.354521730661
2217 2 -1.200000000000 52.743545166684 5.566465440475 21.211082115253
2218 2 -1.200000000000 51.169110982604 7.793051616665 21.211082115253
2219 2 -1.200000000000 54.317979350764 6.679758528570 19.282801922957
2220 2 -1.200000000000 52.743545166684 8.906344704760 19.282801922957
2221 1 2.400000000000 47.233025522403 6.679758528570 19.282801922957
2222 1 2.400000000000 47.233025522403 10.019637792855 17.354521730661
2223 1 2.400000000000 47.233025522403 10.019637792855 21.211082115253
2224 1 2.400000000000 50.381893890564 8.906344704760 19.282801922957
2225 2 -1.200000000000 48.020242614443 8.906344704760 19.282801922957
2226 2 -1.200000000000 46.445808430363 11.132930880950 19.282801922957
2227 2 -1.200000000000 49.594676798523 10.019637792855 17.354521730661
2228 2 -1.200000000000 48.020242614443 12.246223969044 17.354521730661
2229 2 -1.200000000000 49.594676798523 10.019637792855 21.211082115253
2230 2 -1.200000000000 48.020242614443 12.246223969044 21.211082115253
2231 2 -1.200000000000 51.169110982604 11.132930880950 19.282801922957
2232 2 -1.200000000000 49.594676798523 13.359517057139 19.282801922957
2233 1 2.400000000000 44.084157154243 11.132930880950 19.282801922957
2234 1 2.400000000000 44.084157154243 14.472810145234 17.354521730661
2235 1 2.400000000000 44.084157154243 14.472810145234 21.211082115253
2236 1 2.400000000000 47.233025522403 13.359517057139 19.282801922957
2237 2 -1.200000000000 44.871374246283 13.359517057139 19.282801922957
2238 2 -1.200000000000 43.296940062203 15.586103233329 19.282801922957
2239 2 -1.200000000000 46.445808430363 14.472810145234 17.354521730661
2240 2 -1.200000000000 44.871374246283 16.699396321424 17.354521730661
2241 2 -1.200000000000 46.445808430363 14.472810145234 21.211082115253
2242 2 -1.200000000000 44.871374246283 16.699396321424 21.211082115253
2243 2 -1.200000000000 48.020242614443 15.586103233329 19.282801922957
2244 2 -1.200000000000 46.445808430363 17.812689409519 19.282801922957
2245 1 2.400000000000 40.935288786083 15.586103233329 19.282801922957
2246 1 2.400000000000 40.935288786083 18.925982497614 17.354521730661
2247 1 2.400000000000 40.935288786083 18.925982497614 21.211082115253
2248 1 2.400000000000 44.084157154243 17.812689409519 19.282801922957
2249 2 -1.200000000000 41.722505878123 17.812689409519 19.282801922957
2250 2 -1.200000000000 40.148071694043 20.039275585709 19.282801922957
2251 2 -1.200000000000 43.296940062203 18.925982497614 17.354521730661
2252 2 -1.200000000000 41.722505878123 21.152568673804 17.354521730661
2253 2 -1.200000000000 43.296940062203 18.925982497614 21.211082115253
2254 2 -1.200000000000 41.722505878123 21.152568673804 21.211082115253
2255 2 -1.200000000000 44.871374246283 20.039275585709 19.282801922957
2256 2 -1.200000000000 43.296940062203 22.265861761899 19.282801922957
2257 1 2.400000000000 37.786420417923 20.039275585709 19.282801922957
2258 1 2.400000000000 37.786420417923 23.379154849994 17.354521730661
2259 1 2.400000000000 37.786420417923 23.379154849994 21.211082115253
2260 1 2.400000000000 40.935288786083 22.265861761899 19.282801922957
2261 2 -1.200000000000 38.573637509963 22.265861761899 19.282801922957
2262 2 -1.200000000000 36.999203325883 24.492447938089 19.282801922957
2263 2 -1.200000000000 40.148071694043 23.379154849994 17.354521730661
2264 2 -1.200000000000 38.573637509963 25.605741026184 17.354521730661
2265 2 -1.200000000000 40.148071694043 23.379154849994 21.211082115253
2266 2 -1.200000000000 38.573637509963 25.605741026184 21.211082115253
2267 2 -1.200000000000 41.722505878123 24.492447938089 19.282801922957
2268 2 -1.200000000000 40.148071694043 0.000000000000 19.282801922957
2269 1 2.400000000000 34.637552049762 24.492447938089 19.282801922957
2270 1 2.400000000000 34.637552049762 1.113293088095 17.354521730661
2271 1 2.400000000000 34.637552049762 1.113293088095 21.211082115253
2272 1 2.400000000000 37.786420417923 0.000000000000 19.282801922957
2273 2 -1.200000000000 35.424769141802 0.000000000000 19.282801922957
2274 2 -1.200000000000 33.850334957722 2.226586176190 19.282801922957
2275 2 -1.200000000000 36.999203325883 1.113293088095 17.354521730661
2276 2 -1.200000000000 35.424769141802 3.339879264285 17.354521730661
2277 2 -1.200000000000 36.999203325883 1.113293088095 21.211082115253
2278 2 -1.200000000000 35.424769141802 3.339879264285 21.211082115253
2279 2 -1.200000000000 38.573637509963 2.226586176190 19.282801922957
2280 2 -1.200000000000 36.999203325883 4.453172352380 19.282801922957
2281 1 2.400000000000 56.679630626884 0.000000000000 15.426241538366
2282 1 2.400000000000 56.679630626884 3.339879264285 13.497961346070
2283 1 2.400000000000 56.679630626884 3.339879264285 17.354521730661
2284 1 2.400000000000 59.828498995044 2.226586176190 15.426241538366
2285 2 -1.200000000000 57.466847718924 2.226586176190 15.426241538366
2286 2 -1.200000000000 55.892413534844 4.453172352380 15.426241538366
2287 2 -1.200000000000 59.041281903004 3.339879264285 13.497961346070
2288 2 -1.200000000000 57.466847718924 5.566465440475 13.497961346070
2289 2 -1.200000000000 59.041281903004 3.339879264285 17.354521730661
2290 2 -1.200000000000 57.466847718924 5.566465440475 17.354521730661
2291 2 -1.200000000000 60.615716087084 4.453172352380 15.426241538366
2292 2 -1.200000000000 59.041281903004 6.679758528570 15.426241538366
2293 1 2.400000000000 53.530762258724 4.453172352380 15.426241538366
2294 1 2.400000000000 53.530762258724 7.793051616665 13.497961346070
2295 1 2.400000000000 53.530762258724 7.793051616665 17.354521730661
2296 1 2.400000000000 56.679630626884 6.679758528570 15.426241538366
2297 2 -1.200000000000 54.317979350764 6.679758528570 15.426241538366
2298 2 -1.200000000000 52.743545166684 8.906344704760 15.426241538366
2299 2 -1.200000000000 55.892413534844 7.793051616665 13.497961346070
2300 2 -1.200000000000 54.317979350764 10.019637792855 13.497961346070
2301 2 -1.200000000000 55.892413534844 7.793051616665 17.354521730661
2302 2 -1.200000000000 54.317979350764 10.019637792855 17.354521730661
2303 2 -1.200000000000 57.466847718924 8.906344704760 15.426241538366
2304 2 -1.200000000000 55.892413534844 11.132930880950 15.426241538366
2305 1 2.400000000000 50.381893890564 8.906344704760 15.426241538366
2306 1 2.400000000000 50.381893890564 12.246223969045 13.497961346070
2307 1 2.400000000000 50.381893890564 12.246223969044 17.354521730661
2308 1 2.400000000000 53.530762258724 11.132930880950 15.426241538366
2309 2 -1.200000000000 51.169110982604 11.132930880950 15.426241538366
2310 2 -1.200000000000 49.594676798523 13.359517057139 15.426241538366
2311 2 -1.200000000000 52.743545166684 12.246223969044 13.497961346070
2312 2 -1.200000000000 51.169110982604 14.472810145234 13.497961346070
2313 2 -1.200000000000 52.743545166684 12.246223969044 17.354521730661
2314 2 -1.200000000000 51.169110982604 14.472810145234 17.354521730661
2315 2 -1.200000000000 54.317979350764 13.359517057139 15.426241538366
2316 2 -1.200000000000 52.743545166684 15.586103233329 15.426241538366
2317 1 2.400000000000 47.233025522403 13.359517057139 15.426241538366
2318 1 2.400000000000 47.233025522403 16.699396321424 13.497961346070
2319 1 2.400000000000 47.233025522403 16.699396321424 17.354521730661
2320 1 2.400000000000 50.381893890564 15.586103233329 15.426241538366
2321 2 -1.200000000000 48.020242614443 15.586103233329 15.426241538366
2322 2 -1.200000000000 46.445808430363 17.812689409519 15.426241538366
2323 2 -1.200000000000 49.594676798523 16.699396321424 13.497961346070
2324 2 -1.200000000000 48.020242614443 18.925982497614 13.497961346070
2325 2 -1.200000000000 49.594676798523 16.699396321424 17.354521730661
2326 2 -1.200000000000 48.020242614443 18.925982497614 17.354521730661
2327 2 -1.200000000000 51.169110982604 17.812689409519 15.426241538366
2328 2 -1.200000000000 49.594676798523 20.039275585709 15.426241538366
2329 1 2.400000000000 44.084157154243 17.812689409519 15.426241538366
2330 1 2.400000000000 44.084157154243 21.152568673804 13.497961346070
2331 1 2.400000000000 44.084157154243 21.152568673804 17.354521730661
2332 1 2.400000000000 47.233025522403 20.039275585709 15.426241538366
2333 2 -1.200000000000 44.871374246283 20.039275585709 15.426241538366
2334 2 -1.200000000000 43.296940062203 22.265861761899 15.426241538366
2335 2 -1.200000000000 46.445808430363 21.152568673804 13.497961346070
2336 2 -1.200000000000 44.871374246283 23.379154849994 13.497961346070
2337 2 -1.200000000000 46.445808430363 21.152568673804 17.354521730661
2338 2 -1.200000000000 44.871374246283 23.379154849994 17.354521730661
2339 2 -1.200000000000 48.020242614443 22.265861761899 15.426241538366
2340 2 -1.200000000000 46.445808430363 24.492447938089 15.426241538366
2341 1 2.400000000000 40.935288786083 22.265861761899 15.426241538366
2342 1 2.400000000000 40.935288786083 25.605741026184 13.497961346070
2343 1 2.400000000000 40.935288786083 25.605741026184 17.354521730661
2344 1 2.400000000000 44.084157154243 24.492447938089 15.426241538366
2345 2 -1.200000000000 41.722505878123 24.492447938089 15.426241538366
2346 2 -1.200000000000 40.148071694043 0.000000000000 15.426241538366
2347 2 -1.200000000000 43.296940062203 25.605741026184 13.497961346070
2348 2 -1.200000000000 41.722505878123 1.113293088095 13.497961346070
2349 2 -1.200000000000 43.296940062203 25.605741026184 17.354521730661
2350 2 -1.200000000000 41.722505878123 1.113293088095 17.354521730661
2351 2 -1.200000000000 44.871374246283 0.000000000000 15.426241538366
2352 2 -1.200000000000 43.296940062203 2.226586176190 15.426241538366
2353 1 2.400000000000 59.828498995044 2.226586176190 11.569681153774
2354 1 2.400000000000 59.828498995044 5.566465440475 9.641400961479
2355 1 2.400000000000 59.828498995044 5.566465440475 13.497961346070
2356 1 2.400000000000 62.977367363204 4.453172352380 11.569681153774
2357 2 -1.200000000000 60.615716087084 4.453172352380 11.569681153774
2358 2 -1.200000000000 59.041281903004 6.679758528570 11.569681153774
2359 2 -1.200000000000 62.190150271164 5.566465440475 9.641400961479
2360 2 -1.200000000000 60.615716087084 7.793051616665 9.641400961479
2361 2 -1.200000000000 62.190150271164 5.566465440475 13.497961346070
2362 2 -1.200000000000 60.615716087084 7.793051616665 13.497961346070
2363 2 -1.200000000000 63.764584455244 6.679758528570 11.569681153774
2364 2 -1.200000000000 62.190150271164 8.906344704760 11.569681153774
2365 1 2.400000000000 56.679630626884 6.679758528570 11.569681153774
2366 1 2.400000000000 56.679630626884 10.019637792855 9.641400961479
2367 1 2.400000000000 56.679630626884 10.019637792855 13.497961346070
2368 1 2.400000000000 59.828498995044 8.906344704760 11.569681153774
2369 2 -1.200000000000 57.466847718924 8.906344704760 11.569681153774
2370 2 -1.200000000000 55.892413534844 11.132930880950 11.569681153774
2371 2 -1.200000000000 59.041281903004 10.019637792855 9.641400961479
2372 2 -1.200000000000 57.466847718924 12.246223969045 9.641400961479
2373 2 -1.200000000000 59.041281903004 10.019637792855 13.497961346070
2374 2 -1.200000000000 57.466847718924 12.246223969044 13.497961346070
2375 2 -1.200000000000 60.615716087084 11.132930880950 11.569681153774
2376 2 -1.200000000000 59.041281903004 13.359517057139 11.569681153774
2377 1 2.400000000000 53.530762258724 11.132930880950 11.569681153774
2378 1 2.400000000000 53.530762258724 14.472810145234 9.641400961479
2379 1 2.400000000000 53.530762258724 14.472810145234 13.497961346070
2380 1 2.400000000000 56.679630626884 13.359517057139 11.569681153774
2381 2 -1.200000000000 54.317979350764 13.359517057139 11.569681153774
2382 2 -1.200000000000 52.743545166684 15.586103233329 11.569681153774
2383 2 -1.200000000000 55.892413534844 14.472810145234 9.641400961479
2384 2 -1.200000000000 54.317979350764 16.699396321424 9.641400961479
2385 2 -1.200000000000 55.892413534844 14.472810145234 13.497961346070
2386 2 -1.200000000000 54.317979350764 16.699396321424 13.497961346070
2387 2 -1.200000000000 57.466847718924 15.586103233329 11.569681153774
2388 2 -1.200000000000 55.892413534844 17.812689409519 11.569681153774
2389 1 2.400000000000 50.381893890564 15.586103233329 11.569681153774
2390 1 2.400000000000 50.381893890564 18.925982497614 9.641400961479
2391 1 2.400000000000 50.381893890564 18.925982497614 13.497961346070
2392 1 2.400000000000 53.530762258724 17.812689409519 11.569681153774
2393 2 -1.200000000000 51.169110982604 17.812689409519 11.569681153774
2394 2 -1.200000000000 49.594676798523 20.039275585709 11.569681153774
2395 2 -1.200000000000 52.743545166684 18.925982497614 9.641400961479
2396 2 -1.200000000000 51.169110982604 21.152568673804 9.641400961479
2397 2 -1.200000000000 52.743545166684 18.925982497614 13.497961346070
2398 2 -1.200000000000 51.169110982604 21.152568673804 13.497961346070
2399 2 -1.200000000000 54.317979350764 20.039275585709 11.569681153774
2400 2 -1.200000000000 52.743545166684 22.265861761899 11.569681153774
2401 1 2.400000000000 47.233025522403 20.039275585709 11.569681153774
2402 1 2.400000000000 47.233025522403 23.379154849994 9.641400961479
2403 1 2.400000000000 47.233025522403 23.379154849994 13.497961346070
2404 1 2.400000000000 50.381893890564 22.265861761899 11.569681153774
2405 2 -1.200000000000 48.020242614443 22.265861761899 11.569681153774
2406 2 -1.200000000000 46.445808430363 24.492447938089 11.569681153774
2407 2 -1.200000000000 49.594676798523 23.379154849994 9.641400961479
2408 2 -1.200000000000 48.020242614443 25.605741026184 9.641400961479
2409 2 -1.200000000000 49.594676798523 23.379154849994 13.497961346070
2410 2 -1.200000000000 48.020242614443 25.605741026184 13.497961346070
2411 2 -1.200000000000 51.169110982604 24.492447938089 11.569681153774
2412 2 -1.200000000000 49.594676798523 0.000000000000 11.569681153774
2413 1 2.400000000000 44.084157154243 24.492447938089 11.569681153774
2414 1 2.400000000000 44.084157154243 1.113293088095 9.641400961479
2415 1 2.400000000000 44.084157154243 1.113293088095 13.497961346070
2416 1 2.400000000000 47.233025522403 0.000000000000 11.569681153774
2417 2 -1.200000000000 44.871374246283 0.000000000000 11.569681153774
2418 2 -1.200000000000 43.296940062203 2.226586176190 11.569681153774
2419 2 -1.200000000000 46.445808430363 1.113293088095 9.641400961479
2420 2 -1.200000000000 44.871374246283 3.339879264285 9.641400961479
2421 2 -1.200000000000 46.445808430363 1.113293088095 13.497961346070
2422 2 -1.200000000000 44.871374246283 3.339879264285 13.497961346070
2423 2 -1.200000000000 48.020242614443 2.226586176190 11.569681153774
2424 2 -1.200000000000 46.445808430363 4.453172352380 11.569681153774
2425 1 2.400000000000 59.828498995044 8.906344704760 7.713120769183
2426 1 2.400000000000 59.828498995044 12.246223969044 5.784840576887
2427 1 2.400000000000 59.828498995044 12.246223969044 9.641400961479
2428 1 2.400000000000 62.977367363204 11.132930880950 7.713120769183
2429 2 -1.200000000000 60.615716087084 11.132930880950 7.713120769183
2430 2 -1.200000000000 59.041281903004 13.359517057139 7.713120769183
2431 2 -1.200000000000 62.190150271164 12.246223969044 5.784840576887
2432 2 -1.200000000000 60.615716087084 14.472810145234 5.784840576887
2433 2 -1.200000000000 62.190150271164 12.246223969044 9.641400961479
2434 2 -1.200000000000 60.615716087084 14.472810145234 9.641400961479
2435 2 -1.200000000000 63.764584455244 13.359517057139 7.713120769183
2436 2 -1.200000000000 62.190150271164 15.586103233329 7.713120769183
2437 1 2.400000000000 56.679630626884 13.359517057139 7.713120769183
2438 1 2.400000000000 56.679630626884 16.699396321424 5.784840576887
2439 1 2.400000000000 56.679630626884 16.699396321424 9.641400961479
2440 1 2.400000000000 59.828498995044 15.586103233329 7.713120769183
2441 2 -1.200000000000 57.466847718924 15.586103233329 7.713120769183
2442 2 -1.200000000000 55.892413534844 17.812689409519 7.713120769183
2443 2 -1.200000000000 59.041281903004 16.699396321424 5.784840576887
2444 2 -1.200000000000 57.466847718924 18.925982497614 5.784840576887
2445 2 -1.200000000000 59.041281903004 16.699396321424 9.641400961479
2446 2 -1.200000000000 57.466847718924 18.925982497614 9.641400961479
2447 2 -1.200000000000 60.615716087084 17.812689409519 7.713120769183
2448 2 -1.200000000000 59.041281903004 20.039275585709 7.713120769183
2449 1 2.400000000000 53.530762258724 17.812689409519 7.713120769183
2450 1 2.400000000000 53.530762258724 21.152568673804 5.784840576887
2451 1 2.400000000000 53.530762258724 21.152568673804 9.641400961479
2452 1 2.400000000000 56.679630626884 20.039275585709 7.713120769183
2453 2 -1.200000000000 54.317979350764 20.039275585709 7.713120769183
2454 2 -1.200000000000 52.743545166684 22.265861761899 7.713120769183
2455 2 -1.200000000000 55.892413534844 21.152568673804 5.784840576887
2456 2 -1.200000000000 54.317979350764 23.379154849994 5.784840576887
2457 2 -1.200000000000 55.892413534844 21.152568673804 9.641400961479
2458 2 -1.200000000000 54.317979350764 23.379154849994 9.641400961479
2459 2 -1.200000000000 57.466847718924 22.265861761899 7.713120769183
2460 2 -1.200000000000 55.892413534844 24.492447938089 7.713120769183
2461 1 2.400000000000 50.381893890564 22.265861761899 7.713120769183
2462 1 2.400000000000 50.381893890564 25.605741026184 5.784840576887
2463 1 2.400000000000 50.381893890564 25.605741026184 9.641400961479
2464 1 2.400000000000 53.530762258724 24.492447938089 7.713120769183
2465 2 -1.200000000000 51.169110982604 24.492447938089 7.713120769183
2466 2 -1.200000000000 49.594676798523 0.000000000000 7.713120769183
2467 2 -1.200000000000 52.743545166684 25.605741026184 5.784840576887
2468 2 -1.200000000000 51.169110982604 1.113293088095 5.784840576887
2469 2 -1.200000000000 52.743545166684 25.605741026184 9.641400961479
2470 2 -1.200000000000 51.169110982604 1.113293088095 9.641400961479
2471 2 -1.200000000000 54.317979350764 0.000000000000 7.713120769183
2472 2 -1.200000000000 52.743545166684 2.226586176190 7.713120769183
2473 1 2.400000000000 59.828498995044 15.586103233329 3.856560384591
2474 1 2.400000000000 59.828498995044 18.925982497614 1.928280192296
2475 1 2.400000000000 59.828498995044 18.925982497614 5.784840576887
2476 1 2.400000000000 62.977367363204 17.812689409519 3.856560384591
2477 2 -1.200000000000 60.615716087084 17.812689409519 3.856560384591
2478 2 -1.200000000000 59.041281903004 20.039275585709 3.856560384591
2479 2 -1.200000000000 62.190150271164 18.925982497614 1.928280192296
2480 2 -1.200000000000 60.615716087084 21.152568673804 1.928280192296
2481 2 -1.200000000000 62.190150271164 18.925982497614 5.784840576887
2482 2 -1.200000000000 60.615716087084 21.152568673804 5.784840576887
2483 2 -1.200000000000 63.764584455244 20.039275585709 3.856560384591
2484 2 -1.200000000000 62.190150271164 22.265861761899 3.856560384591
2485 1 2.400000000000 56.679630626884 20.039275585709 3.856560384591
2486 1 2.400000000000 56.679630626884 23.379154849994 1.928280192296
2487 1 2.400000000000 56.679630626884 23.379154849994 5.784840576887
2488 1 2.400000000000 59.828498995044 22.265861761899 3.856560384591
2489 2 -1.200000000000 57.466847718924 22.265861761899 3.856560384591
2490 2 -1.200000000000 55.892413534844 24.492447938089 3.856560384591
2491 2 -1.200000000000 59.041281903004 23.379154849994 1.928280192296
2492 2 -1.200000000000 57.466847718924 25.605741026184 1.928280192296
2493 2 -1.200000000000 59.041281903004 23.379154849994 5.784840576887
2494 2 -1.200000000000 57.466847718924 25.605741026184 5.784840576887
2495 2 -1.200000000000 60.615716087084 24.492447938089 3.856560384591
2496 2 -1.200000000000 59.041281903004 0.000000000000 3.856560384591
2497 1 2.400000000000 53.530762258724 24.492447938089 3.856560384591
2498 1 2.400000000000 53.530762258724 1.113293088095 1.928280192296
2499 1 2.400000000000 53.530762258724 1.113293088095 5.784840576887
2500 1 2.400000000000 56.679630626884 0.000000000000 3.856560384591
2501 2 -1.200000000000 54.317979350764 0.000000000000 3.856560384591
2502 2 -1.200000000000 52.743545166684 2.226586176190 3.856560384591
2503 2 -1.200000000000 55.892413534844 1.113293088095 1.928280192296
2504 2 -1.200000000000 54.317979350764 3.339879264285 1.928280192296
2505 2 -1.200000000000 55.892413534844 1.113293088095 5.784840576887
2506 2 -1.200000000000 54.317979350764 3.339879264285 5.784840576887
2507 2 -1.200000000000 57.466847718924 2.226586176190 3.856560384591
2508 2 -1.200000000000 55.892413534844 4.453172352380 3.856560384591
2509 1 2.400000000000 59.828498995044 22.265861761899 0.000000000000
2510 1 2.400000000000 59.828498995044 25.605741026184 21.211082115253
2511 1 2.400000000000 59.828498995044 25.605741026184 1.928280192296
2512 1 2.400000000000 62.977367363204 24.492447938089 0.000000000000
2513 2 -1.200000000000 60.615716087084 24.492447938089 0.000000000000
2514 2 -1.200000000000 59.041281903004 0.000000000000 0.000000000000
2515 2 -1.200000000000 62.190150271164 25.605741026184 21.211082115253
2516 2 -1.200000000000 60.615716087084 1.113293088095 21.211082115253
2517 2 -1.200000000000 62.190150271164 25.605741026184 1.928280192296
2518 2 -1.200000000000 60.615716087084 1.113293088095 1.928280192296
2519 2 -1.200000000000 63.764584455244 0.000000000000 0.000000000000
2520 2 -1.200000000000 62.190150271164 2.226586176190 0.000000000000
2521 1 2.400000000000 59.828498995044 2.226586176190 19.282801922957
2522 1 2.400000000000 59.828498995044 5.566465440475 17.354521730661
2523 1 2.400000000000 59.828498995044 5.566465440475 21.211082115253
2524 1 2.400000000000 62.977367363204 4.453172352380 19.282801922957
2525 2 -1.200000000000 60.615716087084 4.453172352380 19.282801922957
2526 2 -1.200000000000 59.041281903004 6.679758528570 19.282801922957
2527 2 -1.200000000000 62.190150271164 5.566465440475 17.354521730661
2528 2 -1.200000000000 60.615716087084 7.793051616665 17.354521730661
2529 2 -1.200000000000 62.190150271164 5.566465440475 21.211082115253
2530 2 -1.200000000000 60.615716087084 7.793051616665 21.211082115253
2531 2 -1.200000000000 63.764584455244 6.679758528570 19.282801922957
2532 2 -1.200000000000 62.190150271164 8.906344704760 19.282801922957
2533 1 2.400000000000 56.679630626884 6.679758528570 19.282801922957
2534 1 2.400000000000 56.679630626884 10.019637792855 17.354521730661
2535 1 2.400000000000 56.679630626884 10.019637792855 21.211082115253
2536 1 2.400000000000 59.828498995044 8.906344704760 19.282801922957
2537 2 -1.200000000000 57.466847718924 8.906344704760 19.282801922957
2538 2 -1.200000000000 55.892413534844 11.132930880950 19.282801922957
2539 2 -1.200000000000 59.041281903004 10.019637792855 17.354521730661
2540 2 -1.200000000000 57.466847718924 12.246223969044 17.354521730661
2541 2 -1.200000000000 59.041281903004 10.019637792855 21.211082115253
2542 2 -1.200000000000 57.466847718924 12.246223969045 21.211082115253
2543 2 -1.200000000000 60.615716087084 11.132930880950 19.282801922957
2544 2 -1.200000000000 59.041281903004 13.359517057139 19.282801922957
2545 1 2.400000000000 53.530762258724 11.132930880950 19.282801922957
2546 1 2.400000000000 53.530762258724 14.472810145234 17.354521730661
2547 1 2.400000000000 53.530762258724 14.472810145234 21.211082115253
2548 1 2.400000000000 56.679630626884 13.359517057139 19.282801922957
2549 2 -1.200000000000 54.317979350764 13.359517057139 19.282801922957
2550 2 -1.200000000000 52.743545166684 15.586103233329 19.282801922957
2551 2 -1.200000000000 55.892413534844 14.472810145234 17.354521730661
2552 2 -1.200000000000 54.317979350764 16.699396321424 17.354521730661
2553 2 -1.200000000000 55.892413534844 14.472810145234 21.211082115253
2554 2 -1.200000000000 54.317979350764 16.699396321424 21.211082115253
2555 2 -1.200000000000 57.466847718924 15.586103233329 19.282801922957
2556 2 -1.200000000000 55.892413534844 17.812689409519 19.282801922957
2557 1 2.400000000000 50.381893890564 15.586103233329 19.282801922957
2558 1 2.400000000000 50.381893890564 18.925982497614 17.354521730661
2559 1 2.400000000000 50.381893890564 18.925982497614 21.211082115253
2560 1 2.400000000000 53.530762258724 17.812689409519 19.282801922957
2561 2 -1.200000000000 51.169110982604 17.812689409519 19.282801922957
2562 2 -1.200000000000 49.594676798523 20.039275585709 19.282801922957
2563 2 -1.200000000000 52.743545166684 18.925982497614 17.354521730661
2564 2 -1.200000000000 51.169110982604 21.152568673804 17.354521730661
2565 2 -1.200000000000 52.743545166684 18.925982497614 21.211082115253
2566 2 -1.200000000000 51.169110982604 21.152568673804 21.211082115253
2567 2 -1.200000000000 54.317979350764 20.039275585709 19.282801922957
2568 2 -1.200000000000 52.743545166684 22.265861761899 19.282801922957
2569 1 2.400000000000 47.233025522403 20.039275585709 19.282801922957
2570 1 2.400000000000 47.233025522403 23.379154849994 17.354521730661
2571 1 2.400000000000 47.233025522403 23.379154849994 21.211082115253
2572 1 2.400000000000 50.381893890564 22.265861761899 19.282801922957
2573 2 -1.200000000000 48.020242614443 22.265861761899 19.282801922957
2574 2 -1.200000000000 46.445808430363 24.492447938089 19.282801922957
2575 2 -1.200000000000 49.594676798523 23.379154849994 17.354521730661
2576 2 -1.200000000000 48.020242614443 25.605741026184 17.354521730661
2577 2 -1.200000000000 49.594676798523 23.379154849994 21.211082115253
2578 2 -1.200000000000 48.020242614443 25.605741026184 21.211082115253
2579 2 -1.200000000000 51.169110982604 24.492447938089 19.282801922957
2580 2 -1.200000000000 49.594676798523 0.000000000000 19.282801922957
2581 1 2.400000000000 44.084157154243 24.492447938089 19.282801922957
2582 1 2.400000000000 44.084157154243 1.113293088095 17.354521730661
2583 1 2.400000000000 44.084157154243 1.113293088095 21.211082115253
2584 1 2.400000000000 47.233025522403 0.000000000000 19.282801922957
2585 2 -1.200000000000 44.871374246283 0.000000000000 19.282801922957
2586 2 -1.200000000000 43.296940062203 2.226586176190 19.282801922957
2587 2 -1.200000000000 46.445808430363 1.113293088095 17.354521730661
2588 2 -1.200000000000 44.871374246283 3.339879264285 17.354521730661
2589 2 -1.200000000000 46.445808430363 1.113293088095 21.211082115253
2590 2 -1.200000000000 44.871374246283 3.339879264285 21.211082115253
2591 2 -1.200000000000 48.020242614443 2.226586176190 19.282801922957
2592 2 -1.200000000000 46.445808430363 4.453172352380 19.282801922957
2593 1 2.400000000000 59.828498995044 8.906344704760 15.426241538366
2594 1 2.400000000000 59.828498995044 12.246223969045 13.497961346070
2595 1 2.400000000000 59.828498995044 12.246223969045 17.354521730661
2596 1 2.400000000000 62.977367363204 11.132930880950 15.426241538366
2597 2 -1.200000000000 60.615716087084 11.132930880950 15.426241538366
2598 2 -1.200000000000 59.041281903004 13.359517057139 15.426241538366
2599 2 -1.200000000000 62.190150271164 12.246223969044 13.497961346070
2600 2 -1.200000000000 60.615716087084 14.472810145234 13.497961346070
2601 2 -1.200000000000 62.190150271164 12.246223969045 17.354521730661
2602 2 -1.200000000000 60.615716087084 14.472810145234 17.354521730661
2603 2 -1.200000000000 63.764584455244 13.359517057139 15.426241538366
2604 2 -1.200000000000 62.190150271164 15.586103233329 15.426241538366
2605 1 2.400000000000 56.679630626884 13.359517057139 15.426241538366
2606 1 2.400000000000 56.679630626884 16.699396321424 13.497961346070
2607 1 2.400000000000 56.679630626884 16.699396321424 17.354521730661
2608 1 2.400000000000 59.828498995044 15.586103233329 15.426241538366
2609 2 -1.200000000000 57.466847718924 15.586103233329 15.426241538366
2610 2 -1.200000000000 55.892413534844 17.812689409519 15.426241538366
2611 2 -1.200000000000 59.041281903004 16.699396321424 13.497961346070
2612 2 -1.200000000000 57.466847718924 18.925982497614 13.497961346070
2613 2 -1.200000000000 59.041281903004 16.699396321424 17.354521730661
2614 2 -1.200000000000 57.466847718924 18.925982497614 17.354521730661
2615 2 -1.200000000000 60.615716087084 17.812689409519 15.426241538366
2616 2 -1.200000000000 59.041281903004 20.039275585709 15.426241538366
2617 1 2.400000000000 53.530762258724 17.812689409519 15.426241538366
2618 1 2.400000000000 53.530762258724 21.152568673804 13.497961346070
2619 1 2.400000000000 53.530762258724 21.152568673804 17.354521730661
2620 1 2.400000000000 56.679630626884 20.039275585709 15.426241538366
2621 2 -1.200000000000 54.317979350764 20.039275585709 15.426241538366
2622 2 -1.200000000000 52.743545166684 22.265861761899 15.426241538366
2623 2 -1.200000000000 55.892413534844 21.152568673804 13.497961346070
2624 2 -1.200000000000 54.317979350764 23.379154849994 13.497961346070
2625 2 -1.200000000000 55.892413534844 21.152568673804 17.354521730661
2626 2 -1.200000000000 54.317979350764 23.379154849994 17.354521730661
2627 2 -1.200000000000 57.466847718924 22.265861761899 15.426241538366
2628 2 -1.200000000000 55.892413534844 24.492447938089 15.426241538366
2629 1 2.400000000000 50.381893890564 22.265861761899 15.426241538366
2630 1 2.400000000000 50.381893890564 25.605741026184 13.497961346070
2631 1 2.400000000000 50.381893890564 25.605741026184 17.354521730661
2632 1 2.400000000000 53.530762258724 24.492447938089 15.426241538366
2633 2 -1.200000000000 51.169110982604 24.492447938089 15.426241538366
2634 2 -1.200000000000 49.594676798523 0.000000000000 15.426241538366
2635 2 -1.200000000000 52.743545166684 25.605741026184 13.497961346070
2636 2 -1.200000000000 51.169110982604 1.113293088095 13.497961346070
2637 2 -1.200000000000 52.743545166684 25.605741026184 17.354521730661
2638 2 -1.200000000000 51.169110982604 1.113293088095 17.354521730661
2639 2 -1.200000000000 54.317979350764 0.000000000000 15.426241538366
2640 2 -1.200000000000 52.743545166684 2.226586176190 15.426241538366
2641 1 2.400000000000 59.828498995044 15.586103233329 11.569681153774
2642 1 2.400000000000 59.828498995044 18.925982497614 9.641400961479
2643 1 2.400000000000 59.828498995044 18.925982497614 13.497961346070
2644 1 2.400000000000 62.977367363204 17.812689409519 11.569681153774
2645 2 -1.200000000000 60.615716087084 17.812689409519 11.569681153774
2646 2 -1.200000000000 59.041281903004 20.039275585709 11.569681153774
2647 2 -1.200000000000 62.190150271164 18.925982497614 9.641400961479
2648 2 -1.200000000000 60.615716087084 21.152568673804 9.641400961479
2649 2 -1.200000000000 62.190150271164 18.925982497614 13.497961346070
2650 2 -1.200000000000 60.615716087084 21.152568673804 13.497961346070
2651 2 -1.200000000000 63.764584455244 20.039275585709 11.569681153774
2652 2 -1.200000000000 62.190150271164 22.265861761899 11.569681153774
2653 1 2.400000000000 56.679630626884 20.039275585709 11.569681153774
2654 1 2.400000000000 56.679630626884 23.379154849994 9.641400961479
2655 1 2.400000000000 56.679630626884 23.379154849994 13.497961346070
2656 1 2.400000000000 59.828498995044 22.265861761899 11.569681153774
2657 2 -1.200000000000 57.466847718924 22.265861761899 11.569681153774
2658 2 -1.200000000000 55.892413534844 24.492447938089 11.569681153774
2659 2 -1.200000000000 59.041281903004 23.379154849994 9.641400961479
2660 2 -1.200000000000 57.466847718924 25.605741026184 9.641400961479
2661 2 -1.200000000000 59.041281903004 23.379154849994 13.497961346070
2662 2 -1.200000000000 57.466847718924 25.605741026184 13.497961346070
2663 2 -1.200000000000 60.615716087084 24.492447938089 11.569681153774
2664 2 -1.200000000000 59.041281903004 0.000000000000 11.569681153774
2665 1 2.400000000000 53.530762258724 24.492447938089 11.569681153774
2666 1 2.400000000000 53.530762258724 1.113293088095 9.641400961479
2667 1 2.400000000000 53.530762258724 1.113293088095 13.497961346070
2668 1 2.400000000000 56.679630626884 0.000000000000 11.569681153774
2669 2 -1.200000000000 54.317979350764 0.000000000000 11.569681153774
2670 2 -1.200000000000 52.743545166684 2.226586176190 11.569681153774
2671 2 -1.200000000000 55.892413534844 1.113293088095 9.641400961479
2672 2 -1.200000000000 54.317979350764 3.339879264285 9.641400961479
2673 2 -1.200000000000 55.892413534844 1.113293088095 13.497961346070
2674 2 -1.200000000000 54.317979350764 3.339879264285 13.497961346070
2675 2 -1.200000000000 57.466847718924 2.226586176190 11.569681153774
2676 2 -1.200000000000 55.892413534844 4.453172352380 11.569681153774
2677 1 2.400000000000 59.828498995044 22.265861761899 7.713120769183
2678 1 2.400000000000 59.828498995044 25.605741026184 5.784840576887
2679 1 2.400000000000 59.828498995044 25.605741026184 9.641400961479
2680 1 2.400000000000 62.977367363204 24.492447938089 7.713120769183
2681 2 -1.200000000000 60.615716087084 24.492447938089 7.713120769183
2682 2 -1.200000000000 59.041281903004 0.000000000000 7.713120769183
2683 2 -1.200000000000 62.190150271164 25.605741026184 5.784840576887
2684 2 -1.200000000000 60.615716087084 1.113293088095 5.784840576887
2685 2 -1.200000000000 62.190150271164 25.605741026184 9.641400961479
2686 2 -1.200000000000 60.615716087084 1.113293088095 9.641400961479
2687 2 -1.200000000000 63.764584455244 0.000000000000 7.713120769183
2688 2 -1.200000000000 62.190150271164 2.226586176190 7.713120769183
2689 1 2.400000000000 59.828498995044 15.586103233329 19.282801922957
2690 1 2.400000000000 59.828498995044 18.925982497614 17.354521730661
2691 1 2.400000000000 59.828498995044 18.925982497614 21.211082115253
2692 1 2.400000000000 62.977367363204 17.812689409519 19.282801922957
2693 2 -1.200000000000 60.615716087084 17.812689409519 19.282801922957
2694 2 -1.200000000000 59.041281903004 20.039275585709 19.282801922957
2695 2 -1.200000000000 62.190150271164 18.925982497614 17.354521730661
2696 2 -1.200000000000 60.615716087084 21.152568673804 17.354521730661
2697 2 -1.200000000000 62.190150271164 18.925982497614 21.211082115253
2698 2 -1.200000000000 60.615716087084 21.152568673804 21.211082115253
2699 2 -1.200000000000 63.764584455244 20.039275585709 19.282801922957
2700 2 -1.200000000000 62.190150271164 22.265861761899 19.282801922957
2701 1 2.400000000000 56.679630626884 20.039275585709 19.282801922957
2702 1 2.400000000000 56.679630626884 23.379154849994 17.354521730661
2703 1 2.400000000000 56.679630626884 23.379154849994 21.211082115253
2704 1 2.400000000000 59.828498995044 22.265861761899 19.282801922957
2705 2 -1.200000000000 57.466847718924 22.265861761899 19.282801922957
2706 2 -1.200000000000 55.892413534844 24.492447938089 19.282801922957
2707 2 -1.200000000000 59.041281903004 23.379154849994 17.354521730661
2708 2 -1.200000000000 57.466847718924 25.605741026184 17.354521730661
2709 2 -1.200000000000 59.041281903004 23.379154849994 21.211082115253
2710 2 -1.200000000000 57.466847718924 25.605741026184 21.211082115253
2711 2 -1.200000000000 60.615716087084 24.492447938089 19.282801922957
2712 2 -1.200000000000 59.041281903004 0.000000000000 19.282801922957
2713 1 2.400000000000 53.530762258724 24.492447938089 19.282801922957
2714 1 2.400000000000 53.530762258724 1.113293088095 17.354521730661
2715 1 2.400000000000 53.530762258724 1.113293088095 21.211082115253
2716 1 2.400000000000 56.679630626884 0.000000000000 19.282801922957
2717 2 -1.200000000000 54.317979350764 0.000000000000 19.282801922957
2718 2 -1.200000000000 52.743545166684 2.226586176190 19.282801922957
2719 2 -1.200000000000 55.892413534844 1.113293088095 17.354521730661
2720 2 -1.200000000000 54.317979350764 3.339879264285 17.354521730661
2721 2 -1.200000000000 55.892413534844 1.113293088095 21.211082115253
2722 2 -1.200000000000 54.317979350764 3.339879264285 21.211082115253
2723 2 -1.200000000000 57.466847718924 2.226586176190 19.282801922957
2724 2 -1.200000000000 55.892413534844 4.453172352380 19.282801922957
2725 1 2.400000000000 59.828498995044 22.265861761899 15.426241538366
2726 1 2.400000000000 59.828498995044 25.605741026184 13.497961346070
2727 1 2.400000000000 59.828498995044 25.605741026184 17.354521730661
2728 1 2.400000000000 62.977367363204 24.492447938089 15.426241538366
2729 2 -1.200000000000 60.615716087084 24.492447938089 15.426241538366
2730 2 -1.200000000000 59.041281903004 0.000000000000 15.426241538366
2731 2 -1.200000000000 62.190150271164 25.605741026184 13.497961346070
2732 2 -1.200000000000 60.615716087084 1.113293088095 13.497961346070
2733 2 -1.200000000000 62.190150271164 25.605741026184 17.354521730661
2734 2 -1.200000000000 60.615716087084 1.113293088095 17.354521730661
2735 2 -1.200000000000 63.764584455244 0.000000000000 15.426241538366
2736 2 -1.200000000000 62.190150271164 2.226586176190 15.426241538366
2737 1 2.400000000000 129.103603094569 2.226586176190 3.856560384591
2738 1 2.400000000000 125.954734726409 1.113293088095 1.928280192296
2739 1 2.400000000000 125.954734726409 1.113293088095 5.784840576887
2740 1 2.400000000000 125.954734726409 4.453172352380 3.856560384591
2741 2 -1.200000000000 126.741951818449 2.226586176190 3.856560384591
2742 2 -1.200000000000 125.167517634369 0.000000000000 3.856560384591
2743 2 -1.200000000000 125.167517634369 3.339879264285 1.928280192296
2744 2 -1.200000000000 123.593083450289 1.113293088095 1.928280192296
2745 2 -1.200000000000 125.167517634369 3.339879264285 5.784840576887
2746 2 -1.200000000000 123.593083450289 1.113293088095 5.784840576887
2747 2 -1.200000000000 123.593083450289 4.453172352380 3.856560384591
2748 2 -1.200000000000 122.018649266208 2.226586176190 3.856560384591
2749 1 2.400000000000 129.103603094569 8.906344704760 0.000000000000
2750 1 2.400000000000 125.954734726409 7.793051616665 21.211082115253
2751 1 2.400000000000 125.954734726409 7.793051616665 1.928280192296
2752 1 2.400000000000 125.954734726409 11.132930880950 0.000000000000
2753 2 -1.200000000000 126.741951818449 8.906344704760 0.000000000000
2754 2 -1.200000000000 125.167517634369 6.679758528570 0.000000000000
2755 2 -1.200000000000 125.167517634369 10.019637792855 21.211082115253
2756 2 -1.200000000000 123.593083450289 7.793051616665 21.211082115253
2757 2 -1.200000000000 125.167517634369 10.019637792855 1.928280192296
2758 2 -1.200000000000 123.593083450289 7.793051616665 1.928280192296
2759 2 -1.200000000000 123.593083450289 11.132930880950 0.000000000000
2760 2 -1.200000000000 122.018649266208 8.906344704760 0.000000000000
2761 1 2.400000000000 125.954734726409 4.453172352380 0.000000000000
2762 1 2.400000000000 122.805866358249 3.339879264285 21.211082115253
2763 1 2.400000000000 122.805866358249 3.339879264285 1.928280192296
2764 1 2.400000000000 122.805866358249 6.679758528570 0.000000000000
2765 2 -1.200000000000 123.593083450289 4.453172352380 0.000000000000
2766 2 -1.200000000000 122.018649266208 2.226586176190 0.000000000000
2767 2 -1.200000000000 122.018649266208 5.566465440475 21.211082115253
2768 2 -1.200000000000 120.444215082128 3.339879264285 21.211082115253
2769 2 -1.200000000000 122.018649266208 5.566465440475 1.928280192296
2770 2 -1.200000000000 120.444215082128 3.339879264285 1.928280192296
2771 2 -1.200000000000 120.444215082128 6.679758528570 0.000000000000
2772 2 -1.200000000000 118.869780898048 4.453172352380 0.000000000000
2773 1 2.400000000000 122.805866358249 0.000000000000 0.000000000000
2774 1 2.400000000000 119.656997990088 25.605741026184 21.211082115253
2775 1 2.400000000000 119.656997990088 25.605741026184 1.928280192296
2776 1 2.400000000000 119.656997990088 2.226586176190 0.000000000000
2777 2 -1.200000000000 120.444215082128 0.000000000000 0.000000000000
2778 2 -1.200000000000 118.869780898048 24.492447938089 0.000000000000
2779 2 -1.200000000000 118.869780898048 1.113293088095 21.211082115253
2780 2 -1.200000000000 117.295346713968 25.605741026184 21.211082115253
2781 2 -1.200000000000 118.869780898048 1.113293088095 1.928280192296
2782 2 -1.200000000000 117.295346713968 25.605741026184 1.928280192296
2783 2 -1.200000000000 117.295346713968 2.226586176190 0.000000000000
2784 2 -1.200000000000 115.720912529888 0.000000000000 0.000000000000
2785 1 2.400000000000 129.103603094569 2.226586176190 11.569681153774
2786 1 2.400000000000 125.954734726409 1.113293088095 9.641400961479
2787 1 2.400000000000 125.954734726409 1.113293088095 13.497961346070
2788 1 2.400000000000 125.954734726409 4.453172352380 11.569681153774
2789 2 -1.200000000000 126.741951818449 2.226586176190 11.569681153774
2790 2 -1.200000000000 125.167517634369 0.000000000000 11.569681153774
2791 2 -1.200000000000 125.167517634369 3.339879264285 9.641400961479
2792 2 -1.200000000000 123.593083450289 1.113293088095 9.641400961479
2793 2 -1.200000000000 125.167517634369 3.339879264285 13.497961346070
2794 2 -1.200000000000 123.593083450289 1.113293088095 13.497961346070
2795 2 -1.200000000000 123.593083450289 4.453172352380 11.569681153774
2796 2 -1.200000000000 122.018649266208 2.226586176190 11.569681153774
2797 1 2.400000000000 129.103603094569 8.906344704760 7.713120769183
2798 1 2.400000000000 125.954734726409 7.793051616665 5.784840576887
2799 1 2.400000000000 125.954734726409 7.793051616665 9.641400961479
2800 1 2.400000000000 125.954734726409 11.132930880950 7.713120769183
2801 2 -1.200000000000 126.741951818449 8.906344704760 7.713120769183
2802 2 -1.200000000000 125.167517634369 6.679758528570 7.713120769183
2803 2 -1.200000000000 125.167517634369 10.019637792855 5.784840576887
2804 2 -1.200000000000 123.593083450289 7.793051616665 5.784840576887
2805 2 -1.200000000000 125.167517634369 10.019637792855 9.641400961479
2806 2 -1.200000000000 123.593083450289 7.793051616665 9.641400961479
2807 2 -1.200000000000 123.593083450289 11.132930880950 7.713120769183
2808 2 -1.200000000000 122.018649266208 8.906344704760 7.713120769183
2809 1 2.400000000000 125.954734726409 4.453172352380 7.713120769183
2810 1 2.400000000000 122.805866358249 3.339879264285 5.784840576887
2811 1 2.400000000000 122.805866358249 3.339879264285 9.641400961479
2812 1 2.400000000000 122.805866358249 6.679758528570 7.713120769183
2813 2 -1.200000000000 123.593083450289 4.453172352380 7.713120769183
2814 2 -1.200000000000 122.018649266208 2.226586176190 7.713120769183
2815 2 -1.200000000000 122.018649266208 5.566465440475 5.784840576887
2816 2 -1.200000000000 120.444215082128 3.339879264285 5.784840576887
2817 2 -1.200000000000 122.018649266208 5.566465440475 9.641400961479
2818 2 -1.200000000000 120.444215082128 3.339879264285 9.641400961479
2819 2 -1.200000000000 120.444215082128 6.679758528570 7.713120769183
2820 2 -1.200000000000 118.869780898048 4.453172352380 7.713120769183
2821 1 2.400000000000 122.805866358249 0.000000000000 7.713120769183
2822 1 2.400000000000 119.656997990088 25.605741026184 5.784840576887
2823 1 2.400000000000 119.656997990088 25.605741026184 9.641400961479
2824 1 2.400000000000 119.656997990088 2.226586176190 7.713120769183
2825 2 -1.200000000000 120.444215082128 0.000000000000 7.713120769183
2826 2 -1.200000000000 118.869780898048 24.492447938089 7.713120769183
2827 2 -1.200000000000 118.869780898048 1.113293088095 5.784840576887
2828 2 -1.200000000000 117.295346713968 25.605741026184 5.784840576887
2829 2 -1.200000000000 118.869780898048 1.113293088095 9.641400961479
2830 2 -1.200000000000 117.295346713968 25.605741026184 9.641400961479
2831 2 -1.200000000000 117.295346713968 2.226586176190 7.713120769183
2832 2 -1.200000000000 115.720912529888 0.000000000000 7.713120769183
2833 1 2.400000000000 129.103603094569 15.586103233329 3.856560384591
2834 1 2.400000000000 125.954734726409 14.472810145234 1.928280192296
2835 1 2.400000000000 125.954734726409 14.472810145234 5.784840576887
2836 1 2.400000000000 125.954734726409 17.812689409519 3.856560384591
2837 2 -1.200000000000 126.741951818449 15.586103233329 3.856560384591
2838 2 -1.200000000000 125.167517634369 13.359517057139 3.856560384591
2839 2 -1.200000000000 125.167517634369 16.699396321424 1.928280192296
2840 2 -1.200000000000 123.593083450289 14.472810145234 1.928280192296
2841 2 -1.200000000000 125.167517634369 16.699396321424 5.784840576887
2842 2 -1.200000000000 123.593083450289 14.472810145234 5.784840576887
2843 2 -1.200000000000 123.593083450289 17.812689409519 3.856560384591
2844 2 -1.200000000000 122.018649266208 15.586103233329 3.856560384591
2845 1 2.400000000000 125.954734726409 11.132930880950 3.856560384591
2846 1 2.400000000000 122.805866358249 10.019637792855 1.928280192296
2847 1 2.400000000000 122.805866358249 10.019637792855 5.784840576887
2848 1 2.400000000000 122.805866358249 13.359517057139 3.856560384591
2849 2 -1.200000000000 123.593083450289 11.132930880950 3.856560384591
2850 2 -1.200000000000 122.018649266208 8.906344704760 3.856560384591
2851 2 -1.200000000000 122.018649266208 12.246223969044 1.928280192296
2852 2 -1.200000000000 120.444215082128 10.019637792855 1.928280192296
2853 2 -1.200000000000 122.018649266208 12.246223969044 5.784840576887
2854 2 -1.200000000000 120.444215082128 10.019637792855 5.784840576887
2855 2 -1.200000000000 120.444215082128 13.359517057139 3.856560384591
2856 2 -1.200000000000 118.869780898048 11.132930880950 3.856560384591
2857 1 2.400000000000 122.805866358249 6.679758528570 3.856560384591
2858 1 2.400000000000 119.656997990088 5.566465440475 1.928280192296
2859 1 2.400000000000 119.656997990088 5.566465440475 5.784840576887
2860 1 2.400000000000 119.656997990088 8.906344704760 3.856560384591
2861 2 -1.200000000000 120.444215082128 6.679758528570 3.856560384591
2862 2 -1.200000000000 118.869780898048 4.453172352380 3.856560384591
2863 2 -1.200000000000 118.869780898048 7.793051616665 1.928280192296
2864 2 -1.200000000000 117.295346713968 5.566465440475 1.928280192296
2865 2 -1.200000000000 118.869780898048 7.793051616665 5.784840576887
2866 2 -1.200000000000 117.295346713968 5.566465440475 5.784840576887
2867 2 -1.200000000000 117.295346713968 8.906344704760 3.856560384591
2868 2 -1.200000000000 115.720912529888 6.679758528570 3.856560384591
2869 1 2.400000000000 119.656997990088 2.226586176190 3.856560384591
2870 1 2.400000000000 116.508129621928 1.113293088095 1.928280192296
2871 1 2.400000000000 116.508129621928 1.113293088095 5.784840576887
2872 1 2.400000000000 116.508129621928 4.453172352380 3.856560384591
2873 2 -1.200000000000 117.295346713968 2.226586176190 3.856560384591
2874 2 -1.200000000000 115.720912529888 0.000000000000 3.856560384591
2875 2 -1.200000000000 115.720912529888 3.339879264285 1.928280192296
2876 2 -1.200000000000 114.146478345808 1.113293088095 1.928280192296
2877 2 -1.200000000000 115.720912529888 3.339879264285 5.784840576887
2878 2 -1.200000000000 114.146478345808 1.113293088095 5.784840576887
2879 2 -1.200000000000 114.146478345808 4.453172352380 3.856560384591
2880 2 -1.200000000000 112.572044161728 2.226586176190 3.856560384591
2881 1 2.400000000000 129.103603094569 22.265861761899 0.000000000000
2882 1 2.400000000000 125.954734726409 21.152568673804 21.211082115253
2883 1 2.400000000000 125.954734726409 21.152568673804 1.928280192296
2884 1 2.400000000000 125.954734726409 24.492447938089 0.000000000000
2885 2 -1.200000000000 126.741951818449 22.265861761899 0.000000000000
2886 2 -1.200000000000 125.167517634369 20.039275585709 0.000000000000
2887 2 -1.200000000000 125.167517634369 23.379154849994 21.211082115253
2888 2 -1.200000000000 123.593083450289 21.152568673804 21.211082115253
2889 2 -1.200000000000 125.167517634369 23.379154849994 1.928280192296
2890 2 -1.200000000000 123.593083450289 21.152568673804 1.928280192296
2891 2 -1.200000000000 123.593083450289 24.492447938089 0.000000000000
2892 2 -1.200000000000 122.018649266208 22.265861761899 0.000000000000
2893 1 2.400000000000 125.954734726409 17.812689409519 0.000000000000
2894 1 2.400000000000 122.805866358249 16.699396321424 21.211082115253
2895 1 2.400000000000 122.805866358249 16.699396321424 1.928280192296
2896 1 2.400000000000 122.805866358249 20.039275585709 0.000000000000
2897 2 -1.200000000000 123.593083450289 17.812689409519 0.000000000000
2898 2 -1.200000000000 122.018649266208 15.586103233329 0.000000000000
2899 2 -1.200000000000 122.018649266208 18.925982497614 21.211082115253
2900 2 -1.200000000000 120.444215082128 16.699396321424 21.211082115253
2901 2 -1.200000000000 122.018649266208 18.925982497614 1.928280192296
2902 2 -1.200000000000 120.444215082128 16.699396321424 1.928280192296
2903 2 -1.200000000000 120.444215082128 20.039275585709 0.000000000000
2904 2 -1.200000000000 118.869780898048 17.812689409519 0.000000000000
2905 1 2.400000000000 122.805866358249 13.359517057139 0.000000000000
2906 1 2.400000000000 119.656997990088 12.246223969045 21.211082115253
2907 1 2.400000000000 119.656997990088 12.246223969045 1.928280192296
2908 1 2.400000000000 119.656997990088 15.586103233329 0.000000000000
2909 2 -1.200000000000 120.444215082128 13.359517057139 0.000000000000
2910 2 -1.200000000000 118.869780898048 11.132930880950 0.000000000000
2911 2 -1.200000000000 118.869780898048 14.472810145234 21.211082115253
2912 2 -1.200000000000 117.295346713968 12.246223969044 21.211082115253
2913 2 -1.200000000000 118.869780898048 14.472810145234 1.928280192296
2914 2 -1.200000000000 117.295346713968 12.246223969044 1.928280192296
2915 2 -1.200000000000 117.295346713968 15.586103233329 0.000000000000
2916 2 -1.200000000000 115.720912529888 13.359517057139 0.000000000000
2917 1 2.400000000000 119.656997990088 8.906344704760 0.000000000000
2918 1 2.400000000000 116.508129621928 7.793051616665 21.211082115253
2919 1 2.400000000000 116.508129621928 7.793051616665 1.928280192296
2920 1 2.400000000000 116.508129621928 11.132930880950 0.000000000000
2921 2 -1.200000000000 117.295346713968 8.906344704760 0.000000000000
2922 2 -1.200000000000 115.720912529888 6.679758528570 0.000000000000
2923 2 -1.200000000000 115.720912529888 10.019637792855 21.211082115253
2924 2 -1.200000000000 114.146478345808 7.793051616665 21.211082115253
2925 2 -1.200000000000 115.720912529888 10.019637792855 1.928280192296
2926 2 -1.200000000000 114.146478345808 7.793051616665 1.928280192296
2927 2 -1.200000000000 114.146478345808 11.132930880950 0.000000000000
2928 2 -1.200000000000 112.572044161728 8.906344704760 0.000000000000
2929 1 2.400000000000 116.508129621928 4.453172352380 0.000000000000
2930 1 2.400000000000 113.359261253768 3.339879264285 21.211082115253
2931 1 2.400000000000 113.359261253768 3.339879264285 1.928280192296
2932 1 2.400000000000 113.359261253768 6.679758528570 0.000000000000
2933 2 -1.200000000000 114.146478345808 4.453172352380 0.000000000000
2934 2 -1.200000000000 112.572044161728 2.226586176190 0.000000000000
2935 2 -1.200000000000 112.572044161728 5.566465440475 21.211082115253
2936 2 -1.200000000000 110.997609977648 3.339879264285 21.211082115253
2937 2 -1.200000000000 112.572044161728 5.566465440475 1.928280192296
2938 2 -1.200000000000 110.997609977648 3.339879264285 1.928280192296
2939 2 -1.200000000000 110.997609977648 6.679758528570 0.000000000000
2940 2 -1.200000000000 109.423175793568 4.453172352380 0.000000000000
2941 1 2.400000000000 113.359261253768 0.000000000000 0.000000000000
2942 1 2.400000000000 110.210392885608 25.605741026184 21.211082115253
2943 1 2.400000000000 110.210392885608 25.605741026184 1.928280192296
2944 1 2.400000000000 110.210392885608 2.226586176190 0.000000000000
2945 2 -1.200000000000 110.997609977648 0.000000000000 0.000000000000
2946 2 -1.200000000000 109.423175793568 24.492447938089 0.000000000000
2947 2 -1.200000000000 109.423175793568 1.113293088095 21.211082115253
2948 2 -1.200000000000 107.848741609487 25.605741026184 21.211082115253
2949 2 -1.200000000000 109.423175793568 1.113293088095 1.928280192296
2950 2 -1.200000000000 107.848741609487 25.605741026184 1.928280192296
2951 2 -1.200000000000 107.848741609487 2.226586176190 0.000000000000
2952 2 -1.200000000000 106.274307425407 0.000000000000 0.000000000000
2953 1 2.400000000000 129.103603094569 2.226586176190 19.282801922957
2954 1 2.400000000000 125.954734726409 1.113293088095 17.354521730661
2955 1 2.400000000000 125.954734726409 1.113293088095 21.211082115253
2956 1 2.400000000000 125.954734726409 4.453172352380 19.282801922957
2957 2 -1.200000000000 126.741951818449 2.226586176190 19.282801922957
2958 2 -1.200000000000 125.167517634369 0.000000000000 19.282801922957
2959 2 -1.200000000000 125.167517634369 3.339879264285 17.354521730661
2960 2 -1.200000000000 123.593083450289 1.113293088095 17.354521730661
2961 2 -1.200000000000 125.167517634369 3.339879264285 21.211082115253
2962 2 -1.200000000000 123.593083450289 1.113293088095 21.211082115253
2963 2 -1.200000000000 123.593083450289 4.453172352380 19.282801922957
2964 2 -1.200000000000 122.018649266208 2.226586176190 19.282801922957
2965 1 2.400000000000 129.103603094569 8.906344704760 15.426241538366
2966 1 2.400000000000 125.954734726409 7.793051616665 13.497961346070
2967 1 2.400000000000 125.954734726409 7.793051616665 17.354521730661
2968 1 2.400000000000 125.954734726409 11.132930880950 15.426241538366
2969 2 -1.200000000000 126.741951818449 8.906344704760 15.426241538366
2970 2 -1.200000000000 125.167517634369 6.679758528570 15.426241538366
2971 2 -1.200000000000 125.167517634369 10.019637792855 13.497961346070
2972 2 -1.200000000000 123.593083450289 7.793051616665 13.497961346070
2973 2 -1.200000000000 125.167517634369 10.019637792855 17.354521730661
2974 2 -1.200000000000 123.593083450289 7.793051616665 17.354521730661
2975 2 -1.200000000000 123.593083450289 11.132930880950 15.426241538366
2976 2 -1.200000000000 122.018649266208 8.906344704760 15.426241538366
2977 1 2.400000000000 125.954734726409 4.453172352380 15.426241538366
2978 1 2.400000000000 122.805866358249 3.339879264285 13.497961346070
2979 1 2.400000000000 122.805866358249 3.339879264285 17.354521730661
2980 1 2.400000000000 122.805866358249 6.679758528570 15.426241538366
2981 2 -1.200000000000 123.593083450289 4.453172352380 15.426241538366
2982 2 -1.200000000000 122.018649266208 2.226586176190 15.426241538366
2983 2 -1.200000000000 122.018649266208 5.566465440475 13.497961346070
2984 2 -1.200000000000 120.444215082128 3.339879264285 13.497961346070
2985 2 -1.200000000000 122.018649266208 5.566465440475 17.354521730661
2986 2 -1.200000000000 120.444215082128 3.339879264285 17.354521730661
2987 2 -1.200000000000 120.444215082128 6.679758528570 15.426241538366
2988 2 -1.200000000000 118.869780898048 4.453172352380 15.426241538366
2989 1 2.400000000000 122.805866358249 0.000000000000 15.426241538366
2990 1 2.400000000000 119.656997990088 25.605741026184 13.497961346070
2991 1 2.400000000000 119.656997990088 25.605741026184 17.354521730661
2992 1 2.400000000000 119.656997990088 2.226586176190 15.426241538366
2993 2 -1.200000000000 120.444215082128 0.000000000000 15.426241538366
2994 2 -1.200000000000 118.869780898048 24.492447938089 15.426241538366
2995 2 -1.200000000000 118.869780898048 1.113293088095 13.497961346070
2996 2 -1.200000000000 117.295346713968 25.605741026184 13.497961346070
2997 2 -1.200000000000 118.869780898048 1.113293088095 17.354521730661
2998 2 -1.200000000000 117.295346713968 25.605741026184 17.354521730661
2999 2 -1.200000000000 117.295346713968 2.226586176190 15.426241538366
3000 2 -1.200000000000 115.720912529888 0.000000000000 15.426241538366
3001 1 2.400000000000 129.103603094569 15.586103233329 11.569681153774
3002 1 2.400000000000 125.954734726409 14.472810145234 9.641400961479
3003 1 2.400000000000 125.954734726409 14.472810145234 13.497961346070
3004 1 2.400000000000 125.954734726409 17.812689409519 11.569681153774
3005 2 -1.200000000000 126.741951818449 15.586103233329 11.569681153774
3006 2 -1.200000000000 125.167517634369 13.359517057139 11.569681153774
3007 2 -1.200000000000 125.167517634369 16.699396321424 9.641400961479
3008 2 -1.200000000000 123.593083450289 14.472810145234 9.641400961479
3009 2 -1.200000000000 125.167517634369 16.699396321424 13.497961346070
3010 2 -1.200000000000 123.593083450289 14.472810145234 13.497961346070
3011 2 -1.200000000000 123.593083450289 17.812689409519 11.569681153774
3012 2 -1.200000000000 122.018649266208 15.586103233329 11.569681153774
3013 1 2.400000000000 125.954734726409 11.132930880950 11.569681153774
3014 1 2.400000000000 122.805866358249 10.019637792855 9.641400961479
3015 1 2.400000000000 122.805866358249 10.019637792855 13.497961346070
3016 1 2.400000000000 122.805866358249 13.359517057139 11.569681153774
3017 2 -1.200000000000 123.593083450289 11.132930880950 11.569681153774
3018 2 -1.200000000000 122.018649266208 8.906344704760 11.569681153774
3019 2 -1.200000000000 122.018649266208 12.246223969044 9.641400961479
3020 2 -1.200000000000 120.444215082128 10.019637792855 9.641400961479
3021 2 -1.200000000000 122.018649266208 12.246223969045 13.497961346070
3022 2 -1.200000000000 120.444215082128 10.019637792855 13.497961346070
3023 2 -1.200000000000 120.444215082128 13.359517057139 11.569681153774
3024 2 -1.200000000000 118.869780898048 11.132930880950 11.569681153774
3025 1 2.400000000000 122.805866358249 6.679758528570 11.569681153774
3026 1 2.400000000000 119.656997990088 5.566465440475 9.641400961479
3027 1 2.400000000000 119.656997990088 5.566465440475 13.497961346070
3028 1 2.400000000000 119.656997990088 8.906344704760 11.569681153774
3029 2 -1.200000000000 120.444215082128 6.679758528570 11.569681153774
3030 2 -1.200000000000 118.869780898048 4.453172352380 11.569681153774
3031 2 -1.200000000000 118.869780898048 7.793051616665 9.641400961479
3032 2 -1.200000000000 117.295346713968 5.566465440475 9.641400961479
3033 2 -1.200000000000 118.869780898048 7.793051616665 13.497961346070
3034 2 -1.200000000000 117.295346713968 5.566465440475 13.497961346070
3035 2 -1.200000000000 117.295346713968 8.906344704760 11.569681153774
3036 2 -1.200000000000 115.720912529888 6.679758528570 11.569681153774
3037 1 2.400000000000 119.656997990088 2.226586176190 11.569681153774
3038 1 2.400000000000 116.508129621928 1.113293088095 9.641400961479
3039 1 2.400000000000 116.508129621928 1.113293088095 13.497961346070
3040 1 2.400000000000 116.508129621928 4.453172352380 11.569681153774
3041 2 -1.200000000000 117.295346713968 2.226586176190 11.569681153774
3042 2 -1.200000000000 115.720912529888 0.000000000000 11.569681153774
3043 2 -1.200000000000 115.720912529888 3.339879264285 9.641400961479
3044 2 -1.200000000000 114.146478345808 1.113293088095 9.641400961479
3045 2 -1.200000000000 115.720912529888 3.339879264285 13.497961346070
3046 2 -1.200000000000 114.146478345808 1.113293088095 13.497961346070
3047 2 -1.200000000000 114.146478345808 4.453172352380 11.569681153774
3048 2 -1.200000000000 112.572044161728 2.226586176190 11.569681153774
3049 1 2.400000000000 129.103603094569 22.265861761899 7.713120769183
3050 1 2.400000000000 125.954734726409 21.152568673804 5.784840576887
3051 1 2.400000000000 125.954734726409 21.152568673804 9.641400961479
3052 1 2.400000000000 125.954734726409 24.492447938089 7.713120769183
3053 2 -1.200000000000 126.741951818449 22.265861761899 7.713120769183
3054 2 -1.200000000000 125.167517634369 20.039275585709 7.713120769183
3055 2 -1.200000000000 125.167517634369 23.379154849994 5.784840576887
3056 2 -1.200000000000 123.593083450289 21.152568673804 5.784840576887
3057 2 -1.200000000000 125.167517634369 23.379154849994 9.641400961479
3058 2 -1.200000000000 123.593083450289 21.152568673804 9.641400961479
3059 2 -1.200000000000 123.593083450289 24.492447938089 7.713120769183
3060 2 -1.200000000000 122.018649266208 22.265861761899 7.713120769183
3061 1 2.400000000000 125.954734726409 17.812689409519 7.713120769183
3062 1 2.400000000000 122.805866358249 16.699396321424 5.784840576887
3063 1 2.400000000000 122.805866358249 16.699396321424 9.641400961479
3064 1 2.400000000000 122.805866358249 20.039275585709 7.713120769183
3065 2 -1.200000000000 123.593083450289 17.812689409519 7.713120769183
3066 2 -1.200000000000 122.018649266208 15.586103233329 7.713120769183
3067 2 -1.200000000000 122.018649266208 18.925982497614 5.784840576887
3068 2 -1.200000000000 120.444215082128 16.699396321424 5.784840576887
3069 2 -1.200000000000 122.018649266208 18.925982497614 9.641400961479
3070 2 -1.200000000000 120.444215082128 16.699396321424 9.641400961479
3071 2 -1.200000000000 120.444215082128 20.039275585709 7.713120769183
3072 2 -1.200000000000 118.869780898048 17.812689409519 7.713120769183
3073 1 2.400000000000 122.805866358249 13.359517057139 7.713120769183
3074 1 2.400000000000 119.656997990088 12.246223969045 5.784840576887
3075 1 2.400000000000 119.656997990088 12.246223969045 9.641400961479
3076 1 2.400000000000 119.656997990088 15.586103233329 7.713120769183
3077 2 -1.200000000000 120.444215082128 13.359517057139 7.713120769183
3078 2 -1.200000000000 118.869780898048 11.132930880950 7.713120769183
3079 2 -1.200000000000 118.869780898048 14.472810145234 5.784840576887
3080 2 -1.200000000000 117.295346713968 12.246223969044 5.784840576887
3081 2 -1.200000000000 118.869780898048 14.472810145234 9.641400961479
3082 2 -1.200000000000 117.295346713968 12.246223969045 9.641400961479
3083 2 -1.200000000000 117.295346713968 15.586103233329 7.713120769183
3084 2 -1.200000000000 115.720912529888 13.359517057139 7.713120769183
3085 1 2.400000000000 119.656997990088 8.906344704760 7.713120769183
3086 1 2.400000000000 116.508129621928 7.793051616665 5.784840576887
3087 1 2.400000000000 116.508129621928 7.793051616665 9.641400961479
3088 1 2.400000000000 116.508129621928 11.132930880950 7.713120769183
3089 2 -1.200000000000 117.295346713968 8.906344704760 7.713120769183
3090 2 -1.200000000000 115.720912529888 6.679758528570 7.713120769183
3091 2 -1.200000000000 115.720912529888 10.019637792855 5.784840576887
3092 2 -1.200000000000 114.146478345808 7.793051616665 5.784840576887
3093 2 -1.200000000000 115.720912529888 10.019637792855 9.641400961479
3094 2 -1.200000000000 114.146478345808 7.793051616665 9.641400961479
3095 2 -1.200000000000 114.146478345808 11.132930880950 7.713120769183
3096 2 -1.200000000000 112.572044161728 8.906344704760 7.713120769183
3097 1 2.400000000000 116.508129621928 4.453172352380 7.713120769183
3098 1 2.400000000000 113.359261253768 3.339879264285 5.784840576887
3099 1 2.400000000000 113.359261253768 3.339879264285 9.641400961479
3100 1 2.400000000000 113.359261253768 6.679758528570 7.713120769183
3101 2 -1.200000000000 114.146478345808 4.453172352380 7.713120769183
3102 2 -1.200000000000 112.572044161728 2.226586176190 7.713120769183
3103 2 -1.200000000000 112.572044161728 5.566465440475 5.784840576887
3104 2 -1.200000000000 110.997609977648 3.339879264285 5.784840576887
3105 2 -1.200000000000 112.572044161728 5.566465440475 9.641400961479
3106 2 -1.200000000000 110.997609977648 3.339879264285 9.641400961479
3107 2 -1.200000000000 110.997609977648 6.679758528570 7.713120769183
3108 2 -1.200000000000 109.423175793568 4.453172352380 7.713120769183
3109 1 2.400000000000 113.359261253768 0.000000000000 7.713120769183
3110 1 2.400000000000 110.210392885608 25.605741026184 5.784840576887
3111 1 2.400000000000 110.210392885608 25.605741026184 9.641400961479
3112 1 2.400000000000 110.210392885608 2.226586176190 7.713120769183
3113 2 -1.200000000000 110.997609977648 0.000000000000 7.713120769183
3114 2 -1.200000000000 109.423175793568 24.492447938089 7.713120769183
3115 2 -1.200000000000 109.423175793568 1.113293088095 5.784840576887
3116 2 -1.200000000000 107.848741609487 25.605741026184 5.784840576887
3117 2 -1.200000000000 109.423175793568 1.113293088095 9.641400961479
3118 2 -1.200000000000 107.848741609487 25.605741026184 9.641400961479
3119 2 -1.200000000000 107.848741609487 2.226586176190 7.713120769183
3120 2 -1.200000000000 106.274307425407 0.000000000000 7.713120769183
3121 1 2.400000000000 125.954734726409 24.492447938089 3.856560384591
3122 1 2.400000000000 122.805866358249 23.379154849994 1.928280192296
3123 1 2.400000000000 122.805866358249 23.379154849994 5.784840576887
3124 1 2.400000000000 122.805866358249 0.000000000000 3.856560384591
3125 2 -1.200000000000 123.593083450289 24.492447938089 3.856560384591
3126 2 -1.200000000000 122.018649266208 22.265861761899 3.856560384591
3127 2 -1.200000000000 122.018649266208 25.605741026184 1.928280192296
3128 2 -1.200000000000 120.444215082128 23.379154849994 1.928280192296
3129 2 -1.200000000000 122.018649266208 25.605741026184 5.784840576887
3130 2 -1.200000000000 120.444215082128 23.379154849994 5.784840576887
3131 2 -1.200000000000 120.444215082128 0.000000000000 3.856560384591
3132 2 -1.200000000000 118.869780898048 24.492447938089 3.856560384591
3133 1 2.400000000000 122.805866358249 20.039275585709 3.856560384591
3134 1 2.400000000000 119.656997990088 18.925982497614 1.928280192296
3135 1 2.400000000000 119.656997990088 18.925982497614 5.784840576887
3136 1 2.400000000000 119.656997990088 22.265861761899 3.856560384591
3137 2 -1.200000000000 120.444215082128 20.039275585709 3.856560384591
3138 2 -1.200000000000 118.869780898048 17.812689409519 3.856560384591
3139 2 -1.200000000000 118.869780898048 21.152568673804 1.928280192296
3140 2 -1.200000000000 117.295346713968 18.925982497614 1.928280192296
3141 2 -1.200000000000 118.869780898048 21.152568673804 5.784840576887
3142 2 -1.200000000000 117.295346713968 18.925982497614 5.784840576887
3143 2 -1.200000000000 117.295346713968 22.265861761899 3.856560384591
3144 2 -1.200000000000 115.720912529888 20.039275585709 3.856560384591
3145 1 2.400000000000 119.656997990088 15.586103233329 3.856560384591
3146 1 2.400000000000 116.508129621928 14.472810145234 1.928280192296
3147 1 2.400000000000 116.508129621928 14.472810145234 5.784840576887
3148 1 2.400000000000 116.508129621928 17.812689409519 3.856560384591
3149 2 -1.200000000000 117.295346713968 15.586103233329 3.856560384591
3150 2 -1.200000000000 115.720912529888 13.359517057139 3.856560384591
3151 2 -1.200000000000 115.720912529888 16.699396321424 1.928280192296
3152 2 -1.200000000000 114.146478345808 14.472810145234 1.928280192296
3153 2 -1.200000000000 115.720912529888 16.699396321424 5.784840576887
3154 2 -1.200000000000 114.146478345808 14.472810145234 5.784840576887
3155 2 -1.200000000000 114.146478345808 17.812689409519 3.856560384591
3156 2 -1.200000000000 112.572044161728 15.586103233329 3.856560384591
3157 1 2.400000000000 116.508129621928 11.132930880950 3.856560384591
3158 1 2.400000000000 113.359261253768 10.019637792855 1.928280192296
3159 1 2.400000000000 113.359261253768 10.019637792855 5.784840576887
3160 1 2.400000000000 113.359261253768 13.359517057139 3.856560384591
3161 2 -1.200000000000 114.146478345808 11.132930880950 3.856560384591
3162 2 -1.200000000000 112.572044161728 8.906344704760 3.856560384591
3163 2 -1.200000000000 112.572044161728 12.246223969044 1.928280192296
3164 2 -1.200000000000 110.997609977648 10.019637792855 1.928280192296
3165 2 -1.200000000000 112.572044161728 12.246223969044 5.784840576887
3166 2 -1.200000000000 110.997609977648 10.019637792855 5.784840576887
3167 2 -1.200000000000 110.997609977648 13.359517057139 3.856560384591
3168 2 -1.200000000000 109.423175793568 11.132930880950 3.856560384591
3169 1 2.400000000000 113.359261253768 6.679758528570 3.856560384591
3170 1 2.400000000000 110.210392885608 5.566465440475 1.928280192296
3171 1 2.400000000000 110.210392885608 5.566465440475 5.784840576887
3172 1 2.400000000000 110.210392885608 8.906344704760 3.856560384591
3173 2 -1.200000000000 110.997609977648 6.679758528570 3.856560384591
3174 2 -1.200000000000 109.423175793568 4.453172352380 3.856560384591
3175 2 -1.200000000000 109.423175793568 7.793051616665 1.928280192296
3176 2 -1.200000000000 107.848741609487 5.566465440475 1.928280192296
3177 2 -1.200000000000 109.423175793568 7.793051616665 5.784840576887
3178 2 -1.200000000000 107.848741609487 5.566465440475 5.784840576887
3179 2 -1.200000000000 107.848741609487 8.906344704760 3.856560384591
3180 2 -1.200000000000 106.274307425407 6.679758528570 3.856560384591
3181 1 2.400000000000 110.210392885608 2.226586176190 3.856560384591
3182 1 2.400000000000 107.061524517447 1.113293088095 1.928280192296
3183 1 2.400000000000 107.061524517447 1.113293088095 5.784840576887
3184 1 2.400000000000 107.061524517447 4.453172352380 3.856560384591
3185 2 -1.200000000000 107.848741609487 2.226586176190 3.856560384591
3186 2 -1.200000000000 106.274307425407 0.000000000000 3.856560384591
3187 2 -1.200000000000 106.274307425407 3.339879264285 1.928280192296
3188 2 -1.200000000000 104.699873241327 1.113293088095 1.928280192296
3189 2 -1.200000000000 106.274307425407 3.339879264285 5.784840576887
3190 2 -1.200000000000 104.699873241327 1.113293088095 5.784840576887
3191 2 -1.200000000000 104.699873241327 4.453172352380 3.856560384591
3192 2 -1.200000000000 103.125439057247 2.226586176190 3.856560384591
3193 1 2.400000000000 119.656997990088 22.265861761899 0.000000000000
3194 1 2.400000000000 116.508129621928 21.152568673804 21.211082115253
3195 1 2.400000000000 116.508129621928 21.152568673804 1.928280192296
3196 1 2.400000000000 116.508129621928 24.492447938089 0.000000000000
3197 2 -1.200000000000 117.295346713968 22.265861761899 0.000000000000
3198 2 -1.200000000000 115.720912529888 20.039275585709 0.000000000000
3199 2 -1.200000000000 115.720912529888 23.379154849994 21.211082115253
3200 2 -1.200000000000 114.146478345808 21.152568673804 21.211082115253
3201 2 -1.200000000000 115.720912529888 23.379154849994 1.928280192296
3202 2 -1.200000000000 114.146478345808 21.152568673804 1.928280192296
3203 2 -1.200000000000 114.146478345808 24.492447938089 0.000000000000
3204 2 -1.200000000000 112.572044161728 22.265861761899 0.000000000000
3205 1 2.400000000000 116.508129621928 17.812689409519 0.000000000000
3206 1 2.400000000000 113.359261253768 16.699396321424 21.211082115253
3207 1 2.400000000000 113.359261253768 16.699396321424 1.928280192296
3208 1 2.400000000000 113.359261253768 20.039275585709 0.000000000000
3209 2 -1.200000000000 114.146478345808 17.812689409519 0.000000000000
3210 2 -1.200000000000 112.572044161728 15.586103233329 0.000000000000
3211 2 -1.200000000000 112.572044161728 18.925982497614 21.211082115253
3212 2 -1.200000000000 110.997609977648 16.699396321424 21.211082115253
3213 2 -1.200000000000 112.572044161728 18.925982497614 1.928280192296
3214 2 -1.200000000000 110.997609977648 16.699396321424 1.928280192296
3215 2 -1.200000000000 110.997609977648 20.039275585709 0.000000000000
3216 2 -1.200000000000 109.423175793568 17.812689409519 0.000000000000
3217 1 2.400000000000 113.359261253768 13.359517057139 0.000000000000
3218 1 2.400000000000 110.210392885608 12.246223969045 21.211082115253
3219 1 2.400000000000 110.210392885608 12.246223969045 1.928280192296
3220 1 2.400000000000 110.210392885608 15.586103233329 0.000000000000
3221 2 -1.200000000000 110.997609977648 13.359517057139 0.000000000000
3222 2 -1.200000000000 109.423175793568 11.132930880950 0.000000000000
3223 2 -1.200000000000 109.423175793568 14.472810145234 21.211082115253
3224 2 -1.200000000000 107.848741609487 12.246223969045 21.211082115253
3225 2 -1.200000000000 109.423175793568 14.472810145234 1.928280192296
3226 2 -1.200000000000 107.848741609487 12.246223969045 1.928280192296
3227 2 -1.200000000000 107.848741609487 15.586103233329 0.000000000000
3228 2 -1.200000000000 106.274307425407 13.359517057139 0.000000000000
3229 1 2.400000000000 110.210392885608 8.906344704760 0.000000000000
3230 1 2.400000000000 107.061524517447 7.793051616665 21.211082115253
3231 1 2.400000000000 107.061524517447 7.793051616665 1.928280192296
3232 1 2.400000000000 107.061524517447 11.132930880950 0.000000000000
3233 2 -1.200000000000 107.848741609487 8.906344704760 0.000000000000
3234 2 -1.200000000000 106.274307425407 6.679758528570 0.000000000000
3235 2 -1.200000000000 106.274307425407 10.019637792855 21.211082115253
3236 2 -1.200000000000 104.699873241327 7.793051616665 21.211082115253
3237 2 -1.200000000000 106.274307425407 10.019637792855 1.928280192296
3238 2 -1.200000000000 104.699873241327 7.793051616665 1.928280192296
3239 2 -1.200000000000 104.699873241327 11.132930880950 0.000000000000
3240 2 -1.200000000000 103.125439057247 8.906344704760 0.000000000000
3241 1 2.400000000000 107.061524517447 4.453172352380 0.000000000000
3242 1 2.400000000000 103.912656149287 3.339879264285 21.211082115253
3243 1 2.400000000000 103.912656149287 3.339879264285 1.928280192296
3244 1 2.400000000000 103.912656149287 6.679758528570 0.000000000000
3245 2 -1.200000000000 104.699873241327 4.453172352380 0.000000000000
3246 2 -1.200000000000 103.125439057247 2.226586176190 0.000000000000
3247 2 -1.200000000000 103.125439057247 5.566465440475 21.211082115253
3248 2 -1.200000000000 101.551004873167 3.339879264285 21.211082115253
3249 2 -1.200000000000 103.125439057247 5.566465440475 1.928280192296
3250 2 -1.200000000000 101.551004873167 3.339879264285 1.928280192296
3251 2 -1.200000000000 101.551004873167 6.679758528570 0.000000000000
3252 2 -1.200000000000 99.976570689087 4.453172352380 0.000000000000
3253 1 2.400000000000 103.912656149287 0.000000000000 0.000000000000
3254 1 2.400000000000 100.763787781127 25.605741026184 21.211082115253
3255 1 2.400000000000 100.763787781127 25.605741026184 1.928280192296
3256 1 2.400000000000 100.763787781127 2.226586176190 0.000000000000
3257 2 -1.200000000000 101.551004873167 0.000000000000 0.000000000000
3258 2 -1.200000000000 99.976570689087 24.492447938089 0.000000000000
3259 2 -1.200000000000 99.976570689087 1.113293088095 21.211082115253
3260 2 -1.200000000000 98.402136505007 25.605741026184 21.211082115253
3261 2 -1.200000000000 99.976570689087 1.113293088095 1.928280192296
3262 2 -1.200000000000 98.402136505007 25.605741026184 1.928280192296
3263 2 -1.200000000000 98.402136505007 2.226586176190 0.000000000000
3264 2 -1.200000000000 96.827702320927 0.000000000000 0.000000000000
3265 1 2.400000000000 129.103603094569 15.586103233329 19.282801922957
3266 1 2.400000000000 125.954734726409 14.472810145234 17.354521730661
3267 1 2.400000000000 125.954734726409 14.472810145234 21.211082115253
3268 1 2.400000000000 125.954734726409 17.812689409519 19.282801922957
3269 2 -1.200000000000 126.741951818449 15.586103233329 19.282801922957
3270 2 -1.200000000000 125.167517634369 13.359517057139 19.282801922957
3271 2 -1.200000000000 125.167517634369 16.699396321424 17.354521730661
3272 2 -1.200000000000 123.593083450289 14.472810145234 17.354521730661
3273 2 -1.200000000000 125.167517634369 16.699396321424 21.211082115253
3274 2 -1.200000000000 123.593083450289 14.472810145234 21.211082115253
3275 2 -1.200000000000 123.593083450289 17.812689409519 19.282801922957
3276 2 -1.200000000000 122.018649266208 15.586103233329 19.282801922957
3277 1 2.400000000000 125.954734726409 11.132930880950 19.282801922957
3278 1 2.400000000000 122.805866358249 10.019637792855 17.354521730661
3279 1 2.400000000000 122.805866358249 10.019637792855 21.211082115253
3280 1 2.400000000000 122.805866358249 13.359517057139 19.282801922957
3281 2 -1.200000000000 123.593083450289 11.132930880950 19.282801922957
3282 2 -1.200000000000 122.018649266208 8.906344704760 19.282801922957
3283 2 -1.200000000000 122.018649266208 12.246223969044 17.354521730661
3284 2 -1.200000000000 120.444215082128 10.019637792855 17.354521730661
3285 2 -1.200000000000 122.018649266208 12.246223969045 21.211082115253
3286 2 -1.200000000000 120.444215082128 10.019637792855 21.211082115253
3287 2 -1.200000000000 120.444215082128 13.359517057139 19.282801922957
3288 2 -1.200000000000 118.869780898048 11.132930880950 19.282801922957
3289 1 2.400000000000 122.805866358249 6.679758528570 19.282801922957
3290 1 2.400000000000 119.656997990088 5.566465440475 17.354521730661
3291 1 2.400000000000 119.656997990088 5.566465440475 21.211082115253
3292 1 2.400000000000 119.656997990088 8.906344704760 19.282801922957
3293 2 -1.200000000000 120.444215082128 6.679758528570 19.282801922957
3294 2 -1.200000000000 118.869780898048 4.453172352380 19.282801922957
3295 2 -1.200000000000 118.869780898048 7.793051616665 17.354521730661
3296 2 -1.200000000000 117.295346713968 5.566465440475 17.354521730661
3297 2 -1.200000000000 118.869780898048 7.793051616665 21.211082115253
3298 2 -1.200000000000 117.295346713968 5.566465440475 21.211082115253
3299 2 -1.200000000000 117.295346713968 8.906344704760 19.282801922957
3300 2 -1.200000000000 115.720912529888 6.679758528570 19.282801922957
3301 1 2.400000000000 119.656997990088 2.226586176190 19.282801922957
3302 1 2.400000000000 116.508129621928 1.113293088095 17.354521730661
3303 1 2.400000000000 116.508129621928 1.113293088095 21.211082115253
3304 1 2.400000000000 116.508129621928 4.453172352380 19.282801922957
3305 2 -1.200000000000 117.295346713968 2.226586176190 19.282801922957
3306 2 -1.200000000000 115.720912529888 0.000000000000 19.282801922957
3307 2 -1.200000000000 115.720912529888 3.339879264285 17.354521730661
3308 2 -1.200000000000 114.146478345808 1.113293088095 17.354521730661
3309 2 -1.200000000000 115.720912529888 3.339879264285 21.211082115253
3310 2 -1.200000000000 114.146478345808 1.113293088095 21.211082115253
3311 2 -1.200000000000 114.146478345808 4.453172352380 19.282801922957
3312 2 -1.200000000000 112.572044161728 2.226586176190 19.282801922957
3313 1 2.400000000000 129.103603094569 22.265861761899 15.426241538366
3314 1 2.400000000000 125.954734726409 21.152568673804 13.497961346070
3315 1 2.400000000000 125.954734726409 21.152568673804 17.354521730661
3316 1 2.400000000000 125.954734726409 24.492447938089 15.426241538366
3317 2 -1.200000000000 126.741951818449 22.265861761899 15.426241538366
3318 2 -1.200000000000 125.167517634369 20.039275585709 15.426241538366
3319 2 -1.200000000000 125.167517634369 23.379154849994 13.497961346070
3320 2 -1.200000000000 123.593083450289 21.152568673804 13.497961346070
3321 2 -1.200000000000 125.167517634369 23.379154849994 17.354521730661
3322 2 -1.200000000000 123.593083450289 21.152568673804 17.354521730661
3323 2 -1.200000000000 123.593083450289 24.492447938089 15.426241538366
3324 2 -1.200000000000 122.018649266208 22.265861761899 15.426241538366
3325 1 2.400000000000 125.954734726409 17.812689409519 15.426241538366
3326 1 2.400000000000 122.805866358249 16.699396321424 13.497961346070
3327 1 2.400000000000 122.805866358249 16.699396321424 17.354521730661
3328 1 2.400000000000 122.805866358249 20.039275585709 15.426241538366
3329 2 -1.200000000000 123.593083450289 17.812689409519 15.426241538366
3330 2 -1.200000000000 122.018649266208 15.586103233329 15.426241538366
3331 2 -1.200000000000 122.018649266208 18.925982497614 13.497961346070
3332 2 -1.200000000000 120.444215082128 16.699396321424 13.497961346070
3333 2 -1.200000000000 122.018649266208 18.925982497614 17.354521730661
3334 2 -1.200000000000 120.444215082128 16.699396321424 17.354521730661
3335 2 -1.200000000000 120.444215082128 20.039275585709 15.426241538366
3336 2 -1.200000000000 118.869780898048 17.812689409519 15.426241538366
3337 1 2.400000000000 122.805866358249 13.359517057139 15.426241538366
3338 1 2.400000000000 119.656997990088 12.246223969045 13.497961346070
3339 1 2.400000000000 119.656997990088 12.246223969045 17.354521730661
3340 1 2.400000000000 119.656997990088 15.586103233329 15.426241538366
3341 2 -1.200000000000 120.444215082128 13.359517057139 15.426241538366
3342 2 -1.200000000000 118.869780898048 11.132930880950 15.426241538366
3343 2 -1.200000000000 118.869780898048 14.472810145234 13.497961346070
3344 2 -1.200000000000 117.295346713968 12.246223969045 13.497961346070
3345 2 -1.200000000000 118.869780898048 14.472810145234 17.354521730661
3346 2 -1.200000000000 117.295346713968 12.246223969045 17.354521730661
3347 2 -1.200000000000 117.295346713968 15.586103233329 15.426241538366
3348 2 -1.200000000000 115.720912529888 13.359517057139 15.426241538366
3349 1 2.400000000000 119.656997990088 8.906344704760 15.426241538366
3350 1 2.400000000000 116.508129621928 7.793051616665 13.497961346070
3351 1 2.400000000000 116.508129621928 7.793051616665 17.354521730661
3352 1 2.400000000000 116.508129621928 11.132930880950 15.426241538366
3353 2 -1.200000000000 117.295346713968 8.906344704760 15.426241538366
3354 2 -1.200000000000 115.720912529888 6.679758528570 15.426241538366
3355 2 -1.200000000000 115.720912529888 10.019637792855 13.497961346070
3356 2 -1.200000000000 114.146478345808 7.793051616665 13.497961346070
3357 2 -1.200000000000 115.720912529888 10.019637792855 17.354521730661
3358 2 -1.200000000000 114.146478345808 7.793051616665 17.354521730661
3359 2 -1.200000000000 114.146478345808 11.132930880950 15.426241538366
3360 2 -1.200000000000 112.572044161728 8.906344704760 15.426241538366
3361 1 2.400000000000 116.508129621928 4.453172352380 15.426241538366
3362 1 2.400000000000 113.359261253768 3.339879264285 13.497961346070
3363 1 2.400000000000 113.359261253768 3.339879264285 17.354521730661
3364 1 2.400000000000 113.359261253768 6.679758528570 15.426241538366
3365 2 -1.200000000000 114.146478345808 4.453172352380 15.426241538366
3366 2 -1.200000000000 112.572044161728 2.226586176190 15.426241538366
3367 2 -1.200000000000 112.572044161728 5.566465440475 13.497961346070
3368 2 -1.200000000000 110.997609977648 3.339879264285 13.497961346070
3369 2 -1.200000000000 112.572044161728 5.566465440475 17.354521730661
3370 2 -1.200000000000 110.997609977648 3.339879264285 17.354521730661
3371 2 -1.200000000000 110.997609977648 6.679758528570 15.426241538366
3372 2 -1.200000000000 109.423175793568 4.453172352380 15.426241538366
3373 1 2.400000000000 113.359261253768 0.000000000000 15.426241538366
3374 1 2.400000000000 110.210392885608 25.605741026184 13.497961346070
3375 1 2.400000000000 110.210392885608 25.605741026184 17.354521730661
3376 1 2.400000000000 110.210392885608 2.226586176190 15.426241538366
3377 2 -1.200000000000 110.997609977648 0.000000000000 15.426241538366
3378 2 -1.200000000000 109.423175793568 24.492447938089 15.426241538366
3379 2 -1.200000000000 109.423175793568 1.113293088095 13.497961346070
3380 2 -1.200000000000 107.848741609487 25.605741026184 13.497961346070
3381 2 -1.200000000000 109.423175793568 1.113293088095 17.354521730661
3382 2 -1.200000000000 107.848741609487 25.605741026184 17.354521730661
3383 2 -1.200000000000 107.848741609487 2.226586176190 15.426241538366
3384 2 -1.200000000000 106.274307425407 0.000000000000 15.426241538366
3385 1 2.400000000000 125.954734726409 24.492447938089 11.569681153774
3386 1 2.400000000000 122.805866358249 23.379154849994 9.641400961479
3387 1 2.400000000000 122.805866358249 23.379154849994 13.497961346070
3388 1 2.400000000000 122.805866358249 0.000000000000 11.569681153774
3389 2 -1.200000000000 123.593083450289 24.492447938089 11.569681153774
3390 2 -1.200000000000 122.018649266208 22.265861761899 11.569681153774
3391 2 -1.200000000000 122.018649266208 25.605741026184 9.641400961479
3392 2 -1.200000000000 120.444215082128 23.379154849994 9.641400961479
3393 2 -1.200000000000 122.018649266208 25.605741026184 13.497961346070
3394 2 -1.200000000000 120.444215082128 23.379154849994 13.497961346070
3395 2 -1.200000000000 120.444215082128 0.000000000000 11.569681153774
3396 2 -1.200000000000 118.869780898048 24.492447938089 11.569681153774
3397 1 2.400000000000 122.805866358249 20.039275585709 11.569681153774
3398 1 2.400000000000 119.656997990088 18.925982497614 9.641400961479
3399 1 2.400000000000 119.656997990088 18.925982497614 13.497961346070
3400 1 2.400000000000 119.656997990088 22.265861761899 11.569681153774
3401 2 -1.200000000000 120.444215082128 20.039275585709 11.569681153774
3402 2 -1.200000000000 118.869780898048 17.812689409519 11.569681153774
3403 2 -1.200000000000 118.869780898048 21.152568673804 9.641400961479
3404 2 -1.200000000000 117.295346713968 18.925982497614 9.641400961479
3405 2 -1.200000000000 118.869780898048 21.152568673804 13.497961346070
3406 2 -1.200000000000 117.295346713968 18.925982497614 13.497961346070
3407 2 -1.200000000000 117.295346713968 22.265861761899 11.569681153774
3408 2 -1.200000000000 115.720912529888 20.039275585709 11.569681153774
3409 1 2.400000000000 119.656997990088 15.586103233329 11.569681153774
3410 1 2.400000000000 116.508129621928 14.472810145234 9.641400961479
3411 1 2.400000000000 116.508129621928 14.472810145234 13.497961346070
3412 1 2.400000000000 116.508129621928 17.812689409519 11.569681153774
3413 2 -1.200000000000 117.295346713968 15.586103233329 11.569681153774
3414 2 -1.200000000000 115.720912529888 13.359517057139 11.569681153774
3415 2 -1.200000000000 115.720912529888 16.699396321424 9.641400961479
3416 2 -1.200000000000 114.146478345808 14.472810145234 9.641400961479
3417 2 -1.200000000000 115.720912529888 16.699396321424 13.497961346070
3418 2 -1.200000000000 114.146478345808 14.472810145234 13.497961346070
3419 2 -1.200000000000 114.146478345808 17.812689409519 11.569681153774
3420 2 -1.200000000000 112.572044161728 15.586103233329 11.569681153774
3421 1 2.400000000000 116.508129621928 11.132930880950 11.569681153774
3422 1 2.400000000000 113.359261253768 10.019637792855 9.641400961479
3423 1 2.400000000000 113.359261253768 10.019637792855 13.497961346070
3424 1 2.400000000000 113.359261253768 13.359517057139 11.569681153774
3425 2 -1.200000000000 114.146478345808 11.132930880950 11.569681153774
3426 2 -1.200000000000 112.572044161728 8.906344704760 11.569681153774
3427 2 -1.200000000000 112.572044161728 12.246223969044 9.641400961479
3428 2 -1.200000000000 110.997609977648 10.019637792855 9.641400961479
3429 2 -1.200000000000 112.572044161728 12.246223969044 13.497961346070
3430 2 -1.200000000000 110.997609977648 10.019637792855 13.497961346070
3431 2 -1.200000000000 110.997609977648 13.359517057139 11.569681153774
3432 2 -1.200000000000 109.423175793568 11.132930880950 11.569681153774
3433 1 2.400000000000 113.359261253768 6.679758528570 11.569681153774
3434 1 2.400000000000 110.210392885608 5.566465440475 9.641400961479
3435 1 2.400000000000 110.210392885608 5.566465440475 13.497961346070
3436 1 2.400000000000 110.210392885608 8.906344704760 11.569681153774
3437 2 -1.200000000000 110.997609977648 6.679758528570 11.569681153774
3438 2 -1.200000000000 109.423175793568 4.453172352380 11.569681153774
3439 2 -1.200000000000 109.423175793568 7.793051616665 9.641400961479
3440 2 -1.200000000000 107.848741609487 5.566465440475 9.641400961479
3441 2 -1.200000000000 109.423175793568 7.793051616665 13.497961346070
3442 2 -1.200000000000 107.848741609487 5.566465440475 13.497961346070
3443 2 -1.200000000000 107.848741609487 8.906344704760 11.569681153774
3444 2 -1.200000000000 106.274307425407 6.679758528570 11.569681153774
3445 1 2.400000000000 110.210392885608 2.226586176190 11.569681153774
3446 1 2.400000000000 107.061524517447 1.113293088095 9.641400961479
3447 1 2.400000000000 107.061524517447 1.113293088095 13.497961346070
3448 1 2.400000000000 107.061524517447 4.453172352380 11.569681153774
3449 2 -1.200000000000 107.848741609487 2.226586176190 11.569681153774
3450 2 -1.200000000000 106.274307425407 0.000000000000 11.569681153774
3451 2 -1.200000000000 106.274307425407 3.339879264285 9.641400961479
3452 2 -1.200000000000 104.699873241327 1.113293088095 9.641400961479
3453 2 -1.200000000000 106.274307425407 3.339879264285 13.497961346070
3454 2 -1.200000000000 104.699873241327 1.113293088095 13.497961346070
3455 2 -1.200000000000 104.699873241327 4.453172352380 11.569681153774
3456 2 -1.200000000000 103.125439057247 2.226586176190 11.569681153774
3457 1 2.400000000000 119.656997990088 22.265861761899 7.713120769183
3458 1 2.400000000000 116.508129621928 21.152568673804 5.784840576887
3459 1 2.400000000000 116.508129621928 21.152568673804 9.641400961479
3460 1 2.400000000000 116.508129621928 24.492447938089 7.713120769183
3461 2 -1.200000000000 117.295346713968 22.265861761899 7.713120769183
3462 2 -1.200000000000 115.720912529888 20.039275585709 7.713120769183
3463 2 -1.200000000000 115.720912529888 23.379154849994 5.784840576887
3464 2 -1.200000000000 114.146478345808 21.152568673804 5.784840576887
3465 2 -1.200000000000 115.720912529888 23.379154849994 9.641400961479
3466 2 -1.200000000000 114.146478345808 21.152568673804 9.641400961479
3467 2 -1.200000000000 114.146478345808 24.492447938089 7.713120769183
3468 2 -1.200000000000 112.572044161728 22.265861761899 7.713120769183
3469 1 2.400000000000 116.508129621928 17.812689409519 7.713120769183
3470 1 2.400000000000 113.359261253768 16.699396321424 5.784840576887
3471 1 2.400000000000 113.359261253768 16.699396321424 9.641400961479
3472 1 2.400000000000 113.359261253768 20.039275585709 7.713120769183
3473 2 -1.200000000000 114.146478345808 17.812689409519 7.713120769183
3474 2 -1.200000000000 112.572044161728 15.586103233329 7.713120769183
3475 2 -1.200000000000 112.572044161728 18.925982497614 5.784840576887
3476 2 -1.200000000000 110.997609977648 16.699396321424 5.784840576887
3477 2 -1.200000000000 112.572044161728 18.925982497614 9.641400961479
3478 2 -1.200000000000 110.997609977648 16.699396321424 9.641400961479
3479 2 -1.200000000000 110.997609977648 20.039275585709 7.713120769183
3480 2 -1.200000000000 109.423175793568 17.812689409519 7.713120769183
3481 1 2.400000000000 113.359261253768 13.359517057139 7.713120769183
3482 1 2.400000000000 110.210392885608 12.246223969045 5.784840576887
3483 1 2.400000000000 110.210392885608 12.246223969045 9.641400961479
3484 1 2.400000000000 110.210392885608 15.586103233329 7.713120769183
3485 2 -1.200000000000 110.997609977648 13.359517057139 7.713120769183
3486 2 -1.200000000000 109.423175793568 11.132930880950 7.713120769183
3487 2 -1.200000000000 109.423175793568 14.472810145234 5.784840576887
3488 2 -1.200000000000 107.848741609487 12.246223969045 5.784840576887
3489 2 -1.200000000000 109.423175793568 14.472810145234 9.641400961479
3490 2 -1.200000000000 107.848741609487 12.246223969045 9.641400961479
3491 2 -1.200000000000 107.848741609487 15.586103233329 7.713120769183
3492 2 -1.200000000000 106.274307425407 13.359517057139 7.713120769183
3493 1 2.400000000000 110.210392885608 8.906344704760 7.713120769183
3494 1 2.400000000000 107.061524517447 7.793051616665 5.784840576887
3495 1 2.400000000000 107.061524517447 7.793051616665 9.641400961479
3496 1 2.400000000000 107.061524517447 11.132930880950 7.713120769183
3497 2 -1.200000000000 107.848741609487 8.906344704760 7.713120769183
3498 2 -1.200000000000 106.274307425407 6.679758528570 7.713120769183
3499 2 -1.200000000000 106.274307425407 10.019637792855 5.784840576887
3500 2 -1.200000000000 104.699873241327 7.793051616665 5.784840576887
3501 2 -1.200000000000 106.274307425407 10.019637792855 9.641400961479
3502 2 -1.200000000000 104.699873241327 7.793051616665 9.641400961479
3503 2 -1.200000000000 104.699873241327 11.132930880950 7.713120769183
3504 2 -1.200000000000 103.125439057247 8.906344704760 7.713120769183
3505 1 2.400000000000 107.061524517447 4.453172352380 7.713120769183
3506 1 2.400000000000 103.912656149287 3.339879264285 5.784840576887
3507 1 2.400000000000 103.912656149287 3.339879264285 9.641400961479
3508 1 2.400000000000 103.912656149287 6.679758528570 7.713120769183
3509 2 -1.200000000000 104.699873241327 4.453172352380 7.713120769183
3510 2 -1.200000000000 103.125439057247 2.226586176190 7.713120769183
3511 2 -1.200000000000 103.125439057247 5.566465440475 5.784840576887
3512 2 -1.200000000000 101.551004873167 3.339879264285 5.784840576887
3513 2 -1.200000000000 103.125439057247 5.566465440475 9.641400961479
3514 2 -1.200000000000 101.551004873167 3.339879264285 9.641400961479
3515 2 -1.200000000000 101.551004873167 6.679758528570 7.713120769183
3516 2 -1.200000000000 99.976570689087 4.453172352380 7.713120769183
3517 1 2.400000000000 103.912656149287 0.000000000000 7.713120769183
3518 1 2.400000000000 100.763787781127 25.605741026184 5.784840576887
3519 1 2.400000000000 100.763787781127 25.605741026184 9.641400961479
3520 1 2.400000000000 100.763787781127 2.226586176190 7.713120769183
3521 2 -1.200000000000 101.551004873167 0.000000000000 7.713120769183
3522 2 -1.200000000000 99.976570689087 24.492447938089 7.713120769183
3523 2 -1.200000000000 99.976570689087 1.113293088095 5.784840576887
3524 2 -1.200000000000 98.402136505007 25.605741026184 5.784840576887
3525 2 -1.200000000000 99.976570689087 1.113293088095 9.641400961479
3526 2 -1.200000000000 98.402136505007 25.605741026184 9.641400961479
3527 2 -1.200000000000 98.402136505007 2.226586176190 7.713120769183
3528 2 -1.200000000000 96.827702320927 0.000000000000 7.713120769183
3529 1 2.400000000000 116.508129621928 24.492447938089 3.856560384591
3530 1 2.400000000000 113.359261253768 23.379154849994 1.928280192296
3531 1 2.400000000000 113.359261253768 23.379154849994 5.784840576887
3532 1 2.400000000000 113.359261253768 0.000000000000 3.856560384591
3533 2 -1.200000000000 114.146478345808 24.492447938089 3.856560384591
3534 2 -1.200000000000 112.572044161728 22.265861761899 3.856560384591
3535 2 -1.200000000000 112.572044161728 25.605741026184 1.928280192296
3536 2 -1.200000000000 110.997609977648 23.379154849994 1.928280192296
3537 2 -1.200000000000 112.572044161728 25.605741026184 5.784840576887
3538 2 -1.200000000000 110.997609977648 23.379154849994 5.784840576887
3539 2 -1.200000000000 110.997609977648 0.000000000000 3.856560384591
3540 2 -1.200000000000 109.423175793568 24.492447938089 3.856560384591
3541 1 2.400000000000 113.359261253768 20.039275585709 3.856560384591
3542 1 2.400000000000 110.210392885608 18.925982497614 1.928280192296
3543 1 2.400000000000 110.210392885608 18.925982497614 5.784840576887
3544 1 2.400000000000 110.210392885608 22.265861761899 3.856560384591
3545 2 -1.200000000000 110.997609977648 20.039275585709 3.856560384591
3546 2 -1.200000000000 109.423175793568 17.812689409519 3.856560384591
3547 2 -1.200000000000 109.423175793568 21.152568673804 1.928280192296
3548 2 -1.200000000000 107.848741609487 18.925982497614 1.928280192296
3549 2 -1.200000000000 109.423175793568 21.152568673804 5.784840576887
3550 2 -1.200000000000 107.848741609487 18.925982497614 5.784840576887
3551 2 -1.200000000000 107.848741609487 22.265861761899 3.856560384591
3552 2 -1.200000000000 106.274307425407 20.039275585709 3.856560384591
3553 1 2.400000000000 110.210392885608 15.586103233329 3.856560384591
3554 1 2.400000000000 107.061524517447 14.472810145234 1.928280192296
3555 1 2.400000000000 107.061524517447 14.472810145234 5.784840576887
3556 1 2.400000000000 107.061524517447 17.812689409519 3.856560384591
3557 2 -1.200000000000 107.848741609487 15.586103233329 3.856560384591
3558 2 -1.200000000000 106.274307425407 13.359517057139 3.856560384591
3559 2 -1.200000000000 106.274307425407 16.699396321424 1.928280192296
3560 2 -1.200000000000 104.699873241327 14.472810145234 1.928280192296
3561 2 -1.200000000000 106.274307425407 16.699396321424 5.784840576887
3562 2 -1.200000000000 104.699873241327 14.472810145234 5.784840576887
3563 2 -1.200000000000 104.699873241327 17.812689409519 3.856560384591
3564 2 -1.200000000000 103.125439057247 15.586103233329 3.856560384591
3565 1 2.400000000000 107.061524517447 11.132930880950 3.856560384591
3566 1 2.400000000000 103.912656149287 10.019637792855 1.928280192296
3567 1 2.400000000000 103.912656149287 10.019637792855 5.784840576887
3568 1 2.400000000000 103.912656149287 13.359517057139 3.856560384591
3569 2 -1.200000000000 104.699873241327 11.132930880950 3.856560384591
3570 2 -1.200000000000 103.125439057247 8.906344704760 3.856560384591
3571 2 -1.200000000000 103.125439057247 12.246223969045 1.928280192296
3572 2 -1.200000000000 101.551004873167 10.019637792855 1.928280192296
3573 2 -1.200000000000 103.125439057247 12.246223969045 5.784840576887
3574 2 -1.200000000000 101.551004873167 10.019637792855 5.784840576887
3575 2 -1.200000000000 101.551004873167 13.359517057139 3.856560384591
3576 2 -1.200000000000 99.976570689087 11.132930880950 3.856560384591
3577 1 2.400000000000 103.912656149287 6.679758528570 3.856560384591
3578 1 2.400000000000 100.763787781127 5.566465440475 1.928280192296
3579 1 2.400000000000 100.763787781127 5.566465440475 5.784840576887
3580 1 2.400000000000 100.763787781127 8.906344704760 3.856560384591
3581 2 -1.200000000000 101.551004873167 6.679758528570 3.856560384591
3582 2 -1.200000000000 99.976570689087 4.453172352380 3.856560384591
3583 2 -1.200000000000 99.976570689087 7.793051616665 1.928280192296
3584 2 -1.200000000000 98.402136505007 5.566465440475 1.928280192296
3585 2 -1.200000000000 99.976570689087 7.793051616665 5.784840576887
3586 2 -1.200000000000 98.402136505007 5.566465440475 5.784840576887
3587 2 -1.200000000000 98.402136505007 8.906344704760 3.856560384591
3588 2 -1.200000000000 96.827702320927 6.679758528570 3.856560384591
3589 1 2.400000000000 100.763787781127 2.226586176190 3.856560384591
3590 1 2.400000000000 97.614919412967 1.113293088095 1.928280192296
3591 1 2.400000000000 97.614919412967 1.113293088095 5.784840576887
3592 1 2.400000000000 97.614919412967 4.453172352380 3.856560384591
3593 2 -1.200000000000 98.402136505007 2.226586176190 3.856560384591
3594 2 -1.200000000000 96.827702320927 0.000000000000 3.856560384591
3595 2 -1.200000000000 96.827702320927 3.339879264285 1.928280192296
3596 2 -1.200000000000 95.253268136847 1.113293088095 1.928280192296
3597 2 -1.200000000000 96.827702320927 3.339879264285 5.784840576887
3598 2 -1.200000000000 95.253268136847 1.113293088095 5.784840576887
3599 2 -1.200000000000 95.253268136847 4.453172352380 3.856560384591
3600 2 -1.200000000000 93.678833952767 2.226586176190 3.856560384591
3601 1 2.400000000000 110.210392885608 22.265861761899 0.000000000000
3602 1 2.400000000000 107.061524517447 21.152568673804 21.211082115253
3603 1 2.400000000000 107.061524517447 21.152568673804 1.928280192296
3604 1 2.400000000000 107.061524517447 24.492447938089 0.000000000000
3605 2 -1.200000000000 107.848741609487 22.265861761899 0.000000000000
3606 2 -1.200000000000 106.274307425407 20.039275585709 0.000000000000
3607 2 -1.200000000000 106.274307425407 23.379154849994 21.211082115253
3608 2 -1.200000000000 104.699873241327 21.152568673804 21.211082115253
3609 2 -1.200000000000 106.274307425407 23.379154849994 1.928280192296
3610 2 -1.200000000000 104.699873241327 21.152568673804 1.928280192296
3611 2 -1.200000000000 104.699873241327 24.492447938089 0.000000000000
3612 2 -1.200000000000 103.125439057247 22.265861761899 0.000000000000
3613 1 2.400000000000 107.061524517447 17.812689409519 0.000000000000
3614 1 2.400000000000 103.912656149287 16.699396321424 21.211082115253
3615 1 2.400000000000 103.912656149287 16.699396321424 1.928280192296
3616 1 2.400000000000 103.912656149287 20.039275585709 0.000000000000
3617 2 -1.200000000000 104.699873241327 17.812689409519 0.000000000000
3618 2 -1.200000000000 103.125439057247 15.586103233329 0.000000000000
3619 2 -1.200000000000 103.125439057247 18.925982497614 21.211082115253
3620 2 -1.200000000000 101.551004873167 16.699396321424 21.211082115253
3621 2 -1.200000000000 103.125439057247 18.925982497614 1.928280192296
3622 2 -1.200000000000 101.551004873167 16.699396321424 1.928280192296
3623 2 -1.200000000000 101.551004873167 20.039275585709 0.000000000000
3624 2 -1.200000000000 99.976570689087 17.812689409519 0.000000000000
3625 1 2.400000000000 103.912656149287 13.359517057139 0.000000000000
3626 1 2.400000000000 100.763787781127 12.246223969045 21.211082115253
3627 1 2.400000000000 100.763787781127 12.246223969045 1.928280192296
3628 1 2.400000000000 100.763787781127 15.586103233329 0.000000000000
3629 2 -1.200000000000 101.551004873167 13.359517057139 0.000000000000
3630 2 -1.200000000000 99.976570689087 11.132930880950 0.000000000000
3631 2 -1.200000000000 99.976570689087 14.472810145234 21.211082115253
3632 2 -1.200000000000 98.402136505007 12.246223969045 21.211082115253
3633 2 -1.200000000000 99.976570689087 14.472810145234 1.928280192296
3634 2 -1.200000000000 98.402136505007 12.246223969045 1.928280192296
3635 2 -1.200000000000 98.402136505007 15.586103233329 0.000000000000
3636 2 -1.200000000000 96.827702320927 13.359517057139 0.000000000000
3637 1 2.400000000000 100.763787781127 8.906344704760 0.000000000000
3638 1 2.400000000000 97.614919412967 7.793051616665 21.211082115253
3639 1 2.400000000000 97.614919412967 7.793051616665 1.928280192296
3640 1 2.400000000000 97.614919412967 11.132930880950 0.000000000000
3641 2 -1.200000000000 98.402136505007 8.906344704760 0.000000000000
3642 2 -1.200000000000 96.827702320927 6.679758528570 0.000000000000
3643 2 -1.200000000000 96.827702320927 10.019637792855 21.211082115253
3644 2 -1.200000000000 95.253268136847 7.793051616665 21.211082115253
3645 2 -1.200000000000 96.827702320927 10.019637792855 1.928280192296
3646 2 -1.200000000000 95.253268136847 7.793051616665 1.928280192296
3647 2 -1.200000000000 95.253268136847 11.132930880950 0.000000000000
3648 2 -1.200000000000 93.678833952767 8.906344704760 0.000000000000
3649 1 2.400000000000 97.614919412967 4.453172352380 0.000000000000
3650 1 2.400000000000 94.466051044807 3.339879264285 21.211082115253
3651 1 2.400000000000 94.466051044807 3.339879264285 1.928280192296
3652 1 2.400000000000 94.466051044807 6.679758528570 0.000000000000
3653 2 -1.200000000000 95.253268136847 4.453172352380 0.000000000000
3654 2 -1.200000000000 93.678833952766 2.226586176190 0.000000000000
3655 2 -1.200000000000 93.678833952767 5.566465440475 21.211082115253
3656 2 -1.200000000000 92.104399768686 3.339879264285 21.211082115253
3657 2 -1.200000000000 93.678833952767 5.566465440475 1.928280192296
3658 2 -1.200000000000 92.104399768686 3.339879264285 1.928280192296
3659 2 -1.200000000000 92.104399768686 6.679758528570 0.000000000000
3660 2 -1.200000000000 90.529965584606 4.453172352380 0.000000000000
3661 1 2.400000000000 94.466051044807 0.000000000000 0.000000000000
3662 1 2.400000000000 91.317182676646 25.605741026184 21.211082115253
3663 1 2.400000000000 91.317182676646 25.605741026184 1.928280192296
3664 1 2.400000000000 91.317182676646 2.226586176190 0.000000000000
3665 2 -1.200000000000 92.104399768686 0.000000000000 0.000000000000
3666 2 -1.200000000000 90.529965584606 24.492447938089 0.000000000000
3667 2 -1.200000000000 90.529965584606 1.113293088095 21.211082115253
3668 2 -1.200000000000 88.955531400526 25.605741026184 21.211082115253
3669 2 -1.200000000000 90.529965584606 1.113293088095 1.928280192296
3670 2 -1.200000000000 88.955531400526 25.605741026184 1.928280192296
3671 2 -1.200000000000 88.955531400526 2.226586176190 0.000000000000
3672 2 -1.200000000000 87.381097216446 0.000000000000 0.000000000000
3673 1 2.400000000000 125.954734726409 24.492447938089 19.282801922957
3674 1 2.400000000000 122.805866358249 23.379154849994 17.354521730661
3675 1 2.400000000000 122.805866358249 23.379154849994 21.211082115253
3676 1 2.400000000000 122.805866358249 0.000000000000 19.282801922957
3677 2 -1.200000000000 123.593083450289 24.492447938089 19.282801922957
3678 2 -1.200000000000 122.018649266208 22.265861761899 19.282801922957
3679 2 -1.200000000000 122.018649266208 25.605741026184 17.354521730661
3680 2 -1.200000000000 120.444215082128 23.379154849994 17.354521730661
3681 2 -1.200000000000 122.018649266208 25.605741026184 21.211082115253
3682 2 -1.200000000000 120.444215082128 23.379154849994 21.211082115253
3683 2 -1.200000000000 120.444215082128 0.000000000000 19.282801922957
3684 2 -1.200000000000 118.869780898048 24.492447938089 19.282801922957
3685 1 2.400000000000 122.805866358249 20.039275585709 19.282801922957
3686 1 2.400000000000 119.656997990088 18.925982497614 17.354521730661
3687 1 2.400000000000 119.656997990088 18.925982497614 21.211082115253
3688 1 2.400000000000 119.656997990088 22.265861761899 19.282801922957
3689 2 -1.200000000000 120.444215082128 20.039275585709 19.282801922957
3690 2 -1.200000000000 118.869780898048 17.812689409519 19.282801922957
3691 2 -1.200000000000 118.869780898048 21.152568673804 17.354521730661
3692 2 -1.200000000000 117.295346713968 18.925982497614 17.354521730661
3693 2 -1.200000000000 118.869780898048 21.152568673804 21.211082115253
3694 2 -1.200000000000 117.295346713968 18.925982497614 21.211082115253
3695 2 -1.200000000000 117.295346713968 22.265861761899 19.282801922957
3696 2 -1.200000000000 115.720912529888 20.039275585709 19.282801922957
3697 1 2.400000000000 119.656997990088 15.586103233329 19.282801922957
3698 1 2.400000000000 116.508129621928 14.472810145234 17.354521730661
3699 1 2.400000000000 116.508129621928 14.472810145234 21.211082115253
3700 1 2.400000000000 116.508129621928 17.812689409519 19.282801922957
3701 2 -1.200000000000 117.295346713968 15.586103233329 19.282801922957
3702 2 -1.200000000000 115.720912529888 13.359517057139 19.282801922957
3703 2 -1.200000000000 115.720912529888 16.699396321424 17.354521730661
3704 2 -1.200000000000 114.146478345808 14.472810145234 17.354521730661
3705 2 -1.200000000000 115.720912529888 16.699396321424 21.211082115253
3706 2 -1.200000000000 114.146478345808 14.472810145234 21.211082115253
3707 2 -1.200000000000 114.146478345808 17.812689409519 19.282801922957
3708 2 -1.200000000000 112.572044161728 15.586103233329 19.282801922957
3709 1 2.400000000000 116.508129621928 11.132930880950 19.282801922957
3710 1 2.400000000000 113.359261253768 10.019637792855 17.354521730661
3711 1 2.400000000000 113.359261253768 10.019637792855 21.211082115253
3712 1 2.400000000000 113.359261253768 13.359517057139 19.282801922957
3713 2 -1.200000000000 114.146478345808 11.132930880950 19.282801922957
3714 2 -1.200000000000 112.572044161728 8.906344704760 19.282801922957
3715 2 -1.200000000000 112.572044161728 12.246223969044 17.354521730661
3716 2 -1.200000000000 110.997609977648 10.019637792855 17.354521730661
3717 2 -1.200000000000 112.572044161728 12.246223969044 21.211082115253
3718 2 -1.200000000000 110.997609977648 10.019637792855 21.211082115253
3719 2 -1.200000000000 110.997609977648 13.359517057139 19.282801922957
3720 2 -1.200000000000 109.423175793568 11.132930880950 19.282801922957
3721 1 2.400000000000 113.359261253768 6.679758528570 19.282801922957
3722 1 2.400000000000 110.210392885608 5.566465440475 17.354521730661
3723 1 2.400000000000 110.210392885608 5.566465440475 21.211082115253
3724 1 2.400000000000 110.210392885608 8.906344704760 19.282801922957
3725 2 -1.200000000000 110.997609977648 6.679758528570 19.282801922957
3726 2 -1.200000000000 109.423175793568 4.453172352380 19.282801922957
3727 2 -1.200000000000 109.423175793568 7.793051616665 17.354521730661
3728 2 -1.200000000000 107.848741609487 5.566465440475 17.354521730661
3729 2 -1.200000000000 109.423175793568 7.793051616665 21.211082115253
3730 2 -1.200000000000 107.848741609487 5.566465440475 21.211082115253
3731 2 -1.200000000000 107.848741609487 8.906344704760 19.282801922957
3732 2 -1.200000000000 106.274307425407 6.679758528570 19.282801922957
3733 1 2.400000000000 110.210392885608 2.226586176190 19.282801922957
3734 1 2.400000000000 107.061524517447 1.113293088095 17.354521730661
3735 1 2.400000000000 107.061524517447 1.113293088095 21.211082115253
3736 1 2.400000000000 107.061524517447 4.453172352380 19.282801922957
3737 2 -1.200000000000 107.848741609487 2.226586176190 19.282801922957
3738 2 -1.200000000000 106.274307425407 0.000000000000 19.282801922957
3739 2 -1.200000000000 106.274307425407 3.339879264285 17.354521730661
3740 2 -1.200000000000 104.699873241327 1.113293088095 17.354521730661
3741 2 -1.200000000000 106.274307425407 3.339879264285 21.211082115253
3742 2 -1.200000000000 104.699873241327 1.113293088095 21.211082115253
3743 2 -1.200000000000 104.699873241327 4.453172352380 19.282801922957
3744 2 -1.200000000000 103.125439057247 2.226586176190 19.282801922957
3745 1 2.400000000000 119.656997990088 22.265861761899 15.426241538366
3746 1 2.400000000000 116.508129621928 21.152568673804 13.497961346070
3747 1 2.400000000000 116.508129621928 21.152568673804 17.354521730661
3748 1 2.400000000000 116.508129621928 24.492447938089 15.426241538366
3749 2 -1.200000000000 117.295346713968 22.265861761899 15.426241538366
3750 2 -1.200000000000 115.720912529888 20.039275585709 15.426241538366
3751 2 -1.200000000000 115.720912529888 23.379154849994 13.497961346070
3752 2 -1.200000000000 114.146478345808 21.152568673804 13.497961346070
3753 2 -1.200000000000 115.720912529888 23.379154849994 17.354521730661
3754 2 -1.200000000000 114.146478345808 21.152568673804 17.354521730661
3755 2 -1.200000000000 114.146478345808 24.492447938089 15.426241538366
3756 2 -1.200000000000 112.572044161728 22.265861761899 15.426241538366
3757 1 2.400000000000 116.508129621928 17.812689409519 15.426241538366
3758 1 2.400000000000 113.359261253768 16.699396321424 13.497961346070
3759 1 2.400000000000 113.359261253768 16.699396321424 17.354521730661
3760 1 2.400000000000 113.359261253768 20.039275585709 15.426241538366
3761 2 -1.200000000000 114.146478345808 17.812689409519 15.426241538366
3762 2 -1.200000000000 112.572044161728 15.586103233329 15.426241538366
3763 2 -1.200000000000 112.572044161728 18.925982497614 13.497961346070
3764 2 -1.200000000000 110.997609977648 16.699396321424 13.497961346070
3765 2 -1.200000000000 112.572044161728 18.925982497614 17.354521730661
3766 2 -1.200000000000 110.997609977648 16.699396321424 17.354521730661
3767 2 -1.200000000000 110.997609977648 20.039275585709 15.426241538366
3768 2 -1.200000000000 109.423175793568 17.812689409519 15.426241538366
3769 1 2.400000000000 113.359261253768 13.359517057139 15.426241538366
3770 1 2.400000000000 110.210392885608 12.246223969045 13.497961346070
3771 1 2.400000000000 110.210392885608 12.246223969045 17.354521730661
3772 1 2.400000000000 110.210392885608 15.586103233329 15.426241538366
3773 2 -1.200000000000 110.997609977648 13.359517057139 15.426241538366
3774 2 -1.200000000000 109.423175793568 11.132930880950 15.426241538366
3775 2 -1.200000000000 109.423175793568 14.472810145234 13.497961346070
3776 2 -1.200000000000 107.848741609487 12.246223969045 13.497961346070
3777 2 -1.200000000000 109.423175793568 14.472810145234 17.354521730661
3778 2 -1.200000000000 107.848741609487 12.246223969045 17.354521730661
3779 2 -1.200000000000 107.848741609487 15.586103233329 15.426241538366
3780 2 -1.200000000000 106.274307425407 13.359517057139 15.426241538366
3781 1 2.400000000000 110.210392885608 8.906344704760 15.426241538366
3782 1 2.400000000000 107.061524517447 7.793051616665 13.497961346070
3783 1 2.400000000000 107.061524517447 7.793051616665 17.354521730661
3784 1 2.400000000000 107.061524517447 11.132930880950 15.426241538366
3785 2 -1.200000000000 107.848741609487 8.906344704760 15.426241538366
3786 2 -1.200000000000 106.274307425407 6.679758528570 15.426241538366
3787 2 -1.200000000000 106.274307425407 10.019637792855 13.497961346070
3788 2 -1.200000000000 104.699873241327 7.793051616665 13.497961346070
3789 2 -1.200000000000 106.274307425407 10.019637792855 17.354521730661
3790 2 -1.200000000000 104.699873241327 7.793051616665 17.354521730661
3791 2 -1.200000000000 104.699873241327 11.132930880950 15.426241538366
3792 2 -1.200000000000 103.125439057247 8.906344704760 15.426241538366
3793 1 2.400000000000 107.061524517447 4.453172352380 15.426241538366
3794 1 2.400000000000 103.912656149287 3.339879264285 13.497961346070
3795 1 2.400000000000 103.912656149287 3.339879264285 17.354521730661
3796 1 2.400000000000 103.912656149287 6.679758528570 15.426241538366
3797 2 -1.200000000000 104.699873241327 4.453172352380 15.426241538366
3798 2 -1.200000000000 103.125439057247 2.226586176190 15.426241538366
3799 2 -1.200000000000 103.125439057247 5.566465440475 13.497961346070
3800 2 -1.200000000000 101.551004873167 3.339879264285 13.497961346070
3801 2 -1.200000000000 103.125439057247 5.566465440475 17.354521730661
3802 2 -1.200000000000 101.551004873167 3.339879264285 17.354521730661
3803 2 -1.200000000000 101.551004873167 6.679758528570 15.426241538366
3804 2 -1.200000000000 99.976570689087 4.453172352380 15.426241538366
3805 1 2.400000000000 103.912656149287 0.000000000000 15.426241538366
3806 1 2.400000000000 100.763787781127 25.605741026184 13.497961346070
3807 1 2.400000000000 100.763787781127 25.605741026184 17.354521730661
3808 1 2.400000000000 100.763787781127 2.226586176190 15.426241538366
3809 2 -1.200000000000 101.551004873167 0.000000000000 15.426241538366
3810 2 -1.200000000000 99.976570689087 24.492447938089 15.426241538366
3811 2 -1.200000000000 99.976570689087 1.113293088095 13.497961346070
3812 2 -1.200000000000 98.402136505007 25.605741026184 13.497961346070
3813 2 -1.200000000000 99.976570689087 1.113293088095 17.354521730661
3814 2 -1.200000000000 98.402136505007 25.605741026184 17.354521730661
3815 2 -1.200000000000 98.402136505007 2.226586176190 15.426241538366
3816 2 -1.200000000000 96.827702320927 0.000000000000 15.426241538366
3817 1 2.400000000000 116.508129621928 24.492447938089 11.569681153774
3818 1 2.400000000000 113.359261253768 23.379154849994 9.641400961479
3819 1 2.400000000000 113.359261253768 23.379154849994 13.497961346070
3820 1 2.400000000000 113.359261253768 0.000000000000 11.569681153774
3821 2 -1.200000000000 114.146478345808 24.492447938089 11.569681153774
3822 2 -1.200000000000 112.572044161728 22.265861761899 11.569681153774
3823 2 -1.200000000000 112.572044161728 25.605741026184 9.641400961479
3824 2 -1.200000000000 110.997609977648 23.379154849994 9.641400961479
3825 2 -1.200000000000 112.572044161728 25.605741026184 13.497961346070
3826 2 -1.200000000000 110.997609977648 23.379154849994 13.497961346070
3827 2 -1.200000000000 110.997609977648 0.000000000000 11.569681153774
3828 2 -1.200000000000 109.423175793568 24.492447938089 11.569681153774
3829 1 2.400000000000 113.359261253768 20.039275585709 11.569681153774
3830 1 2.400000000000 110.210392885608 18.925982497614 9.641400961479
3831 1 2.400000000000 110.210392885608 18.925982497614 13.497961346070
3832 1 2.400000000000 110.210392885608 22.265861761899 11.569681153774
3833 2 -1.200000000000 110.997609977648 20.039275585709 11.569681153774
3834 2 -1.200000000000 109.423175793568 17.812689409519 11.569681153774
3835 2 -1.200000000000 109.423175793568 21.152568673804 9.641400961479
3836 2 -1.200000000000 107.848741609487 18.925982497614 9.641400961479
3837 2 -1.200000000000 109.423175793568 21.152568673804 13.497961346070
3838 2 -1.200000000000 107.848741609487 18.925982497614 13.497961346070
3839 2 -1.200000000000 107.848741609487 22.265861761899 11.569681153774
3840 2 -1.200000000000 106.274307425407 20.039275585709 11.569681153774
3841 1 2.400000000000 110.210392885608 15.586103233329 11.569681153774
3842 1 2.400000000000 107.061524517447 14.472810145234 9.641400961479
3843 1 2.400000000000 107.061524517447 14.472810145234 13.497961346070
3844 1 2.400000000000 107.061524517447 17.812689409519 11.569681153774
3845 2 -1.200000000000 107.848741609487 15.586103233329 11.569681153774
3846 2 -1.200000000000 106.274307425407 13.359517057139 11.569681153774
3847 2 -1.200000000000 106.274307425407 16.699396321424 9.641400961479
3848 2 -1.200000000000 104.699873241327 14.472810145234 9.641400961479
3849 2 -1.200000000000 106.274307425407 16.699396321424 13.497961346070
3850 2 -1.200000000000 104.699873241327 14.472810145234 13.497961346070
3851 2 -1.200000000000 104.699873241327 17.812689409519 11.569681153774
3852 2 -1.200000000000 103.125439057247 15.586103233329 11.569681153774
3853 1 2.400000000000 107.061524517447 11.132930880950 11.569681153774
3854 1 2.400000000000 103.912656149287 10.019637792855 9.641400961479
3855 1 2.400000000000 103.912656149287 10.019637792855 13.497961346070
3856 1 2.400000000000 103.912656149287 13.359517057139 11.569681153774
3857 2 -1.200000000000 104.699873241327 11.132930880950 11.569681153774
3858 2 -1.200000000000 103.125439057247 8.906344704760 11.569681153774
3859 2 -1.200000000000 103.125439057247 12.246223969045 9.641400961479
3860 2 -1.200000000000 101.551004873167 10.019637792855 9.641400961479
3861 2 -1.200000000000 103.125439057247 12.246223969044 13.497961346070
3862 2 -1.200000000000 101.551004873167 10.019637792855 13.497961346070
3863 2 -1.200000000000 101.551004873167 13.359517057139 11.569681153774
3864 2 -1.200000000000 99.976570689087 11.132930880950 11.569681153774
3865 1 2.400000000000 103.912656149287 6.679758528570 11.569681153774
3866 1 2.400000000000 100.763787781127 5.566465440475 9.641400961479
3867 1 2.400000000000 100.763787781127 5.566465440475 13.497961346070
3868 1 2.400000000000 100.763787781127 8.906344704760 11.569681153774
3869 2 -1.200000000000 101.551004873167 6.679758528570 11.569681153774
3870 2 -1.200000000000 99.976570689087 4.453172352380 11.569681153774
3871 2 -1.200000000000 99.976570689087 7.793051616665 9.641400961479
3872 2 -1.200000000000 98.402136505007 5.566465440475 9.641400961479
3873 2 -1.200000000000 99.976570689087 7.793051616665 13.497961346070
3874 2 -1.200000000000 98.402136505007 5.566465440475 13.497961346070
3875 2 -1.200000000000 98.402136505007 8.906344704760 11.569681153774
3876 2 -1.200000000000 96.827702320927 6.679758528570 11.569681153774
3877 1 2.400000000000 100.763787781127 2.226586176190 11.569681153774
3878 1 2.400000000000 97.614919412967 1.113293088095 9.641400961479
3879 1 2.400000000000 97.614919412967 1.113293088095 13.497961346070
3880 1 2.400000000000 97.614919412967 4.453172352380 11.569681153774
3881 2 -1.200000000000 98.402136505007 2.226586176190 11.569681153774
3882 2 -1.200000000000 96.827702320927 0.000000000000 11.569681153774
3883 2 -1.200000000000 96.827702320927 3.339879264285 9.641400961479
3884 2 -1.200000000000 95.253268136847 1.113293088095 9.641400961479
3885 2 -1.200000000000 96.827702320927 3.339879264285 13.497961346070
3886 2 -1.200000000000 95.253268136847 1.113293088095 13.497961346070
3887 2 -1.200000000000 95.253268136847 4.453172352380 11.569681153774
3888 2 -1.200000000000 93.678833952767 2.226586176190 11.569681153774
3889 1 2.400000000000 110.210392885608 22.265861761899 7.713120769183
3890 1 2.400000000000 107.061524517447 21.152568673804 5.784840576887
3891 1 2.400000000000 107.061524517447 21.152568673804 9.641400961479
3892 1 2.400000000000 107.061524517447 24.492447938089 7.713120769183
3893 2 -1.200000000000 107.848741609487 22.265861761899 7.713120769183
3894 2 -1.200000000000 106.274307425407 20.039275585709 7.713120769183
3895 2 -1.200000000000 106.274307425407 23.379154849994 5.784840576887
3896 2 -1.200000000000 104.699873241327 21.152568673804 5.784840576887
3897 2 -1.200000000000 106.274307425407 23.379154849994 9.641400961479
3898 2 -1.200000000000 104.699873241327 21.152568673804 9.641400961479
3899 2 -1.200000000000 104.699873241327 24.492447938089 7.713120769183
3900 2 -1.200000000000 103.125439057247 22.265861761899 7.713120769183
3901 1 2.400000000000 107.061524517447 17.812689409519 7.713120769183
3902 1 2.400000000000 103.912656149287 16.699396321424 5.784840576887
3903 1 2.400000000000 103.912656149287 16.699396321424 9.641400961479
3904 1 2.400000000000 103.912656149287 20.039275585709 7.713120769183
3905 2 -1.200000000000 104.699873241327 17.812689409519 7.713120769183
3906 2 -1.200000000000 103.125439057247 15.586103233329 7.713120769183
3907 2 -1.200000000000 103.125439057247 18.925982497614 5.784840576887
3908 2 -1.200000000000 101.551004873167 16.699396321424 5.784840576887
3909 2 -1.200000000000 103.125439057247 18.925982497614 9.641400961479
3910 2 -1.200000000000 101.551004873167 16.699396321424 9.641400961479
3911 2 -1.200000000000 101.551004873167 20.039275585709 7.713120769183
3912 2 -1.200000000000 99.976570689087 17.812689409519 7.713120769183
3913 1 2.400000000000 103.912656149287 13.359517057139 7.713120769183
3914 1 2.400000000000 100.763787781127 12.246223969044 5.784840576887
3915 1 2.400000000000 100.763787781127 12.246223969044 9.641400961479
3916 1 2.400000000000 100.763787781127 15.586103233329 7.713120769183
3917 2 -1.200000000000 101.551004873167 13.359517057139 7.713120769183
3918 2 -1.200000000000 99.976570689087 11.132930880950 7.713120769183
3919 2 -1.200000000000 99.976570689087 14.472810145234 5.784840576887
3920 2 -1.200000000000 98.402136505007 12.246223969044 5.784840576887
3921 2 -1.200000000000 99.976570689087 14.472810145234 9.641400961479
3922 2 -1.200000000000 98.402136505007 12.246223969044 9.641400961479
3923 2 -1.200000000000 98.402136505007 15.586103233329 7.713120769183
3924 2 -1.200000000000 96.827702320927 13.359517057139 7.713120769183
3925 1 2.400000000000 100.763787781127 8.906344704760 7.713120769183
3926 1 2.400000000000 97.614919412967 7.793051616665 5.784840576887
3927 1 2.400000000000 97.614919412967 7.793051616665 9.641400961479
3928 1 2.400000000000 97.614919412967 11.132930880950 7.713120769183
3929 2 -1.200000000000 98.402136505007 8.906344704760 7.713120769183
3930 2 -1.200000000000 96.827702320927 6.679758528570 7.713120769183
3931 2 -1.200000000000 96.827702320927 10.019637792855 5.784840576887
3932 2 -1.200000000000 95.253268136847 7.793051616665 5.784840576887
3933 2 -1.200000000000 96.827702320927 10.019637792855 9.641400961479
3934 2 -1.200000000000 95.253268136847 7.793051616665 9.641400961479
3935 2 -1.200000000000 95.253268136847 11.132930880950 7.713120769183
3936 2 -1.200000000000 93.678833952767 8.906344704760 7.713120769183
3937 1 2.400000000000 97.614919412967 4.453172352380 7.713120769183
3938 1 2.400000000000 94.466051044807 3.339879264285 5.784840576887
3939 1 2.400000000000 94.466051044807 3.339879264285 9.641400961479
3940 1 2.400000000000 94.466051044807 6.679758528570 7.713120769183
3941 2 -1.200000000000 95.253268136847 4.453172352380 7.713120769183
3942 2 -1.200000000000 93.678833952767 2.226586176190 7.713120769183
3943 2 -1.200000000000 93.678833952767 5.566465440475 5.784840576887
3944 2 -1.200000000000 92.104399768686 3.339879264285 5.784840576887
3945 2 -1.200000000000 93.678833952767 5.566465440475 9.641400961479
3946 2 -1.200000000000 92.104399768686 3.339879264285 9.641400961479
3947 2 -1.200000000000 92.104399768686 6.679758528570 7.713120769183
3948 2 -1.200000000000 90.529965584606 4.453172352380 7.713120769183
3949 1 2.400000000000 94.466051044807 0.000000000000 7.713120769183
3950 1 2.400000000000 91.317182676646 25.605741026184 5.784840576887
3951 1 2.400000000000 91.317182676646 25.605741026184 9.641400961479
3952 1 2.400000000000 91.317182676646 2.226586176190 7.713120769183
3953 2 -1.200000000000 92.104399768686 0.000000000000 7.713120769183
3954 2 -1.200000000000 90.529965584606 24.492447938089 7.713120769183
3955 2 -1.200000000000 90.529965584606 1.113293088095 5.784840576887
3956 2 -1.200000000000 88.955531400526 25.605741026184 5.784840576887
3957 2 -1.200000000000 90.529965584606 1.113293088095 9.641400961479
3958 2 -1.200000000000 88.955531400526 25.605741026184 9.641400961479
3959 2 -1.200000000000 88.955531400526 2.226586176190 7.713120769183
3960 2 -1.200000000000 87.381097216446 0.000000000000 7.713120769183
3961 1 2.400000000000 107.061524517447 24.492447938089 3.856560384591
3962 1 2.400000000000 103.912656149287 23.379154849994 1.928280192296
3963 1 2.400000000000 103.912656149287 23.379154849994 5.784840576887
3964 1 2.400000000000 103.912656149287 0.000000000000 3.856560384591
3965 2 -1.200000000000 104.699873241327 24.492447938089 3.856560384591
3966 2 -1.200000000000 103.125439057247 22.265861761899 3.856560384591
3967 2 -1.200000000000 103.125439057247 25.605741026184 1.928280192296
3968 2 -1.200000000000 101.551004873167 23.379154849994 1.928280192296
3969 2 -1.200000000000 103.125439057247 25.605741026184 5.784840576887
3970 2 -1.200000000000 101.551004873167 23.379154849994 5.784840576887
3971 2 -1.200000000000 101.551004873167 0.000000000000 3.856560384591
3972 2 -1.200000000000 99.976570689087 24.492447938089 3.856560384591
3973 1 2.400000000000 103.912656149287 20.039275585709 3.856560384591
3974 1 2.400000000000 100.763787781127 18.925982497614 1.928280192296
3975 1 2.400000000000 100.763787781127 18.925982497614 5.784840576887
3976 1 2.400000000000 100.763787781127 22.265861761899 3.856560384591
3977 2 -1.200000000000 101.551004873167 20.039275585709 3.856560384591
3978 2 -1.200000000000 99.976570689087 17.812689409519 3.856560384591
3979 2 -1.200000000000 99.976570689087 21.152568673804 1.928280192296
3980 2 -1.200000000000 98.402136505007 18.925982497614 1.928280192296
3981 2 -1.200000000000 99.976570689087 21.152568673804 5.784840576887
3982 2 -1.200000000000 98.402136505007 18.925982497614 5.784840576887
3983 2 -1.200000000000 98.402136505007 22.265861761899 3.856560384591
3984 2 -1.200000000000 96.827702320927 20.039275585709 3.856560384591
3985 1 2.400000000000 100.763787781127 15.586103233329 3.856560384591
3986 1 2.400000000000 97.614919412967 14.472810145234 1.928280192296
3987 1 2.400000000000 97.614919412967 14.472810145234 5.784840576887
3988 1 2.400000000000 97.614919412967 17.812689409519 3.856560384591
3989 2 -1.200000000000 98.402136505007 15.586103233329 3.856560384591
3990 2 -1.200000000000 96.827702320927 13.359517057139 3.856560384591
3991 2 -1.200000000000 96.827702320927 16.699396321424 1.928280192296
3992 2 -1.200000000000 95.253268136847 14.472810145234 1.928280192296
3993 2 -1.200000000000 96.827702320927 16.699396321424 5.784840576887
3994 2 -1.200000000000 95.253268136847 14.472810145234 5.784840576887
3995 2 -1.200000000000 95.253268136847 17.812689409519 3.856560384591
3996 2 -1.200000000000 93.678833952767 15.586103233329 3.856560384591
3997 1 2.400000000000 97.614919412967 11.132930880950 3.856560384591
3998 1 2.400000000000 94.466051044807 10.019637792855 1.928280192296
3999 1 2.400000000000 94.466051044807 10.019637792855 5.784840576887
4000 1 2.400000000000 94.466051044807 13.359517057139 3.856560384591
4001 2 -1.200000000000 95.253268136847 11.132930880950 3.856560384591
4002 2 -1.200000000000 93.678833952767 8.906344704760 3.856560384591
4003 2 -1.200000000000 93.678833952767 12.246223969045 1.928280192296
4004 2 -1.200000000000 92.104399768686 10.019637792855 1.928280192296
4005 2 -1.200000000000 93.678833952767 12.246223969045 5.784840576887
4006 2 -1.200000000000 92.104399768686 10.019637792855 5.784840576887
4007 2 -1.200000000000 92.104399768686 13.359517057139 3.856560384591
4008 2 -1.200000000000 90.529965584606 11.132930880950 3.856560384591
4009 1 2.400000000000 94.466051044807 6.679758528570 3.856560384591
4010 1 2.400000000000 91.317182676646 5.566465440475 1.928280192296
4011 1 2.400000000000 91.317182676646 5.566465440475 5.784840576887
4012 1 2.400000000000 91.317182676646 8.906344704760 3.856560384591
4013 2 -1.200000000000 92.104399768686 6.679758528570 3.856560384591
4014 2 -1.200000000000 90.529965584606 4.453172352380 3.856560384591
4015 2 -1.200000000000 90.529965584606 7.793051616665 1.928280192296
4016 2 -1.200000000000 88.955531400526 5.566465440475 1.928280192296
4017 2 -1.200000000000 90.529965584606 7.793051616665 5.784840576887
4018 2 -1.200000000000 88.955531400526 5.566465440475 5.784840576887
4019 2 -1.200000000000 88.955531400526 8.906344704760 3.856560384591
4020 2 -1.200000000000 87.381097216446 6.679758528570 3.856560384591
4021 1 2.400000000000 91.317182676646 2.226586176190 3.856560384591
4022 1 2.400000000000 88.168314308486 1.113293088095 1.928280192296
4023 1 2.400000000000 88.168314308486 1.113293088095 5.784840576887
4024 1 2.400000000000 88.168314308486 4.453172352380 3.856560384591
4025 2 -1.200000000000 88.955531400526 2.226586176190 3.856560384591
4026 2 -1.200000000000 87.381097216446 0.000000000000 3.856560384591
4027 2 -1.200000000000 87.381097216446 3.339879264285 1.928280192296
4028 2 -1.200000000000 85.806663032366 1.113293088095 1.928280192296
4029 2 -1.200000000000 87.381097216446 3.339879264285 5.784840576887
4030 2 -1.200000000000 85.806663032366 1.113293088095 5.784840576887
4031 2 -1.200000000000 85.806663032366 4.453172352380 3.856560384591
4032 2 -1.200000000000 84.232228848286 2.226586176190 3.856560384591
4033 1 2.400000000000 100.763787781127 22.265861761899 0.000000000000
4034 1 2.400000000000 97.614919412967 21.152568673804 21.211082115253
4035 1 2.400000000000 97.614919412967 21.152568673804 1.928280192296
4036 1 2.400000000000 97.614919412967 24.492447938089 0.000000000000
4037 2 -1.200000000000 98.402136505007 22.265861761899 0.000000000000
4038 2 -1.200000000000 96.827702320927 20.039275585709 0.000000000000
4039 2 -1.200000000000 96.827702320927 23.379154849994 21.211082115253
4040 2 -1.200000000000 95.253268136847 21.152568673804 21.211082115253
4041 2 -1.200000000000 96.827702320927 23.379154849994 1.928280192296
4042 2 -1.200000000000 95.253268136847 21.152568673804 1.928280192296
4043 2 -1.200000000000 95.253268136847 24.492447938089 0.000000000000
4044 2 -1.200000000000 93.678833952767 22.265861761899 0.000000000000
4045 1 2.400000000000 97.614919412967 17.812689409519 0.000000000000
4046 1 2.400000000000 94.466051044807 16.699396321424 21.211082115253
4047 1 2.400000000000 94.466051044807 16.699396321424 1.928280192296
4048 1 2.400000000000 94.466051044807 20.039275585709 0.000000000000
4049 2 -1.200000000000 95.253268136847 17.812689409519 0.000000000000
4050 2 -1.200000000000 93.678833952766 15.586103233329 0.000000000000
4051 2 -1.200000000000 93.678833952767 18.925982497614 21.211082115253
4052 2 -1.200000000000 92.104399768686 16.699396321424 21.211082115253
4053 2 -1.200000000000 93.678833952767 18.925982497614 1.928280192296
4054 2 -1.200000000000 92.104399768686 16.699396321424 1.928280192296
4055 2 -1.200000000000 92.104399768686 20.039275585709 0.000000000000
4056 2 -1.200000000000 90.529965584606 17.812689409519 0.000000000000
4057 1 2.400000000000 94.466051044807 13.359517057139 0.000000000000
4058 1 2.400000000000 91.317182676646 12.246223969045 21.211082115253
4059 1 2.400000000000 91.317182676646 12.246223969045 1.928280192296
4060 1 2.400000000000 91.317182676646 15.586103233329 0.000000000000
4061 2 -1.200000000000 92.104399768686 13.359517057139 0.000000000000
4062 2 -1.200000000000 90.529965584606 11.132930880950 0.000000000000
4063 2 -1.200000000000 90.529965584606 14.472810145234 21.211082115253
4064 2 -1.200000000000 88.955531400526 12.246223969045 21.211082115253
4065 2 -1.200000000000 90.529965584606 14.472810145234 1.928280192296
4066 2 -1.200000000000 88.955531400526 12.246223969045 1.928280192296
4067 2 -1.200000000000 88.955531400526 15.586103233329 0.000000000000
4068 2 -1.200000000000 87.381097216446 13.359517057139 0.000000000000
4069 1 2.400000000000 91.317182676646 8.906344704760 0.000000000000
4070 1 2.400000000000 88.168314308486 7.793051616665 21.211082115253
4071 1 2.400000000000 88.168314308486 7.793051616665 1.928280192296
4072 1 2.400000000000 88.168314308486 11.132930880950 0.000000000000
4073 2 -1.200000000000 88.955531400526 8.906344704760 0.000000000000
4074 2 -1.200000000000 87.381097216446 6.679758528570 0.000000000000
4075 2 -1.200000000000 87.381097216446 10.019637792855 21.211082115253
4076 2 -1.200000000000 85.806663032366 7.793051616665 21.211082115253
4077 2 -1.200000000000 87.381097216446 10.019637792855 1.928280192296
4078 2 -1.200000000000 85.806663032366 7.793051616665 1.928280192296
4079 2 -1.200000000000 85.806663032366 11.132930880950 0.000000000000
4080 2 -1.200000000000 84.232228848286 8.906344704760 0.000000000000
4081 1 2.400000000000 88.168314308486 4.453172352380 0.000000000000
4082 1 2.400000000000 85.019445940326 3.339879264285 21.211082115253
4083 1 2.400000000000 85.019445940326 3.339879264285 1.928280192296
4084 1 2.400000000000 85.019445940326 6.679758528570 0.000000000000
4085 2 -1.200000000000 85.806663032366 4.453172352380 0.000000000000
4086 2 -1.200000000000 84.232228848286 2.226586176190 0.000000000000
4087 2 -1.200000000000 84.232228848286 5.566465440475 21.211082115253
4088 2 -1.200000000000 82.657794664206 3.339879264285 21.211082115253
4089 2 -1.200000000000 84.232228848286 5.566465440475 1.928280192296
4090 2 -1.200000000000 82.657794664206 3.339879264285 1.928280192296
4091 2 -1.200000000000 82.657794664206 6.679758528570 0.000000000000
4092 2 -1.200000000000 81.083360480126 4.453172352380 0.000000000000
4093 1 2.400000000000 85.019445940326 0.000000000000 0.000000000000
4094 1 2.400000000000 81.870577572166 25.605741026184 21.211082115253
4095 1 2.400000000000 81.870577572166 25.605741026184 1.928280192296
4096 1 2.400000000000 81.870577572166 2.226586176190 0.000000000000
4097 2 -1.200000000000 82.657794664206 0.000000000000 0.000000000000
4098 2 -1.200000000000 81.083360480126 24.492447938089 0.000000000000
4099 2 -1.200000000000 81.083360480126 1.113293088095 21.211082115253
4100 2 -1.200000000000 79.508926296046 25.605741026184 21.211082115253
4101 2 -1.200000000000 81.083360480126 1.113293088095 1.928280192296
4102 2 -1.200000000000 79.508926296046 25.605741026184 1.928280192296
4103 2 -1.200000000000 79.508926296046 2.226586176190 0.000000000000
4104 2 -1.200000000000 77.934492111965 0.000000000000 0.000000000000
4105 1 2.400000000000 116.508129621928 24.492447938089 19.282801922957
4106 1 2.400000000000 113.359261253768 23.379154849994 17.354521730661
4107 1 2.400000000000 113.359261253768 23.379154849994 21.211082115253
4108 1 2.400000000000 113.359261253768 0.000000000000 19.282801922957
4109 2 -1.200000000000 114.146478345808 24.492447938089 19.282801922957
4110 2 -1.200000000000 112.572044161728 22.265861761899 19.282801922957
4111 2 -1.200000000000 112.572044161728 25.605741026184 17.354521730661
4112 2 -1.200000000000 110.997609977648 23.379154849994 17.354521730661
4113 2 -1.200000000000 112.572044161728 25.605741026184 21.211082115253
4114 2 -1.200000000000 110.997609977648 23.379154849994 21.211082115253
4115 2 -1.200000000000 110.997609977648 0.000000000000 19.282801922957
4116 2 -1.200000000000 109.423175793568 24.492447938089 19.282801922957
4117 1 2.400000000000 113.359261253768 20.039275585709 19.282801922957
4118 1 2.400000000000 110.210392885608 18.925982497614 17.354521730661
4119 1 2.400000000000 110.210392885608 18.925982497614 21.211082115253
4120 1 2.400000000000 110.210392885608 22.265861761899 19.282801922957
4121 2 -1.200000000000 110.997609977648 20.039275585709 19.282801922957
4122 2 -1.200000000000 109.423175793568 17.812689409519 19.282801922957
4123 2 -1.200000000000 109.423175793568 21.152568673804 17.354521730661
4124 2 -1.200000000000 107.848741609487 18.925982497614 17.354521730661
4125 2 -1.200000000000 109.423175793568 21.152568673804 21.211082115253
4126 2 -1.200000000000 107.848741609487 18.925982497614 21.211082115253
4127 2 -1.200000000000 107.848741609487 22.265861761899 19.282801922957
4128 2 -1.200000000000 106.274307425407 20.039275585709 19.282801922957
4129 1 2.400000000000 110.210392885608 15.586103233329 19.282801922957
4130 1 2.400000000000 107.061524517447 14.472810145234 17.354521730661
4131 1 2.400000000000 107.061524517447 14.472810145234 21.211082115253
4132 1 2.400000000000 107.061524517447 17.812689409519 19.282801922957
4133 2 -1.200000000000 107.848741609487 15.586103233329 19.282801922957
4134 2 -1.200000000000 106.274307425407 13.359517057139 19.282801922957
4135 2 -1.200000000000 106.274307425407 16.699396321424 17.354521730661
4136 2 -1.200000000000 104.699873241327 14.472810145234 17.354521730661
4137 2 -1.200000000000 106.274307425407 16.699396321424 21.211082115253
4138 2 -1.200000000000 104.699873241327 14.472810145234 21.211082115253
4139 2 -1.200000000000 104.699873241327 17.812689409519 19.282801922957
4140 2 -1.200000000000 103.125439057247 15.586103233329 19.282801922957
4141 1 2.400000000000 107.061524517447 11.132930880950 19.282801922957
4142 1 2.400000000000 103.912656149287 10.019637792855 17.354521730661
4143 1 2.400000000000 103.912656149287 10.019637792855 21.211082115253
4144 1 2.400000000000 103.912656149287 13.359517057139 19.282801922957
4145 2 -1.200000000000 104.699873241327 11.132930880950 19.282801922957
4146 2 -1.200000000000 103.125439057247 8.906344704760 19.282801922957
4147 2 -1.200000000000 103.125439057247 12.246223969045 17.354521730661
4148 2 -1.200000000000 101.551004873167 10.019637792855 17.354521730661
4149 2 -1.200000000000 103.125439057247 12.246223969045 21.211082115253
4150 2 -1.200000000000 101.551004873167 10.019637792855 21.211082115253
4151 2 -1.200000000000 101.551004873167 13.359517057139 19.282801922957
4152 2 -1.200000000000 99.976570689087 11.132930880950 19.282801922957
4153 1 2.400000000000 103.912656149287 6.679758528570 19.282801922957
4154 1 2.400000000000 100.763787781127 5.566465440475 17.354521730661
4155 1 2.400000000000 100.763787781127 5.566465440475 21.211082115253
4156 1 2.400000000000 100.763787781127 8.906344704760 19.282801922957
4157 2 -1.200000000000 101.551004873167 6.679758528570 19.282801922957
4158 2 -1.200000000000 99.976570689087 4.453172352380 19.282801922957
4159 2 -1.200000000000 99.976570689087 7.793051616665 17.354521730661
4160 2 -1.200000000000 98.402136505007 5.566465440475 17.354521730661
4161 2 -1.200000000000 99.976570689087 7.793051616665 21.211082115253
4162 2 -1.200000000000 98.402136505007 5.566465440475 21.211082115253
4163 2 -1.200000000000 98.402136505007 8.906344704760 19.282801922957
4164 2 -1.200000000000 96.827702320927 6.679758528570 19.282801922957
4165 1 2.400000000000 100.763787781127 2.226586176190 19.282801922957
4166 1 2.400000000000 97.614919412967 1.113293088095 17.354521730661
4167 1 2.400000000000 97.614919412967 1.113293088095 21.211082115253
4168 1 2.400000000000 97.614919412967 4.453172352380 19.282801922957
4169 2 -1.200000000000 98.402136505007 2.226586176190 19.282801922957
4170 2 -1.200000000000 96.827702320927 0.000000000000 19.282801922957
4171 2 -1.200000000000 96.827702320927 3.339879264285 17.354521730661
4172 2 -1.200000000000 95.253268136847 1.113293088095 17.354521730661
4173 2 -1.200000000000 96.827702320927 3.339879264285 21.211082115253
4174 2 -1.200000000000 95.253268136847 1.113293088095 21.211082115253
4175 2 -1.200000000000 95.253268136847 4.453172352380 19.282801922957
4176 2 -1.200000000000 93.678833952767 2.226586176190 19.282801922957
4177 1 2.400000000000 110.210392885608 22.265861761899 15.426241538366
4178 1 2.400000000000 107.061524517447 21.152568673804 13.497961346070
4179 1 2.400000000000 107.061524517447 21.152568673804 17.354521730661
4180 1 2.400000000000 107.061524517447 24.492447938089 15.426241538366
4181 2 -1.200000000000 107.848741609487 22.265861761899 15.426241538366
4182 2 -1.200000000000 106.274307425407 20.039275585709 15.426241538366
4183 2 -1.200000000000 106.274307425407 23.379154849994 13.497961346070
4184 2 -1.200000000000 104.699873241327 21.152568673804 13.497961346070
4185 2 -1.200000000000 106.274307425407 23.379154849994 17.354521730661
4186 2 -1.200000000000 104.699873241327 21.152568673804 17.354521730661
4187 2 -1.200000000000 104.699873241327 24.492447938089 15.426241538366
4188 2 -1.200000000000 103.125439057247 22.265861761899 15.426241538366
4189 1 2.400000000000 107.061524517447 17.812689409519 15.426241538366
4190 1 2.400000000000 103.912656149287 16.699396321424 13.497961346070
4191 1 2.400000000000 103.912656149287 16.699396321424 17.354521730661
4192 1 2.400000000000 103.912656149287 20.039275585709 15.426241538366
4193 2 -1.200000000000 104.699873241327 17.812689409519 15.426241538366
4194 2 -1.200000000000 103.125439057247 15.586103233329 15.426241538366
4195 2 -1.200000000000 103.125439057247 18.925982497614 13.497961346070
4196 2 -1.200000000000 101.551004873167 16.699396321424 13.497961346070
4197 2 -1.200000000000 103.125439057247 18.925982497614 17.354521730661
4198 2 -1.200000000000 101.551004873167 16.699396321424 17.354521730661
4199 2 -1.200000000000 101.551004873167 20.039275585709 15.426241538366
4200 2 -1.200000000000 99.976570689087 17.812689409519 15.426241538366
4201 1 2.400000000000 103.912656149287 13.359517057139 15.426241538366
4202 1 2.400000000000 100.763787781127 12.246223969044 13.497961346070
4203 1 2.400000000000 100.763787781127 12.246223969044 17.354521730661
4204 1 2.400000000000 100.763787781127 15.586103233329 15.426241538366
4205 2 -1.200000000000 101.551004873167 13.359517057139 15.426241538366
4206 2 -1.200000000000 99.976570689087 11.132930880950 15.426241538366
4207 2 -1.200000000000 99.976570689087 14.472810145234 13.497961346070
4208 2 -1.200000000000 98.402136505007 12.246223969044 13.497961346070
4209 2 -1.200000000000 99.976570689087 14.472810145234 17.354521730661
4210 2 -1.200000000000 98.402136505007 12.246223969044 17.354521730661
4211 2 -1.200000000000 98.402136505007 15.586103233329 15.426241538366
4212 2 -1.200000000000 96.827702320927 13.359517057139 15.426241538366
4213 1 2.400000000000 100.763787781127 8.906344704760 15.426241538366
4214 1 2.400000000000 97.614919412967 7.793051616665 13.497961346070
4215 1 2.400000000000 97.614919412967 7.793051616665 17.354521730661
4216 1 2.400000000000 97.614919412967 11.132930880950 15.426241538366
4217 2 -1.200000000000 98.402136505007 8.906344704760 15.426241538366
4218 2 -1.200000000000 96.827702320927 6.679758528570 15.426241538366
4219 2 -1.200000000000 96.827702320927 10.019637792855 13.497961346070
4220 2 -1.200000000000 95.253268136847 7.793051616665 13.497961346070
4221 2 -1.200000000000 96.827702320927 10.019637792855 17.354521730661
4222 2 -1.200000000000 95.253268136847 7.793051616665 17.354521730661
4223 2 -1.200000000000 95.253268136847 11.132930880950 15.426241538366
4224 2 -1.200000000000 93.678833952767 8.906344704760 15.426241538366
4225 1 2.400000000000 97.614919412967 4.453172352380 15.426241538366
4226 1 2.400000000000 94.466051044807 3.339879264285 13.497961346070
4227 1 2.400000000000 94.466051044807 3.339879264285 17.354521730661
4228 1 2.400000000000 94.466051044807 6.679758528570 15.426241538366
4229 2 -1.200000000000 95.253268136847 4.453172352380 15.426241538366
4230 2 -1.200000000000 93.678833952767 2.226586176190 15.426241538366
4231 2 -1.200000000000 93.678833952767 5.566465440475 13.497961346070
4232 2 -1.200000000000 92.104399768686 3.339879264285 13.497961346070
4233 2 -1.200000000000 93.678833952767 5.566465440475 17.354521730661
4234 2 -1.200000000000 92.104399768686 3.339879264285 17.354521730661
4235 2 -1.200000000000 92.104399768686 6.679758528570 15.426241538366
4236 2 -1.200000000000 90.529965584606 4.453172352380 15.426241538366
4237 1 2.400000000000 94.466051044807 0.000000000000 15.426241538366
4238 1 2.400000000000 91.317182676646 25.605741026184 13.497961346070
4239 1 2.400000000000 91.317182676646 25.605741026184 17.354521730661
4240 1 2.400000000000 91.317182676646 2.226586176190 15.426241538366
4241 2 -1.200000000000 92.104399768686 0.000000000000 15.426241538366
4242 2 -1.200000000000 90.529965584606 24.492447938089 15.426241538366
4243 2 -1.200000000000 90.529965584606 1.113293088095 13.497961346070
4244 2 -1.200000000000 88.955531400526 25.605741026184 13.497961346070
4245 2 -1.200000000000 90.529965584606 1.113293088095 17.354521730661
4246 2 -1.200000000000 88.955531400526 25.605741026184 17.354521730661
4247 2 -1.200000000000 88.955531400526 2.226586176190 15.426241538366
4248 2 -1.200000000000 87.381097216446 0.000000000000 15.426241538366
4249 1 2.400000000000 107.061524517447 24.492447938089 11.569681153774
4250 1 2.400000000000 103.912656149287 23.379154849994 9.641400961479
4251 1 2.400000000000 103.912656149287 23.379154849994 13.497961346070
4252 1 2.400000000000 103.912656149287 0.000000000000 11.569681153774
4253 2 -1.200000000000 104.699873241327 24.492447938089 11.569681153774
4254 2 -1.200000000000 103.125439057247 22.265861761899 11.569681153774
4255 2 -1.200000000000 103.125439057247 25.605741026184 9.641400961479
4256 2 -1.200000000000 101.551004873167 23.379154849994 9.641400961479
4257 2 -1.200000000000 103.125439057247 25.605741026184 13.497961346070
4258 2 -1.200000000000 101.551004873167 23.379154849994 13.497961346070
4259 2 -1.200000000000 101.551004873167 0.000000000000 11.569681153774
4260 2 -1.200000000000 99.976570689087 24.492447938089 11.569681153774
4261 1 2.400000000000 103.912656149287 20.039275585709 11.569681153774
4262 1 2.400000000000 100.763787781127 18.925982497614 9.641400961479
4263 1 2.400000000000 100.763787781127 18.925982497614 13.497961346070
4264 1 2.400000000000 100.763787781127 22.265861761899 11.569681153774
4265 2 -1.200000000000 101.551004873167 20.039275585709 11.569681153774
4266 2 -1.200000000000 99.976570689087 17.812689409519 11.569681153774
4267 2 -1.200000000000 99.976570689087 21.152568673804 9.641400961479
4268 2 -1.200000000000 98.402136505007 18.925982497614 9.641400961479
4269 2 -1.200000000000 99.976570689087 21.152568673804 13.497961346070
4270 2 -1.200000000000 98.402136505007 18.925982497614 13.497961346070
4271 2 -1.200000000000 98.402136505007 22.265861761899 11.569681153774
4272 2 -1.200000000000 96.827702320927 20.039275585709 11.569681153774
4273 1 2.400000000000 100.763787781127 15.586103233329 11.569681153774
4274 1 2.400000000000 97.614919412967 14.472810145234 9.641400961479
4275 1 2.400000000000 97.614919412967 14.472810145234 13.497961346070
4276 1 2.400000000000 97.614919412967 17.812689409519 11.569681153774
4277 2 -1.200000000000 98.402136505007 15.586103233329 11.569681153774
4278 2 -1.200000000000 96.827702320927 13.359517057139 11.569681153774
4279 2 -1.200000000000 96.827702320927 16.699396321424 9.641400961479
4280 2 -1.200000000000 95.253268136847 14.472810145234 9.641400961479
4281 2 -1.200000000000 96.827702320927 16.699396321424 13.497961346070
4282 2 -1.200000000000 95.253268136847 14.472810145234 13.497961346070
4283 2 -1.200000000000 95.253268136847 17.812689409519 11.569681153774
4284 2 -1.200000000000 93.678833952767 15.586103233329 11.569681153774
4285 1 2.400000000000 97.614919412967 11.132930880950 11.569681153774
4286 1 2.400000000000 94.466051044807 10.019637792855 9.641400961479
4287 1 2.400000000000 94.466051044807 10.019637792855 13.497961346070
4288 1 2.400000000000 94.466051044807 13.359517057139 11.569681153774
4289 2 -1.200000000000 95.253268136847 11.132930880950 11.569681153774
4290 2 -1.200000000000 93.678833952767 8.906344704760 11.569681153774
4291 2 -1.200000000000 93.678833952767 12.246223969045 9.641400961479
4292 2 -1.200000000000 92.104399768686 10.019637792855 9.641400961479
4293 2 -1.200000000000 93.678833952767 12.246223969045 13.497961346070
4294 2 -1.200000000000 92.104399768686 10.019637792855 13.497961346070
4295 2 -1.200000000000 92.104399768686 13.359517057139 11.569681153774
4296 2 -1.200000000000 90.529965584606 11.132930880950 11.569681153774
4297 1 2.400000000000 94.466051044807 6.679758528570 11.569681153774
4298 1 2.400000000000 91.317182676646 5.566465440475 9.641400961479
4299 1 2.400000000000 91.317182676646 5.566465440475 13.497961346070
4300 1 2.400000000000 91.317182676646 8.906344704760 11.569681153774
4301 2 -1.200000000000 92.104399768686 6.679758528570 11.569681153774
4302 2 -1.200000000000 90.529965584606 4.453172352380 11.569681153774
4303 2 -1.200000000000 90.529965584606 7.793051616665 9.641400961479
4304 2 -1.200000000000 88.955531400526 5.566465440475 9.641400961479
4305 2 -1.200000000000 90.529965584606 7.793051616665 13.497961346070
4306 2 -1.200000000000 88.955531400526 5.566465440475 13.497961346070
4307 2 -1.200000000000 88.955531400526 8.906344704760 11.569681153774
4308 2 -1.200000000000 87.381097216446 6.679758528570 11.569681153774
4309 1 2.400000000000 91.317182676646 2.226586176190 11.569681153774
4310 1 2.400000000000 88.168314308486 1.113293088095 9.641400961479
4311 1 2.400000000000 88.168314308486 1.113293088095 13.497961346070
4312 1 2.400000000000 88.168314308486 4.453172352380 11.569681153774
4313 2 -1.200000000000 88.955531400526 2.226586176190 11.569681153774
4314 2 -1.200000000000 87.381097216446 0.000000000000 11.569681153774
4315 2 -1.200000000000 87.381097216446 3.339879264285 9.641400961479
4316 2 -1.200000000000 85.806663032366 1.113293088095 9.641400961479
4317 2 -1.200000000000 87.381097216446 3.339879264285 13.497961346070
4318 2 -1.200000000000 85.806663032366 1.113293088095 13.497961346070
4319 2 -1.200000000000 85.806663032366 4.453172352380 11.569681153774
4320 2 -1.200000000000 84.232228848286 2.226586176190 11.569681153774
4321 1 2.400000000000 100.763787781127 22.265861761899 7.713120769183
4322 1 2.400000000000 97.614919412967 21.152568673804 5.784840576887
4323 1 2.400000000000 97.614919412967 21.152568673804 9.641400961479
4324 1 2.400000000000 97.614919412967 24.492447938089 7.713120769183
4325 2 -1.200000000000 98.402136505007 22.265861761899 7.713120769183
4326 2 -1.200000000000 96.827702320927 20.039275585709 7.713120769183
4327 2 -1.200000000000 96.827702320927 23.379154849994 5.784840576887
4328 2 -1.200000000000 95.253268136847 21.152568673804 5.784840576887
4329 2 -1.200000000000 96.827702320927 23.379154849994 9.641400961479
4330 2 -1.200000000000 95.253268136847 21.152568673804 9.641400961479
4331 2 -1.200000000000 95.253268136847 24.492447938089 7.713120769183
4332 2 -1.200000000000 93.678833952767 22.265861761899 7.713120769183
4333 1 2.400000000000 97.614919412967 17.812689409519 7.713120769183
4334 1 2.400000000000 94.466051044807 16.699396321424 5.784840576887
4335 1 2.400000000000 94.466051044807 16.699396321424 9.641400961479
4336 1 2.400000000000 94.466051044807 20.039275585709 7.713120769183
4337 2 -1.200000000000 95.253268136847 17.812689409519 7.713120769183
4338 2 -1.200000000000 93.678833952766 15.586103233329 7.713120769183
4339 2 -1.200000000000 93.678833952767 18.925982497614 5.784840576887
4340 2 -1.200000000000 92.104399768686 16.699396321424 5.784840576887
4341 2 -1.200000000000 93.678833952767 18.925982497614 9.641400961479
4342 2 -1.200000000000 92.104399768686 16.699396321424 9.641400961479
4343 2 -1.200000000000 92.104399768686 20.039275585709 7.713120769183
4344 2 -1.200000000000 90.529965584606 17.812689409519 7.713120769183
4345 1 2.400000000000 94.466051044807 13.359517057139 7.713120769183
4346 1 2.400000000000 91.317182676646 12.246223969045 5.784840576887
4347 1 2.400000000000 91.317182676646 12.246223969045 9.641400961479
4348 1 2.400000000000 91.317182676646 15.586103233329 7.713120769183
4349 2 -1.200000000000 92.104399768686 13.359517057139 7.713120769183
4350 2 -1.200000000000 90.529965584606 11.132930880950 7.713120769183
4351 2 -1.200000000000 90.529965584606 14.472810145234 5.784840576887
4352 2 -1.200000000000 88.955531400526 12.246223969045 5.784840576887
4353 2 -1.200000000000 90.529965584606 14.472810145234 9.641400961479
4354 2 -1.200000000000 88.955531400526 12.246223969045 9.641400961479
4355 2 -1.200000000000 88.955531400526 15.586103233329 7.713120769183
4356 2 -1.200000000000 87.381097216446 13.359517057139 7.713120769183
4357 1 2.400000000000 91.317182676646 8.906344704760 7.713120769183
4358 1 2.400000000000 88.168314308486 7.793051616665 5.784840576887
4359 1 2.400000000000 88.168314308486 7.793051616665 9.641400961479
4360 1 2.400000000000 88.168314308486 11.132930880950 7.713120769183
4361 2 -1.200000000000 88.955531400526 8.906344704760 7.713120769183
4362 2 -1.200000000000 87.381097216446 6.679758528570 7.713120769183
4363 2 -1.200000000000 87.381097216446 10.019637792855 5.784840576887
4364 2 -1.200000000000 85.806663032366 7.793051616665 5.784840576887
4365 2 -1.200000000000 87.381097216446 10.019637792855 9.641400961479
4366 2 -1.200000000000 85.806663032366 7.793051616665 9.641400961479
4367 2 -1.200000000000 85.806663032366 11.132930880950 7.713120769183
4368 2 -1.200000000000 84.232228848286 8.906344704760 7.713120769183
4369 1 2.400000000000 88.168314308486 4.453172352380 7.713120769183
4370 1 2.400000000000 85.019445940326 3.339879264285 5.784840576887
4371 1 2.400000000000 85.019445940326 3.339879264285 9.641400961479
4372 1 2.400000000000 85.019445940326 6.679758528570 7.713120769183
4373 2 -1.200000000000 85.806663032366 4.453172352380 7.713120769183
4374 2 -1.200000000000 84.232228848286 2.226586176190 7.713120769183
4375 2 -1.200000000000 84.232228848286 5.566465440475 5.784840576887
4376 2 -1.200000000000 82.657794664206 3.339879264285 5.784840576887
4377 2 -1.200000000000 84.232228848286 5.566465440475 9.641400961479
4378 2 -1.200000000000 82.657794664206 3.339879264285 9.641400961479
4379 2 -1.200000000000 82.657794664206 6.679758528570 7.713120769183
4380 2 -1.200000000000 81.083360480126 4.453172352380 7.713120769183
4381 1 2.400000000000 85.019445940326 0.000000000000 7.713120769183
4382 1 2.400000000000 81.870577572166 25.605741026184 5.784840576887
4383 1 2.400000000000 81.870577572166 25.605741026184 9.641400961479
4384 1 2.400000000000 81.870577572166 2.226586176190 7.713120769183
4385 2 -1.200000000000 82.657794664206 0.000000000000 7.713120769183
4386 2 -1.200000000000 81.083360480126 24.492447938089 7.713120769183
4387 2 -1.200000000000 81.083360480126 1.113293088095 5.784840576887
4388 2 -1.200000000000 79.508926296046 25.605741026184 5.784840576887
4389 2 -1.200000000000 81.083360480126 1.113293088095 9.641400961479
4390 2 -1.200000000000 79.508926296046 25.605741026184 9.641400961479
4391 2 -1.200000000000 79.508926296046 2.226586176190 7.713120769183
4392 2 -1.200000000000 77.934492111965 0.000000000000 7.713120769183
4393 1 2.400000000000 97.614919412967 24.492447938089 3.856560384591
4394 1 2.400000000000 94.466051044807 23.379154849994 1.928280192296
4395 1 2.400000000000 94.466051044807 23.379154849994 5.784840576887
4396 1 2.400000000000 94.466051044807 0.000000000000 3.856560384591
4397 2 -1.200000000000 95.253268136847 24.492447938089 3.856560384591
4398 2 -1.200000000000 93.678833952767 22.265861761899 3.856560384591
4399 2 -1.200000000000 93.678833952766 25.605741026184 1.928280192296
4400 2 -1.200000000000 92.104399768686 23.379154849994 1.928280192296
4401 2 -1.200000000000 93.678833952766 25.605741026184 5.784840576887
4402 2 -1.200000000000 92.104399768686 23.379154849994 5.784840576887
4403 2 -1.200000000000 92.104399768686 0.000000000000 3.856560384591
4404 2 -1.200000000000 90.529965584606 24.492447938089 3.856560384591
4405 1 2.400000000000 94.466051044807 20.039275585709 3.856560384591
4406 1 2.400000000000 91.317182676646 18.925982497614 1.928280192296
4407 1 2.400000000000 91.317182676646 18.925982497614 5.784840576887
4408 1 2.400000000000 91.317182676646 22.265861761899 3.856560384591
4409 2 -1.200000000000 92.104399768686 20.039275585709 3.856560384591
4410 2 -1.200000000000 90.529965584606 17.812689409519 3.856560384591
4411 2 -1.200000000000 90.529965584606 21.152568673804 1.928280192296
4412 2 -1.200000000000 88.955531400526 18.925982497614 1.928280192296
4413 2 -1.200000000000 90.529965584606 21.152568673804 5.784840576887
4414 2 -1.200000000000 88.955531400526 18.925982497614 5.784840576887
4415 2 -1.200000000000 88.955531400526 22.265861761899 3.856560384591
4416 2 -1.200000000000 87.381097216446 20.039275585709 3.856560384591
4417 1 2.400000000000 91.317182676646 15.586103233329 3.856560384591
4418 1 2.400000000000 88.168314308486 14.472810145234 1.928280192296
4419 1 2.400000000000 88.168314308486 14.472810145234 5.784840576887
4420 1 2.400000000000 88.168314308486 17.812689409519 3.856560384591
4421 2 -1.200000000000 88.955531400526 15.586103233329 3.856560384591
4422 2 -1.200000000000 87.381097216446 13.359517057139 3.856560384591
4423 2 -1.200000000000 87.381097216446 16.699396321424 1.928280192296
4424 2 -1.200000000000 85.806663032366 14.472810145234 1.928280192296
4425 2 -1.200000000000 87.381097216446 16.699396321424 5.784840576887
4426 2 -1.200000000000 85.806663032366 14.472810145234 5.784840576887
4427 2 -1.200000000000 85.806663032366 17.812689409519 3.856560384591
4428 2 -1.200000000000 84.232228848286 15.586103233329 3.856560384591
4429 1 2.400000000000 88.168314308486 11.132930880950 3.856560384591
4430 1 2.400000000000 85.019445940326 10.019637792855 1.928280192296
4431 1 2.400000000000 85.019445940326 10.019637792855 5.784840576887
4432 1 2.400000000000 85.019445940326 13.359517057139 3.856560384591
4433 2 -1.200000000000 85.806663032366 11.132930880950 3.856560384591
4434 2 -1.200000000000 84.232228848286 8.906344704760 3.856560384591
4435 2 -1.200000000000 84.232228848286 12.246223969045 1.928280192296
4436 2 -1.200000000000 82.657794664206 10.019637792855 1.928280192296
4437 2 -1.200000000000 84.232228848286 12.246223969045 5.784840576887
4438 2 -1.200000000000 82.657794664206 10.019637792855 5.784840576887
4439 2 -1.200000000000 82.657794664206 13.359517057139 3.856560384591
4440 2 -1.200000000000 81.083360480126 11.132930880950 3.856560384591
4441 1 2.400000000000 85.019445940326 6.679758528570 3.856560384591
4442 1 2.400000000000 81.870577572166 5.566465440475 1.928280192296
4443 1 2.400000000000 81.870577572166 5.566465440475 5.784840576887
4444 1 2.400000000000 81.870577572166 8.906344704760 3.856560384591
4445 2 -1.200000000000 82.657794664206 6.679758528570 3.856560384591
4446 2 -1.200000000000 81.083360480126 4.453172352380 3.856560384591
4447 2 -1.200000000000 81.083360480126 7.793051616665 1.928280192296
4448 2 -1.200000000000 79.508926296046 5.566465440475 1.928280192296
4449 2 -1.200000000000 81.083360480126 7.793051616665 5.784840576887
4450 2 -1.200000000000 79.508926296046 5.566465440475 5.784840576887
4451 2 -1.200000000000 79.508926296046 8.906344704760 3.856560384591
4452 2 -1.200000000000 77.934492111965 6.679758528570 3.856560384591
4453 1 2.400000000000 81.870577572166 2.226586176190 3.856560384591
4454 1 2.400000000000 78.721709204005 1.113293088095 1.928280192296
4455 1 2.400000000000 78.721709204005 1.113293088095 5.784840576887
4456 1 2.400000000000 78.721709204005 4.453172352380 3.856560384591
4457 2 -1.200000000000 79.508926296046 2.226586176190 3.856560384591
4458 2 -1.200000000000 77.934492111965 0.000000000000 3.856560384591
4459 2 -1.200000000000 77.934492111965 3.339879264285 1.928280192296
4460 2 -1.200000000000 76.360057927885 1.113293088095 1.928280192296
4461 2 -1.200000000000 77.934492111965 3.339879264285 5.784840576887
4462 2 -1.200000000000 76.360057927885 1.113293088095 5.784840576887
4463 2 -1.200000000000 76.360057927885 4.453172352380 3.856560384591
4464 2 -1.200000000000 74.785623743805 2.226586176190 3.856560384591
4465 1 2.400000000000 91.317182676646 22.265861761899 0.000000000000
4466 1 2.400000000000 88.168314308486 21.152568673804 21.211082115253
4467 1 2.400000000000 88.168314308486 21.152568673804 1.928280192296
4468 1 2.400000000000 88.168314308486 24.492447938089 0.000000000000
4469 2 -1.200000000000 88.955531400526 22.265861761899 0.000000000000
4470 2 -1.200000000000 87.381097216446 20.039275585709 0.000000000000
4471 2 -1.200000000000 87.381097216446 23.379154849994 21.211082115253
4472 2 -1.200000000000 85.806663032366 21.152568673804 21.211082115253
4473 2 -1.200000000000 87.381097216446 23.379154849994 1.928280192296
4474 2 -1.200000000000 85.806663032366 21.152568673804 1.928280192296
4475 2 -1.200000000000 85.806663032366 24.492447938089 0.000000000000
4476 2 -1.200000000000 84.232228848286 22.265861761899 0.000000000000
4477 1 2.400000000000 88.168314308486 17.812689409519 0.000000000000
4478 1 2.400000000000 85.019445940326 16.699396321424 21.211082115253
4479 1 2.400000000000 85.019445940326 16.699396321424 1.928280192296
4480 1 2.400000000000 85.019445940326 20.039275585709 0.000000000000
4481 2 -1.200000000000 85.806663032366 17.812689409519 0.000000000000
4482 2 -1.200000000000 84.232228848286 15.586103233329 0.000000000000
4483 2 -1.200000000000 84.232228848286 18.925982497614 21.211082115253
4484 2 -1.200000000000 82.657794664206 16.699396321424 21.211082115253
4485 2 -1.200000000000 84.232228848286 18.925982497614 1.928280192296
4486 2 -1.200000000000 82.657794664206 16.699396321424 1.928280192296
4487 2 -1.200000000000 82.657794664206 20.039275585709 0.000000000000
4488 2 -1.200000000000 81.083360480126 17.812689409519 0.000000000000
4489 1 2.400000000000 85.019445940326 13.359517057139 0.000000000000
4490 1 2.400000000000 81.870577572166 12.246223969045 21.211082115253
4491 1 2.400000000000 81.870577572166 12.246223969045 1.928280192296
4492 1 2.400000000000 81.870577572166 15.586103233329 0.000000000000
4493 2 -1.200000000000 82.657794664206 13.359517057139 0.000000000000
4494 2 -1.200000000000 81.083360480126 11.132930880950 0.000000000000
4495 2 -1.200000000000 81.083360480126 14.472810145234 21.211082115253
4496 2 -1.200000000000 79.508926296046 12.246223969045 21.211082115253
4497 2 -1.200000000000 81.083360480126 14.472810145234 1.928280192296
4498 2 -1.200000000000 79.508926296046 12.246223969045 1.928280192296
4499 2 -1.200000000000 79.508926296046 15.586103233329 0.000000000000
4500 2 -1.200000000000 77.934492111965 13.359517057139 0.000000000000
4501 1 2.400000000000 81.870577572166 8.906344704760 0.000000000000
4502 1 2.400000000000 78.721709204005 7.793051616665 21.211082115253
4503 1 2.400000000000 78.721709204005 7.793051616665 1.928280192296
4504 1 2.400000000000 78.721709204005 11.132930880950 0.000000000000
4505 2 -1.200000000000 79.508926296046 8.906344704760 0.000000000000
4506 2 -1.200000000000 77.934492111965 6.679758528570 0.000000000000
4507 2 -1.200000000000 77.934492111965 10.019637792855 21.211082115253
4508 2 -1.200000000000 76.360057927885 7.793051616665 21.211082115253
4509 2 -1.200000000000 77.934492111965 10.019637792855 1.928280192296
4510 2 -1.200000000000 76.360057927885 7.793051616665 1.928280192296
4511 2 -1.200000000000 76.360057927885 11.132930880950 0.000000000000
4512 2 -1.200000000000 74.785623743805 8.906344704760 0.000000000000
4513 1 2.400000000000 78.721709204005 4.453172352380 0.000000000000
4514 1 2.400000000000 75.572840835845 3.339879264285 21.211082115253
4515 1 2.400000000000 75.572840835845 3.339879264285 1.928280192296
4516 1 2.400000000000 75.572840835845 6.679758528570 0.000000000000
4517 2 -1.200000000000 76.360057927885 4.453172352380 0.000000000000
4518 2 -1.200000000000 74.785623743805 2.226586176190 0.000000000000
4519 2 -1.200000000000 74.785623743805 5.566465440475 21.211082115253
4520 2 -1.200000000000 73.211189559725 3.339879264285 21.211082115253
4521 2 -1.200000000000 74.785623743805 5.566465440475 1.928280192296
4522 2 -1.200000000000 73.211189559725 3.339879264285 1.928280192296
4523 2 -1.200000000000 73.211189559725 6.679758528570 0.000000000000
4524 2 -1.200000000000 71.636755375645 4.453172352380 0.000000000000
4525 1 2.400000000000 75.572840835845 0.000000000000 0.000000000000
4526 1 2.400000000000 72.423972467685 25.605741026184 21.211082115253
4527 1 2.400000000000 72.423972467685 25.605741026184 1.928280192296
4528 1 2.400000000000 72.423972467685 2.226586176190 0.000000000000
4529 2 -1.200000000000 73.211189559725 0.000000000000 0.000000000000
4530 2 -1.200000000000 71.636755375645 24.492447938089 0.000000000000
4531 2 -1.200000000000 71.636755375645 1.113293088095 21.211082115253
4532 2 -1.200000000000 70.062321191565 25.605741026184 21.211082115253
4533 2 -1.200000000000 71.636755375645 1.113293088095 1.928280192296
4534 2 -1.200000000000 70.062321191565 25.605741026184 1.928280192296
4535 2 -1.200000000000 70.062321191565 2.226586176190 0.000000000000
4536 2 -1.200000000000 68.487887007485 0.000000000000 0.000000000000
4537 1 2.400000000000 107.061524517447 24.492447938089 19.282801922957
4538 1 2.400000000000 103.912656149287 23.379154849994 17.354521730661
4539 1 2.400000000000 103.912656149287 23.379154849994 21.211082115253
4540 1 2.400000000000 103.912656149287 0.000000000000 19.282801922957
4541 2 -1.200000000000 104.699873241327 24.492447938089 19.282801922957
4542 2 -1.200000000000 103.125439057247 22.265861761899 19.282801922957
4543 2 -1.200000000000 103.125439057247 25.605741026184 17.354521730661
4544 2 -1.200000000000 101.551004873167 23.379154849994 17.354521730661
4545 2 -1.200000000000 103.125439057247 25.605741026184 21.211082115253
4546 2 -1.200000000000 101.551004873167 23.379154849994 21.211082115253
4547 2 -1.200000000000 101.551004873167 0.000000000000 19.282801922957
4548 2 -1.200000000000 99.976570689087 24.492447938089 19.282801922957
4549 1 2.400000000000 103.912656149287 20.039275585709 19.282801922957
4550 1 2.400000000000 100.763787781127 18.925982497614 17.354521730661
4551 1 2.400000000000 100.763787781127 18.925982497614 21.211082115253
4552 1 2.400000000000 100.763787781127 22.265861761899 19.282801922957
4553 2 -1.200000000000 101.551004873167 20.039275585709 19.282801922957
4554 2 -1.200000000000 99.976570689087 17.812689409519 19.282801922957
4555 2 -1.200000000000 99.976570689087 21.152568673804 17.354521730661
4556 2 -1.200000000000 98.402136505007 18.925982497614 17.354521730661
4557 2 -1.200000000000 99.976570689087 21.152568673804 21.211082115253
4558 2 -1.200000000000 98.402136505007 18.925982497614 21.211082115253
4559 2 -1.200000000000 98.402136505007 22.265861761899 19.282801922957
4560 2 -1.200000000000 96.827702320927 20.039275585709 19.282801922957
4561 1 2.400000000000 100.763787781127 15.586103233329 19.282801922957
4562 1 2.400000000000 97.614919412967 14.472810145234 17.354521730661
4563 1 2.400000000000 97.614919412967 14.472810145234 21.211082115253
4564 1 2.400000000000 97.614919412967 17.812689409519 19.282801922957
4565 2 -1.200000000000 98.402136505007 15.586103233329 19.282801922957
4566 2 -1.200000000000 96.827702320927 13.359517057139 19.282801922957
4567 2 -1.200000000000 96.827702320927 16.699396321424 17.354521730661
4568 2 -1.200000000000 95.253268136847 14.472810145234 17.354521730661
4569 2 -1.200000000000 96.827702320927 16.699396321424 21.211082115253
4570 2 -1.200000000000 95.253268136847 14.472810145234 21.211082115253
4571 2 -1.200000000000 95.253268136847 17.812689409519 19.282801922957
4572 2 -1.200000000000 93.678833952767 15.586103233329 19.282801922957
4573 1 2.400000000000 97.614919412967 11.132930880950 19.282801922957
4574 1 2.400000000000 94.466051044807 10.019637792855 17.354521730661
4575 1 2.400000000000 94.466051044807 10.019637792855 21.211082115253
4576 1 2.400000000000 94.466051044807 13.359517057139 19.282801922957
4577 2 -1.200000000000 95.253268136847 11.132930880950 19.282801922957
4578 2 -1.200000000000 93.678833952767 8.906344704760 19.282801922957
4579 2 -1.200000000000 93.678833952767 12.246223969045 17.354521730661
4580 2 -1.200000000000 92.104399768686 10.019637792855 17.354521730661
4581 2 -1.200000000000 93.678833952767 12.246223969045 21.211082115253
4582 2 -1.200000000000 92.104399768686 10.019637792855 21.211082115253
4583 2 -1.200000000000 92.104399768686 13.359517057139 19.282801922957
4584 2 -1.200000000000 90.529965584606 11.132930880950 19.282801922957
4585 1 2.400000000000 94.466051044807 6.679758528570 19.282801922957
4586 1 2.400000000000 91.317182676646 5.566465440475 17.354521730661
4587 1 2.400000000000 91.317182676646 5.566465440475 21.211082115253
4588 1 2.400000000000 91.317182676646 8.906344704760 19.282801922957
4589 2 -1.200000000000 92.104399768686 6.679758528570 19.282801922957
4590 2 -1.200000000000 90.529965584606 4.453172352380 19.282801922957
4591 2 -1.200000000000 90.529965584606 7.793051616665 17.354521730661
4592 2 -1.200000000000 88.955531400526 5.566465440475 17.354521730661
4593 2 -1.200000000000 90.529965584606 7.793051616665 21.211082115253
4594 2 -1.200000000000 88.955531400526 5.566465440475 21.211082115253
4595 2 -1.200000000000 88.955531400526 8.906344704760 19.282801922957
4596 2 -1.200000000000 87.381097216446 6.679758528570 19.282801922957
4597 1 2.400000000000 91.317182676646 2.226586176190 19.282801922957
4598 1 2.400000000000 88.168314308486 1.113293088095 17.354521730661
4599 1 2.400000000000 88.168314308486 1.113293088095 21.211082115253
4600 1 2.400000000000 88.168314308486 4.453172352380 19.282801922957
4601 2 -1.200000000000 88.955531400526 2.226586176190 19.282801922957
4602 2 -1.200000000000 87.381097216446 0.000000000000 19.282801922957
4603 2 -1.200000000000 87.381097216446 3.339879264285 17.354521730661
4604 2 -1.200000000000 85.806663032366 1.113293088095 17.354521730661
4605 2 -1.200000000000 87.381097216446 3.339879264285 21.211082115253
4606 2 -1.200000000000 85.806663032366 1.113293088095 21.211082115253
4607 2 -1.200000000000 85.806663032366 4.453172352380 19.282801922957
4608 2 -1.200000000000 84.232228848286 2.226586176190 19.282801922957
4609 1 2.400000000000 100.763787781127 22.265861761899 15.426241538366
4610 1 2.400000000000 97.614919412967 21.152568673804 13.497961346070
4611 1 2.400000000000 97.614919412967 21.152568673804 17.354521730661
4612 1 2.400000000000 97.614919412967 24.492447938089 15.426241538366
4613 2 -1.200000000000 98.402136505007 22.265861761899 15.426241538366
4614 2 -1.200000000000 96.827702320927 20.039275585709 15.426241538366
4615 2 -1.200000000000 96.827702320927 23.379154849994 13.497961346070
4616 2 -1.200000000000 95.253268136847 21.152568673804 13.497961346070
4617 2 -1.200000000000 96.827702320927 23.379154849994 17.354521730661
4618 2 -1.200000000000 95.253268136847 21.152568673804 17.354521730661
4619 2 -1.200000000000 95.253268136847 24.492447938089 15.426241538366
4620 2 -1.200000000000 93.678833952767 22.265861761899 15.426241538366
4621 1 2.400000000000 97.614919412967 17.812689409519 15.426241538366
4622 1 2.400000000000 94.466051044807 16.699396321424 13.497961346070
4623 1 2.400000000000 94.466051044807 16.699396321424 17.354521730661
4624 1 2.400000000000 94.466051044807 20.039275585709 15.426241538366
4625 2 -1.200000000000 95.253268136847 17.812689409519 15.426241538366
4626 2 -1.200000000000 93.678833952767 15.586103233329 15.426241538366
4627 2 -1.200000000000 93.678833952767 18.925982497614 13.497961346070
4628 2 -1.200000000000 92.104399768686 16.699396321424 13.497961346070
4629 2 -1.200000000000 93.678833952767 18.925982497614 17.354521730661
4630 2 -1.200000000000 92.104399768686 16.699396321424 17.354521730661
4631 2 -1.200000000000 92.104399768686 20.039275585709 15.426241538366
4632 2 -1.200000000000 90.529965584606 17.812689409519 15.426241538366
4633 1 2.400000000000 94.466051044807 13.359517057139 15.426241538366
4634 1 2.400000000000 91.317182676646 12.246223969045 13.497961346070
4635 1 2.400000000000 91.317182676646 12.246223969045 17.354521730661
4636 1 2.400000000000 91.317182676646 15.586103233329 15.426241538366
4637 2 -1.200000000000 92.104399768686 13.359517057139 15.426241538366
4638 2 -1.200000000000 90.529965584606 11.132930880950 15.426241538366
4639 2 -1.200000000000 90.529965584606 14.472810145234 13.497961346070
4640 2 -1.200000000000 88.955531400526 12.246223969045 13.497961346070
4641 2 -1.200000000000 90.529965584606 14.472810145234 17.354521730661
4642 2 -1.200000000000 88.955531400526 12.246223969045 17.354521730661
4643 2 -1.200000000000 88.955531400526 15.586103233329 15.426241538366
4644 2 -1.200000000000 87.381097216446 13.359517057139 15.426241538366
4645 1 2.400000000000 91.317182676646 8.906344704760 15.426241538366
4646 1 2.400000000000 88.168314308486 7.793051616665 13.497961346070
4647 1 2.400000000000 88.168314308486 7.793051616665 17.354521730661
4648 1 2.400000000000 88.168314308486 11.132930880950 15.426241538366
4649 2 -1.200000000000 88.955531400526 8.906344704760 15.426241538366
4650 2 -1.200000000000 87.381097216446 6.679758528570 15.426241538366
4651 2 -1.200000000000 87.381097216446 10.019637792855 13.497961346070
4652 2 -1.200000000000 85.806663032366 7.793051616665 13.497961346070
4653 2 -1.200000000000 87.381097216446 10.019637792855 17.354521730661
4654 2 -1.200000000000 85.806663032366 7.793051616665 17.354521730661
4655 2 -1.200000000000 85.806663032366 11.132930880950 15.426241538366
4656 2 -1.200000000000 84.232228848286 8.906344704760 15.426241538366
4657 1 2.400000000000 88.168314308486 4.453172352380 15.426241538366
4658 1 2.400000000000 85.019445940326 3.339879264285 13.497961346070
4659 1 2.400000000000 85.019445940326 3.339879264285 17.354521730661
4660 1 2.400000000000 85.019445940326 6.679758528570 15.426241538366
4661 2 -1.200000000000 85.806663032366 4.453172352380 15.426241538366
4662 2 -1.200000000000 84.232228848286 2.226586176190 15.426241538366
4663 2 -1.200000000000 84.232228848286 5.566465440475 13.497961346070
4664 2 -1.200000000000 82.657794664206 3.339879264285 13.497961346070
4665 2 -1.200000000000 84.232228848286 5.566465440475 17.354521730661
4666 2 -1.200000000000 82.657794664206 3.339879264285 17.354521730661
4667 2 -1.200000000000 82.657794664206 6.679758528570 15.426241538366
4668 2 -1.200000000000 81.083360480126 4.453172352380 15.426241538366
4669 1 2.400000000000 85.019445940326 0.000000000000 15.426241538366
4670 1 2.400000000000 81.870577572166 25.605741026184 13.497961346070
4671 1 2.400000000000 81.870577572166 25.605741026184 17.354521730661
4672 1 2.400000000000 81.870577572166 2.226586176190 15.426241538366
4673 2 -1.200000000000 82.657794664206 0.000000000000 15.426241538366
4674 2 -1.200000000000 81.083360480126 24.492447938089 15.426241538366
4675 2 -1.200000000000 81.083360480126 1.113293088095 13.497961346070
4676 2 -1.200000000000 79.508926296046 25.605741026184 13.497961346070
4677 2 -1.200000000000 81.083360480126 1.113293088095 17.354521730661
4678 2 -1.200000000000 79.508926296046 25.605741026184 17.354521730661
4679 2 -1.200000000000 79.508926296046 2.226586176190 15.426241538366
4680 2 -1.200000000000 77.934492111965 0.000000000000 15.426241538366
4681 1 2.400000000000 97.614919412967 24.492447938089 11.569681153774
4682 1 2.400000000000 94.466051044807 23.379154849994 9.641400961479
4683 1 2.400000000000 94.466051044807 23.379154849994 13.497961346070
4684 1 2.400000000000 94.466051044807 0.000000000000 11.569681153774
4685 2 -1.200000000000 95.253268136847 24.492447938089 11.569681153774
4686 2 -1.200000000000 93.678833952767 22.265861761899 11.569681153774
4687 2 -1.200000000000 93.678833952766 25.605741026184 9.641400961479
4688 2 -1.200000000000 92.104399768686 23.379154849994 9.641400961479
4689 2 -1.200000000000 93.678833952766 25.605741026184 13.497961346070
4690 2 -1.200000000000 92.104399768686 23.379154849994 13.497961346070
4691 2 -1.200000000000 92.104399768686 0.000000000000 11.569681153774
4692 2 -1.200000000000 90.529965584606 24.492447938089 11.569681153774
4693 1 2.400000000000 94.466051044807 20.039275585709 11.569681153774
4694 1 2.400000000000 91.317182676646 18.925982497614 9.641400961479
4695 1 2.400000000000 91.317182676646 18.925982497614 13.497961346070
4696 1 2.400000000000 91.317182676646 22.265861761899 11.569681153774
4697 2 -1.200000000000 92.104399768686 20.039275585709 11.569681153774
4698 2 -1.200000000000 90.529965584606 17.812689409519 11.569681153774
4699 2 -1.200000000000 90.529965584606 21.152568673804 9.641400961479
4700 2 -1.200000000000 88.955531400526 18.925982497614 9.641400961479
4701 2 -1.200000000000 90.529965584606 21.152568673804 13.497961346070
4702 2 -1.200000000000 88.955531400526 18.925982497614 13.497961346070
4703 2 -1.200000000000 88.955531400526 22.265861761899 11.569681153774
4704 2 -1.200000000000 87.381097216446 20.039275585709 11.569681153774
4705 1 2.400000000000 91.317182676646 15.586103233329 11.569681153774
4706 1 2.400000000000 88.168314308486 14.472810145234 9.641400961479
4707 1 2.400000000000 88.168314308486 14.472810145234 13.497961346070
4708 1 2.400000000000 88.168314308486 17.812689409519 11.569681153774
4709 2 -1.200000000000 88.955531400526 15.586103233329 11.569681153774
4710 2 -1.200000000000 87.381097216446 13.359517057139 11.569681153774
4711 2 -1.200000000000 87.381097216446 16.699396321424 9.641400961479
4712 2 -1.200000000000 85.806663032366 14.472810145234 9.641400961479
4713 2 -1.200000000000 87.381097216446 16.699396321424 13.497961346070
4714 2 -1.200000000000 85.806663032366 14.472810145234 13.497961346070
4715 2 -1.200000000000 85.806663032366 17.812689409519 11.569681153774
4716 2 -1.200000000000 84.232228848286 15.586103233329 11.569681153774
4717 1 2.400000000000 88.168314308486 11.132930880950 11.569681153774
4718 1 2.400000000000 85.019445940326 10.019637792855 9.641400961479
4719 1 2.400000000000 85.019445940326 10.019637792855 13.497961346070
4720 1 2.400000000000 85.019445940326 13.359517057139 11.569681153774
4721 2 -1.200000000000 85.806663032366 11.132930880950 11.569681153774
4722 2 -1.200000000000 84.232228848286 8.906344704760 11.569681153774
4723 2 -1.200000000000 84.232228848286 12.246223969045 9.641400961479
4724 2 -1.200000000000 82.657794664206 10.019637792855 9.641400961479
4725 2 -1.200000000000 84.232228848286 12.246223969045 13.497961346070
4726 2 -1.200000000000 82.657794664206 10.019637792855 13.497961346070
4727 2 -1.200000000000 82.657794664206 13.359517057139 11.569681153774
4728 2 -1.200000000000 81.083360480126 11.132930880950 11.569681153774
4729 1 2.400000000000 85.019445940326 6.679758528570 11.569681153774
4730 1 2.400000000000 81.870577572166 5.566465440475 9.641400961479
4731 1 2.400000000000 81.870577572166 5.566465440475 13.497961346070
4732 1 2.400000000000 81.870577572166 8.906344704760 11.569681153774
4733 2 -1.200000000000 82.657794664206 6.679758528570 11.569681153774
4734 2 -1.200000000000 81.083360480126 4.453172352380 11.569681153774
4735 2 -1.200000000000 81.083360480126 7.793051616665 9.641400961479
4736 2 -1.200000000000 79.508926296046 5.566465440475 9.641400961479
4737 2 -1.200000000000 81.083360480126 7.793051616665 13.497961346070
4738 2 -1.200000000000 79.508926296046 5.566465440475 13.497961346070
4739 2 -1.200000000000 79.508926296046 8.906344704760 11.569681153774
4740 2 -1.200000000000 77.934492111965 6.679758528570 11.569681153774
4741 1 2.400000000000 81.870577572166 2.226586176190 11.569681153774
4742 1 2.400000000000 78.721709204005 1.113293088095 9.641400961479
4743 1 2.400000000000 78.721709204005 1.113293088095 13.497961346070
4744 1 2.400000000000 78.721709204005 4.453172352380 11.569681153774
4745 2 -1.200000000000 79.508926296046 2.226586176190 11.569681153774
4746 2 -1.200000000000 77.934492111965 0.000000000000 11.569681153774
4747 2 -1.200000000000 77.934492111965 3.339879264285 9.641400961479
4748 2 -1.200000000000 76.360057927885 1.113293088095 9.641400961479
4749 2 -1.200000000000 77.934492111965 3.339879264285 13.497961346070
4750 2 -1.200000000000 76.360057927885 1.113293088095 13.497961346070
4751 2 -1.200000000000 76.360057927885 4.453172352380 11.569681153774
4752 2 -1.200000000000 74.785623743805 2.226586176190 11.569681153774
4753 1 2.400000000000 91.317182676646 22.265861761899 7.713120769183
4754 1 2.400000000000 88.168314308486 21.152568673804 5.784840576887
4755 1 2.400000000000 88.168314308486 21.152568673804 9.641400961479
4756 1 2.400000000000 88.168314308486 24.492447938089 7.713120769183
4757 2 -1.200000000000 88.955531400526 22.265861761899 7.713120769183
4758 2 -1.200000000000 87.381097216446 20.039275585709 7.713120769183
4759 2 -1.200000000000 87.381097216446 23.379154849994 5.784840576887
4760 2 -1.200000000000 85.806663032366 21.152568673804 5.784840576887
4761 2 -1.200000000000 87.381097216446 23.379154849994 9.641400961479
4762 2 -1.200000000000 85.806663032366 21.152568673804 9.641400961479
4763 2 -1.200000000000 85.806663032366 24.492447938089 7.713120769183
4764 2 -1.200000000000 84.232228848286 22.265861761899 7.713120769183
4765 1 2.400000000000 88.168314308486 17.812689409519 7.713120769183
4766 1 2.400000000000 85.019445940326 16.699396321424 5.784840576887
4767 1 2.400000000000 85.019445940326 16.699396321424 9.641400961479
4768 1 2.400000000000 85.019445940326 20.039275585709 7.713120769183
4769 2 -1.200000000000 85.806663032366 17.812689409519 7.713120769183
4770 2 -1.200000000000 84.232228848286 15.586103233329 7.713120769183
4771 2 -1.200000000000 84.232228848286 18.925982497614 5.784840576887
4772 2 -1.200000000000 82.657794664206 16.699396321424 5.784840576887
4773 2 -1.200000000000 84.232228848286 18.925982497614 9.641400961479
4774 2 -1.200000000000 82.657794664206 16.699396321424 9.641400961479
4775 2 -1.200000000000 82.657794664206 20.039275585709 7.713120769183
4776 2 -1.200000000000 81.083360480126 17.812689409519 7.713120769183
4777 1 2.400000000000 85.019445940326 13.359517057139 7.713120769183
4778 1 2.400000000000 81.870577572166 12.246223969045 5.784840576887
4779 1 2.400000000000 81.870577572166 12.246223969045 9.641400961479
4780 1 2.400000000000 81.870577572166 15.586103233329 7.713120769183
4781 2 -1.200000000000 82.657794664206 13.359517057139 7.713120769183
4782 2 -1.200000000000 81.083360480126 11.132930880950 7.713120769183
4783 2 -1.200000000000 81.083360480126 14.472810145234 5.784840576887
4784 2 -1.200000000000 79.508926296046 12.246223969045 5.784840576887
4785 2 -1.200000000000 81.083360480126 14.472810145234 9.641400961479
4786 2 -1.200000000000 79.508926296046 12.246223969045 9.641400961479
4787 2 -1.200000000000 79.508926296046 15.586103233329 7.713120769183
4788 2 -1.200000000000 77.934492111965 13.359517057139 7.713120769183
4789 1 2.400000000000 81.870577572166 8.906344704760 7.713120769183
4790 1 2.400000000000 78.721709204005 7.793051616665 5.784840576887
4791 1 2.400000000000 78.721709204005 7.793051616665 9.641400961479
4792 1 2.400000000000 78.721709204005 11.132930880950 7.713120769183
4793 2 -1.200000000000 79.508926296046 8.906344704760 7.713120769183
4794 2 -1.200000000000 77.934492111965 6.679758528570 7.713120769183
4795 2 -1.200000000000 77.934492111965 10.019637792855 5.784840576887
4796 2 -1.200000000000 76.360057927885 7.793051616665 5.784840576887
4797 2 -1.200000000000 77.934492111965 10.019637792855 9.641400961479
4798 2 -1.200000000000 76.360057927885 7.793051616665 9.641400961479
4799 2 -1.200000000000 76.360057927885 11.132930880950 7.713120769183
4800 2 -1.200000000000 74.785623743805 8.906344704760 7.713120769183
4801 1 2.400000000000 78.721709204005 4.453172352380 7.713120769183
4802 1 2.400000000000 75.572840835845 3.339879264285 5.784840576887
4803 1 2.400000000000 75.572840835845 3.339879264285 9.641400961479
4804 1 2.400000000000 75.572840835845 6.679758528570 7.713120769183
4805 2 -1.200000000000 76.360057927885 4.453172352380 7.713120769183
4806 2 -1.200000000000 74.785623743805 2.226586176190 7.713120769183
4807 2 -1.200000000000 74.785623743805 5.566465440475 5.784840576887
4808 2 -1.200000000000 73.211189559725 3.339879264285 5.784840576887
4809 2 -1.200000000000 74.785623743805 5.566465440475 9.641400961479
4810 2 -1.200000000000 73.211189559725 3.339879264285 9.641400961479
4811 2 -1.200000000000 73.211189559725 6.679758528570 7.713120769183
4812 2 -1.200000000000 71.636755375645 4.453172352380 7.713120769183
4813 1 2.400000000000 75.572840835845 0.000000000000 7.713120769183
4814 1 2.400000000000 72.423972467685 25.605741026184 5.784840576887
4815 1 2.400000000000 72.423972467685 25.605741026184 9.641400961479
4816 1 2.400000000000 72.423972467685 2.226586176190 7.713120769183
4817 2 -1.200000000000 73.211189559725 0.000000000000 7.713120769183
4818 2 -1.200000000000 71.636755375645 24.492447938089 7.713120769183
4819 2 -1.200000000000 71.636755375645 1.113293088095 5.784840576887
4820 2 -1.200000000000 70.062321191565 25.605741026184 5.784840576887
4821 2 -1.200000000000 71.636755375645 1.113293088095 9.641400961479
4822 2 -1.200000000000 70.062321191565 25.605741026184 9.641400961479
4823 2 -1.200000000000 70.062321191565 2.226586176190 7.713120769183
4824 2 -1.200000000000 68.487887007485 0.000000000000 7.713120769183
4825 1 2.400000000000 88.168314308486 24.492447938089 3.856560384591
4826 1 2.400000000000 85.019445940326 23.379154849994 1.928280192296
4827 1 2.400000000000 85.019445940326 23.379154849994 5.784840576887
4828 1 2.400000000000 85.019445940326 0.000000000000 3.856560384591
4829 2 -1.200000000000 85.806663032366 24.492447938089 3.856560384591
4830 2 -1.200000000000 84.232228848286 22.265861761899 3.856560384591
4831 2 -1.200000000000 84.232228848286 25.605741026184 1.928280192296
4832 2 -1.200000000000 82.657794664206 23.379154849994 1.928280192296
4833 2 -1.200000000000 84.232228848286 25.605741026184 5.784840576887
4834 2 -1.200000000000 82.657794664206 23.379154849994 5.784840576887
4835 2 -1.200000000000 82.657794664206 0.000000000000 3.856560384591
4836 2 -1.200000000000 81.083360480126 24.492447938089 3.856560384591
4837 1 2.400000000000 85.019445940326 20.039275585709 3.856560384591
4838 1 2.400000000000 81.870577572166 18.925982497614 1.928280192296
4839 1 2.400000000000 81.870577572166 18.925982497614 5.784840576887
4840 1 2.400000000000 81.870577572166 22.265861761899 3.856560384591
4841 2 -1.200000000000 82.657794664206 20.039275585709 3.856560384591
4842 2 -1.200000000000 81.083360480126 17.812689409519 3.856560384591
4843 2 -1.200000000000 81.083360480126 21.152568673804 1.928280192296
4844 2 -1.200000000000 79.508926296046 18.925982497614 1.928280192296
4845 2 -1.200000000000 81.083360480126 21.152568673804 5.784840576887
4846 2 -1.200000000000 79.508926296046 18.925982497614 5.784840576887
4847 2 -1.200000000000 79.508926296046 22.265861761899 3.856560384591
4848 2 -1.200000000000 77.934492111965 20.039275585709 3.856560384591
4849 1 2.400000000000 81.870577572166 15.586103233329 3.856560384591
4850 1 2.400000000000 78.721709204005 14.472810145234 1.928280192296
4851 1 2.400000000000 78.721709204005 14.472810145234 5.784840576887
4852 1 2.400000000000 78.721709204005 17.812689409519 3.856560384591
4853 2 -1.200000000000 79.508926296046 15.586103233329 3.856560384591
4854 2 -1.200000000000 77.934492111965 13.359517057139 3.856560384591
4855 2 -1.200000000000 77.934492111965 16.699396321424 1.928280192296
4856 2 -1.200000000000 76.360057927885 14.472810145234 1.928280192296
4857 2 -1.200000000000 77.934492111965 16.699396321424 5.784840576887
4858 2 -1.200000000000 76.360057927885 14.472810145234 5.784840576887
4859 2 -1.200000000000 76.360057927885 17.812689409519 3.856560384591
4860 2 -1.200000000000 74.785623743805 15.586103233329 3.856560384591
4861 1 2.400000000000 78.721709204005 11.132930880950 3.856560384591
4862 1 2.400000000000 75.572840835845 10.019637792855 1.928280192296
4863 1 2.400000000000 75.572840835845 10.019637792855 5.784840576887
4864 1 2.400000000000 75.572840835845 13.359517057139 3.856560384591
4865 2 -1.200000000000 76.360057927885 11.132930880950 3.856560384591
4866 2 -1.200000000000 74.785623743805 8.906344704760 3.856560384591
4867 2 -1.200000000000 74.785623743805 12.246223969044 1.928280192296
4868 2 -1.200000000000 73.211189559725 10.019637792855 1.928280192296
4869 2 -1.200000000000 74.785623743805 12.246223969044 5.784840576887
4870 2 -1.200000000000 73.211189559725 10.019637792855 5.784840576887
4871 2 -1.200000000000 73.211189559725 13.359517057139 3.856560384591
4872 2 -1.200000000000 71.636755375645 11.132930880950 3.856560384591
4873 1 2.400000000000 75.572840835845 6.679758528570 3.856560384591
4874 1 2.400000000000 72.423972467685 5.566465440475 1.928280192296
4875 1 2.400000000000 72.423972467685 5.566465440475 5.784840576887
4876 1 2.400000000000 72.423972467685 8.906344704760 3.856560384591
4877 2 -1.200000000000 73.211189559725 6.679758528570 3.856560384591
4878 2 -1.200000000000 71.636755375645 4.453172352380 3.856560384591
4879 2 -1.200000000000 71.636755375645 7.793051616665 1.928280192296
4880 2 -1.200000000000 70.062321191565 5.566465440475 1.928280192296
4881 2 -1.200000000000 71.636755375645 7.793051616665 5.784840576887
4882 2 -1.200000000000 70.062321191565 5.566465440475 5.784840576887
4883 2 -1.200000000000 70.062321191565 8.906344704760 3.856560384591
4884 2 -1.200000000000 68.487887007485 6.679758528570 3.856560384591
4885 1 2.400000000000 81.870577572166 22.265861761899 0.000000000000
4886 1 2.400000000000 78.721709204005 21.152568673804 21.211082115253
4887 1 2.400000000000 78.721709204005 21.152568673804 1.928280192296
4888 1 2.400000000000 78.721709204005 24.492447938089 0.000000000000
4889 2 -1.200000000000 79.508926296046 22.265861761899 0.000000000000
4890 2 -1.200000000000 77.934492111965 20.039275585709 0.000000000000
4891 2 -1.200000000000 77.934492111965 23.379154849994 21.211082115253
4892 2 -1.200000000000 76.360057927885 21.152568673804 21.211082115253
4893 2 -1.200000000000 77.934492111965 23.379154849994 1.928280192296
4894 2 -1.200000000000 76.360057927885 21.152568673804 1.928280192296
4895 2 -1.200000000000 76.360057927885 24.492447938089 0.000000000000
4896 2 -1.200000000000 74.785623743805 22.265861761899 0.000000000000
4897 1 2.400000000000 78.721709204005 17.812689409519 0.000000000000
4898 1 2.400000000000 75.572840835845 16.699396321424 21.211082115253
4899 1 2.400000000000 75.572840835845 16.699396321424 1.928280192296
4900 1 2.400000000000 75.572840835845 20.039275585709 0.000000000000
4901 2 -1.200000000000 76.360057927885 17.812689409519 0.000000000000
4902 2 -1.200000000000 74.785623743805 15.586103233329 0.000000000000
4903 2 -1.200000000000 74.785623743805 18.925982497614 21.211082115253
4904 2 -1.200000000000 73.211189559725 16.699396321424 21.211082115253
4905 2 -1.200000000000 74.785623743805 18.925982497614 1.928280192296
4906 2 -1.200000000000 73.211189559725 16.699396321424 1.928280192296
4907 2 -1.200000000000 73.211189559725 20.039275585709 0.000000000000
4908 2 -1.200000000000 71.636755375645 17.812689409519 0.000000000000
4909 1 2.400000000000 75.572840835845 13.359517057139 0.000000000000
4910 1 2.400000000000 72.423972467685 12.246223969044 21.211082115253
4911 1 2.400000000000 72.423972467685 12.246223969044 1.928280192296
4912 1 2.400000000000 72.423972467685 15.586103233329 0.000000000000
4913 2 -1.200000000000 73.211189559725 13.359517057139 0.000000000000
4914 2 -1.200000000000 71.636755375645 11.132930880950 0.000000000000
4915 2 -1.200000000000 71.636755375645 14.472810145234 21.211082115253
4916 2 -1.200000000000 70.062321191565 12.246223969045 21.211082115253
4917 2 -1.200000000000 71.636755375645 14.472810145234 1.928280192296
4918 2 -1.200000000000 70.062321191565 12.246223969045 1.928280192296
4919 2 -1.200000000000 70.062321191565 15.586103233329 0.000000000000
4920 2 -1.200000000000 68.487887007485 13.359517057139 0.000000000000
4921 1 2.400000000000 97.614919412967 24.492447938089 19.282801922957
4922 1 2.400000000000 94.466051044807 23.379154849994 17.354521730661
4923 1 2.400000000000 94.466051044807 23.379154849994 21.211082115253
4924 1 2.400000000000 94.466051044807 0.000000000000 19.282801922957
4925 2 -1.200000000000 95.253268136847 24.492447938089 19.282801922957
4926 2 -1.200000000000 93.678833952767 22.265861761899 19.282801922957
4927 2 -1.200000000000 93.678833952766 25.605741026184 17.354521730661
4928 2 -1.200000000000 92.104399768686 23.379154849994 17.354521730661
4929 2 -1.200000000000 93.678833952767 25.605741026184 21.211082115253
4930 2 -1.200000000000 92.104399768686 23.379154849994 21.211082115253
4931 2 -1.200000000000 92.104399768686 0.000000000000 19.282801922957
4932 2 -1.200000000000 90.529965584606 24.492447938089 19.282801922957
4933 1 2.400000000000 94.466051044807 20.039275585709 19.282801922957
4934 1 2.400000000000 91.317182676646 18.925982497614 17.354521730661
4935 1 2.400000000000 91.317182676646 18.925982497614 21.211082115253
4936 1 2.400000000000 91.317182676646 22.265861761899 19.282801922957
4937 2 -1.200000000000 92.104399768686 20.039275585709 19.282801922957
4938 2 -1.200000000000 90.529965584606 17.812689409519 19.282801922957
4939 2 -1.200000000000 90.529965584606 21.152568673804 17.354521730661
4940 2 -1.200000000000 88.955531400526 18.925982497614 17.354521730661
4941 2 -1.200000000000 90.529965584606 21.152568673804 21.211082115253
4942 2 -1.200000000000 88.955531400526 18.925982497614 21.211082115253
4943 2 -1.200000000000 88.955531400526 22.265861761899 19.282801922957
4944 2 -1.200000000000 87.381097216446 20.039275585709 19.282801922957
4945 1 2.400000000000 91.317182676646 15.586103233329 19.282801922957
4946 1 2.400000000000 88.168314308486 14.472810145234 17.354521730661
4947 1 2.400000000000 88.168314308486 14.472810145234 21.211082115253
4948 1 2.400000000000 88.168314308486 17.812689409519 19.282801922957
4949 2 -1.200000000000 88.955531400526 15.586103233329 19.282801922957
4950 2 -1.200000000000 87.381097216446 13.359517057139 19.282801922957
4951 2 -1.200000000000 87.381097216446 16.699396321424 17.354521730661
4952 2 -1.200000000000 85.806663032366 14.472810145234 17.354521730661
4953 2 -1.200000000000 87.381097216446 16.699396321424 21.211082115253
4954 2 -1.200000000000 85.806663032366 14.472810145234 21.211082115253
4955 2 -1.200000000000 85.806663032366 17.812689409519 19.282801922957
4956 2 -1.200000000000 84.232228848286 15.586103233329 19.282801922957
4957 1 2.400000000000 88.168314308486 11.132930880950 19.282801922957
4958 1 2.400000000000 85.019445940326 10.019637792855 17.354521730661
4959 1 2.400000000000 85.019445940326 10.019637792855 21.211082115253
4960 1 2.400000000000 85.019445940326 13.359517057139 19.282801922957
4961 2 -1.200000000000 85.806663032366 11.132930880950 19.282801922957
4962 2 -1.200000000000 84.232228848286 8.906344704760 19.282801922957
4963 2 -1.200000000000 84.232228848286 12.246223969045 17.354521730661
4964 2 -1.200000000000 82.657794664206 10.019637792855 17.354521730661
4965 2 -1.200000000000 84.232228848286 12.246223969045 21.211082115253
4966 2 -1.200000000000 82.657794664206 10.019637792855 21.211082115253
4967 2 -1.200000000000 82.657794664206 13.359517057139 19.282801922957
4968 2 -1.200000000000 81.083360480126 11.132930880950 19.282801922957
4969 1 2.400000000000 85.019445940326 6.679758528570 19.282801922957
4970 1 2.400000000000 81.870577572166 5.566465440475 17.354521730661
4971 1 2.400000000000 81.870577572166 5.566465440475 21.211082115253
4972 1 2.400000000000 81.870577572166 8.906344704760 19.282801922957
4973 2 -1.200000000000 82.657794664206 6.679758528570 19.282801922957
4974 2 -1.200000000000 81.083360480126 4.453172352380 19.282801922957
4975 2 -1.200000000000 81.083360480126 7.793051616665 17.354521730661
4976 2 -1.200000000000 79.508926296046 5.566465440475 17.354521730661
4977 2 -1.200000000000 81.083360480126 7.793051616665 21.211082115253
4978 2 -1.200000000000 79.508926296046 5.566465440475 21.211082115253
4979 2 -1.200000000000 79.508926296046 8.906344704760 19.282801922957
4980 2 -1.200000000000 77.934492111965 6.679758528570 19.282801922957
4981 1 2.400000000000 81.870577572166 2.226586176190 19.282801922957
4982 1 2.400000000000 78.721709204005 1.113293088095 17.354521730661
4983 1 2.400000000000 78.721709204005 1.113293088095 21.211082115253
4984 1 2.400000000000 78.721709204005 4.453172352380 19.282801922957
4985 2 -1.200000000000 79.508926296046 2.226586176190 19.282801922957
4986 2 -1.200000000000 77.934492111965 0.000000000000 19.282801922957
4987 2 -1.200000000000 77.934492111965 3.339879264285 17.354521730661
4988 2 -1.200000000000 76.360057927885 1.113293088095 17.354521730661
4989 2 -1.200000000000 77.934492111965 3.339879264285 21.211082115253
4990 2 -1.200000000000 76.360057927885 1.113293088095 21.211082115253
4991 2 -1.200000000000 76.360057927885 4.453172352380 19.282801922957
4992 2 -1.200000000000 74.785623743805 2.226586176190 19.282801922957
4993 1 2.400000000000 91.317182676646 22.265861761899 15.426241538366
4994 1 2.400000000000 88.168314308486 21.152568673804 13.497961346070
4995 1 2.400000000000 88.168314308486 21.152568673804 17.354521730661
4996 1 2.400000000000 88.168314308486 24.492447938089 15.426241538366
4997 2 -1.200000000000 88.955531400526 22.265861761899 15.426241538366
4998 2 -1.200000000000 87.381097216446 20.039275585709 15.426241538366
4999 2 -1.200000000000 87.381097216446 23.379154849994 13.497961346070
5000 2 -1.200000000000 85.806663032366 21.152568673804 13.497961346070
5001 2 -1.200000000000 87.381097216446 23.379154849994 17.354521730661
5002 2 -1.200000000000 85.806663032366 21.152568673804 17.354521730661
5003 2 -1.200000000000 85.806663032366 24.492447938089 15.426241538366
5004 2 -1.200000000000 84.232228848286 22.265861761899 15.426241538366
5005 1 2.400000000000 88.168314308486 17.812689409519 15.426241538366
5006 1 2.400000000000 85.019445940326 16.699396321424 13.497961346070
5007 1 2.400000000000 85.019445940326 16.699396321424 17.354521730661
5008 1 2.400000000000 85.019445940326 20.039275585709 15.426241538366
5009 2 -1.200000000000 85.806663032366 17.812689409519 15.426241538366
5010 2 -1.200000000000 84.232228848286 15.586103233329 15.426241538366
5011 2 -1.200000000000 84.232228848286 18.925982497614 13.497961346070
5012 2 -1.200000000000 82.657794664206 16.699396321424 13.497961346070
5013 2 -1.200000000000 84.232228848286 18.925982497614 17.354521730661
5014 2 -1.200000000000 82.657794664206 16.699396321424 17.354521730661
5015 2 -1.200000000000 82.657794664206 20.039275585709 15.426241538366
5016 2 -1.200000000000 81.083360480126 17.812689409519 15.426241538366
5017 1 2.400000000000 85.019445940326 13.359517057139 15.426241538366
5018 1 2.400000000000 81.870577572166 12.246223969045 13.497961346070
5019 1 2.400000000000 81.870577572166 12.246223969045 17.354521730661
5020 1 2.400000000000 81.870577572166 15.586103233329 15.426241538366
5021 2 -1.200000000000 82.657794664206 13.359517057139 15.426241538366
5022 2 -1.200000000000 81.083360480126 11.132930880950 15.426241538366
5023 2 -1.200000000000 81.083360480126 14.472810145234 13.497961346070
5024 2 -1.200000000000 79.508926296046 12.246223969045 13.497961346070
5025 2 -1.200000000000 81.083360480126 14.472810145234 17.354521730661
5026 2 -1.200000000000 79.508926296046 12.246223969045 17.354521730661
5027 2 -1.200000000000 79.508926296046 15.586103233329 15.426241538366
5028 2 -1.200000000000 77.934492111965 13.359517057139 15.426241538366
5029 1 2.400000000000 81.870577572166 8.906344704760 15.426241538366
5030 1 2.400000000000 78.721709204005 7.793051616665 13.497961346070
5031 1 2.400000000000 78.721709204005 7.793051616665 17.354521730661
5032 1 2.400000000000 78.721709204005 11.132930880950 15.426241538366
5033 2 -1.200000000000 79.508926296046 8.906344704760 15.426241538366
5034 2 -1.200000000000 77.934492111965 6.679758528570 15.426241538366
5035 2 -1.200000000000 77.934492111965 10.019637792855 13.497961346070
5036 2 -1.200000000000 76.360057927885 7.793051616665 13.497961346070
5037 2 -1.200000000000 77.934492111965 10.019637792855 17.354521730661
5038 2 -1.200000000000 76.360057927885 7.793051616665 17.354521730661
5039 2 -1.200000000000 76.360057927885 11.132930880950 15.426241538366
5040 2 -1.200000000000 74.785623743805 8.906344704760 15.426241538366
5041 1 2.400000000000 78.721709204005 4.453172352380 15.426241538366
5042 1 2.400000000000 75.572840835845 3.339879264285 13.497961346070
5043 1 2.400000000000 75.572840835845 3.339879264285 17.354521730661
5044 1 2.400000000000 75.572840835845 6.679758528570 15.426241538366
5045 2 -1.200000000000 76.360057927885 4.453172352380 15.426241538366
5046 2 -1.200000000000 74.785623743805 2.226586176190 15.426241538366
5047 2 -1.200000000000 74.785623743805 5.566465440475 13.497961346070
5048 2 -1.200000000000 73.211189559725 3.339879264285 13.497961346070
5049 2 -1.200000000000 74.785623743805 5.566465440475 17.354521730661
5050 2 -1.200000000000 73.211189559725 3.339879264285 17.354521730661
5051 2 -1.200000000000 73.211189559725 6.679758528570 15.426241538366
5052 2 -1.200000000000 71.636755375645 4.453172352380 15.426241538366
5053 1 2.400000000000 75.572840835845 0.000000000000 15.426241538366
5054 1 2.400000000000 72.423972467685 25.605741026184 13.497961346070
5055 1 2.400000000000 72.423972467685 25.605741026184 17.354521730661
5056 1 2.400000000000 72.423972467685 2.226586176190 15.426241538366
5057 2 -1.200000000000 73.211189559725 0.000000000000 15.426241538366
5058 2 -1.200000000000 71.636755375645 24.492447938089 15.426241538366
5059 2 -1.200000000000 71.636755375645 1.113293088095 13.497961346070
5060 2 -1.200000000000 70.062321191565 25.605741026184 13.497961346070
5061 2 -1.200000000000 71.636755375645 1.113293088095 17.354521730661
5062 2 -1.200000000000 70.062321191565 25.605741026184 17.354521730661
5063 2 -1.200000000000 70.062321191565 2.226586176190 15.426241538366
5064 2 -1.200000000000 68.487887007485 0.000000000000 15.426241538366
5065 1 2.400000000000 88.168314308486 24.492447938089 11.569681153774
5066 1 2.400000000000 85.019445940326 23.379154849994 9.641400961479
5067 1 2.400000000000 85.019445940326 23.379154849994 13.497961346070
5068 1 2.400000000000 85.019445940326 0.000000000000 11.569681153774
5069 2 -1.200000000000 85.806663032366 24.492447938089 11.569681153774
5070 2 -1.200000000000 84.232228848286 22.265861761899 11.569681153774
5071 2 -1.200000000000 84.232228848286 25.605741026184 9.641400961479
5072 2 -1.200000000000 82.657794664206 23.379154849994 9.641400961479
5073 2 -1.200000000000 84.232228848286 25.605741026184 13.497961346070
5074 2 -1.200000000000 82.657794664206 23.379154849994 13.497961346070
5075 2 -1.200000000000 82.657794664206 0.000000000000 11.569681153774
5076 2 -1.200000000000 81.083360480126 24.492447938089 11.569681153774
5077 1 2.400000000000 85.019445940326 20.039275585709 11.569681153774
5078 1 2.400000000000 81.870577572166 18.925982497614 9.641400961479
5079 1 2.400000000000 81.870577572166 18.925982497614 13.497961346070
5080 1 2.400000000000 81.870577572166 22.265861761899 11.569681153774
5081 2 -1.200000000000 82.657794664206 20.039275585709 11.569681153774
5082 2 -1.200000000000 81.083360480126 17.812689409519 11.569681153774
5083 2 -1.200000000000 81.083360480126 21.152568673804 9.641400961479
5084 2 -1.200000000000 79.508926296046 18.925982497614 9.641400961479
5085 2 -1.200000000000 81.083360480126 21.152568673804 13.497961346070
5086 2 -1.200000000000 79.508926296046 18.925982497614 13.497961346070
5087 2 -1.200000000000 79.508926296046 22.265861761899 11.569681153774
5088 2 -1.200000000000 77.934492111965 20.039275585709 11.569681153774
5089 1 2.400000000000 81.870577572166 15.586103233329 11.569681153774
5090 1 2.400000000000 78.721709204005 14.472810145234 9.641400961479
5091 1 2.400000000000 78.721709204005 14.472810145234 13.497961346070
5092 1 2.400000000000 78.721709204005 17.812689409519 11.569681153774
5093 2 -1.200000000000 79.508926296046 15.586103233329 11.569681153774
5094 2 -1.200000000000 77.934492111965 13.359517057139 11.569681153774
5095 2 -1.200000000000 77.934492111965 16.699396321424 9.641400961479
5096 2 -1.200000000000 76.360057927885 14.472810145234 9.641400961479
5097 2 -1.200000000000 77.934492111965 16.699396321424 13.497961346070
5098 2 -1.200000000000 76.360057927885 14.472810145234 13.497961346070
5099 2 -1.200000000000 76.360057927885 17.812689409519 11.569681153774
5100 2 -1.200000000000 74.785623743805 15.586103233329 11.569681153774
5101 1 2.400000000000 78.721709204005 11.132930880950 11.569681153774
5102 1 2.400000000000 75.572840835845 10.019637792855 9.641400961479
5103 1 2.400000000000 75.572840835845 10.019637792855 13.497961346070
5104 1 2.400000000000 75.572840835845 13.359517057139 11.569681153774
5105 2 -1.200000000000 76.360057927885 11.132930880950 11.569681153774
5106 2 -1.200000000000 74.785623743805 8.906344704760 11.569681153774
5107 2 -1.200000000000 74.785623743805 12.246223969044 9.641400961479
5108 2 -1.200000000000 73.211189559725 10.019637792855 9.641400961479
5109 2 -1.200000000000 74.785623743805 12.246223969044 13.497961346070
5110 2 -1.200000000000 73.211189559725 10.019637792855 13.497961346070
5111 2 -1.200000000000 73.211189559725 13.359517057139 11.569681153774
5112 2 -1.200000000000 71.636755375645 11.132930880950 11.569681153774
5113 1 2.400000000000 75.572840835845 6.679758528570 11.569681153774
5114 1 2.400000000000 72.423972467685 5.566465440475 9.641400961479
5115 1 2.400000000000 72.423972467685 5.566465440475 13.497961346070
5116 1 2.400000000000 72.423972467685 8.906344704760 11.569681153774
5117 2 -1.200000000000 73.211189559725 6.679758528570 11.569681153774
5118 2 -1.200000000000 71.636755375645 4.453172352380 11.569681153774
5119 2 -1.200000000000 71.636755375645 7.793051616665 9.641400961479
5120 2 -1.200000000000 70.062321191565 5.566465440475 9.641400961479
5121 2 -1.200000000000 71.636755375645 7.793051616665 13.497961346070
5122 2 -1.200000000000 70.062321191565 5.566465440475 13.497961346070
5123 2 -1.200000000000 70.062321191565 8.906344704760 11.569681153774
5124 2 -1.200000000000 68.487887007485 6.679758528570 11.569681153774
5125 1 2.400000000000 81.870577572166 22.265861761899 7.713120769183
5126 1 2.400000000000 78.721709204005 21.152568673804 5.784840576887
5127 1 2.400000000000 78.721709204005 21.152568673804 9.641400961479
5128 1 2.400000000000 78.721709204005 24.492447938089 7.713120769183
5129 2 -1.200000000000 79.508926296046 22.265861761899 7.713120769183
5130 2 -1.200000000000 77.934492111965 20.039275585709 7.713120769183
5131 2 -1.200000000000 77.934492111965 23.379154849994 5.784840576887
5132 2 -1.200000000000 76.360057927885 21.152568673804 5.784840576887
5133 2 -1.200000000000 77.934492111965 23.379154849994 9.641400961479
5134 2 -1.200000000000 76.360057927885 21.152568673804 9.641400961479
5135 2 -1.200000000000 76.360057927885 24.492447938089 7.713120769183
5136 2 -1.200000000000 74.785623743805 22.265861761899 7.713120769183
5137 1 2.400000000000 78.721709204005 17.812689409519 7.713120769183
5138 1 2.400000000000 75.572840835845 16.699396321424 5.784840576887
5139 1 2.400000000000 75.572840835845 16.699396321424 9.641400961479
5140 1 2.400000000000 75.572840835845 20.039275585709 7.713120769183
5141 2 -1.200000000000 76.360057927885 17.812689409519 7.713120769183
5142 2 -1.200000000000 74.785623743805 15.586103233329 7.713120769183
5143 2 -1.200000000000 74.785623743805 18.925982497614 5.784840576887
5144 2 -1.200000000000 73.211189559725 16.699396321424 5.784840576887
5145 2 -1.200000000000 74.785623743805 18.925982497614 9.641400961479
5146 2 -1.200000000000 73.211189559725 16.699396321424 9.641400961479
5147 2 -1.200000000000 73.211189559725 20.039275585709 7.713120769183
5148 2 -1.200000000000 71.636755375645 17.812689409519 7.713120769183
5149 1 2.400000000000 75.572840835845 13.359517057139 7.713120769183
5150 1 2.400000000000 72.423972467685 12.246223969044 5.784840576887
5151 1 2.400000000000 72.423972467685 12.246223969044 9.641400961479
5152 1 2.400000000000 72.423972467685 15.586103233329 7.713120769183
5153 2 -1.200000000000 73.211189559725 13.359517057139 7.713120769183
5154 2 -1.200000000000 71.636755375645 11.132930880950 7.713120769183
5155 2 -1.200000000000 71.636755375645 14.472810145234 5.784840576887
5156 2 -1.200000000000 70.062321191565 12.246223969045 5.784840576887
5157 2 -1.200000000000 71.636755375645 14.472810145234 9.641400961479
5158 2 -1.200000000000 70.062321191565 12.246223969045 9.641400961479
5159 2 -1.200000000000 70.062321191565 15.586103233329 7.713120769183
5160 2 -1.200000000000 68.487887007485 13.359517057139 7.713120769183
5161 1 2.400000000000 78.721709204005 24.492447938089 3.856560384591
5162 1 2.400000000000 75.572840835845 23.379154849994 1.928280192296
5163 1 2.400000000000 75.572840835845 23.379154849994 5.784840576887
5164 1 2.400000000000 75.572840835845 0.000000000000 3.856560384591
5165 2 -1.200000000000 76.360057927885 24.492447938089 3.856560384591
5166 2 -1.200000000000 74.785623743805 22.265861761899 3.856560384591
5167 2 -1.200000000000 74.785623743805 25.605741026184 1.928280192296
5168 2 -1.200000000000 73.211189559725 23.379154849994 1.928280192296
5169 2 -1.200000000000 74.785623743805 25.605741026184 5.784840576887
5170 2 -1.200000000000 73.211189559725 23.379154849994 5.784840576887
5171 2 -1.200000000000 73.211189559725 0.000000000000 3.856560384591
5172 2 -1.200000000000 71.636755375645 24.492447938089 3.856560384591
5173 1 2.400000000000 75.572840835845 20.039275585709 3.856560384591
5174 1 2.400000000000 72.423972467685 18.925982497614 1.928280192296
5175 1 2.400000000000 72.423972467685 18.925982497614 5.784840576887
5176 1 2.400000000000 72.423972467685 22.265861761899 3.856560384591
5177 2 -1.200000000000 73.211189559725 20.039275585709 3.856560384591
5178 2 -1.200000000000 71.636755375645 17.812689409519 3.856560384591
5179 2 -1.200000000000 71.636755375645 21.152568673804 1.928280192296
5180 2 -1.200000000000 70.062321191565 18.925982497614 1.928280192296
5181 2 -1.200000000000 71.636755375645 21.152568673804 5.784840576887
5182 2 -1.200000000000 70.062321191565 18.925982497614 5.784840576887
5183 2 -1.200000000000 70.062321191565 22.265861761899 3.856560384591
5184 2 -1.200000000000 68.487887007485 20.039275585709 3.856560384591
5185 1 2.400000000000 88.168314308486 24.492447938089 19.282801922957
5186 1 2.400000000000 85.019445940326 23.379154849994 17.354521730661
5187 1 2.400000000000 85.019445940326 23.379154849994 21.211082115253
5188 1 2.400000000000 85.019445940326 0.000000000000 19.282801922957
5189 2 -1.200000000000 85.806663032366 24.492447938089 19.282801922957
5190 2 -1.200000000000 84.232228848286 22.265861761899 19.282801922957
5191 2 -1.200000000000 84.232228848286 25.605741026184 17.354521730661
5192 2 -1.200000000000 82.657794664206 23.379154849994 17.354521730661
5193 2 -1.200000000000 84.232228848286 25.605741026184 21.211082115253
5194 2 -1.200000000000 82.657794664206 23.379154849994 21.211082115253
5195 2 -1.200000000000 82.657794664206 0.000000000000 19.282801922957
5196 2 -1.200000000000 81.083360480126 24.492447938089 19.282801922957
5197 1 2.400000000000 85.019445940326 20.039275585709 19.282801922957
5198 1 2.400000000000 81.870577572166 18.925982497614 17.354521730661
5199 1 2.400000000000 81.870577572166 18.925982497614 21.211082115253
5200 1 2.400000000000 81.870577572166 22.265861761899 19.282801922957
5201 2 -1.200000000000 82.657794664206 20.039275585709 19.282801922957
5202 2 -1.200000000000 81.083360480126 17.812689409519 19.282801922957
5203 2 -1.200000000000 81.083360480126 21.152568673804 17.354521730661
5204 2 -1.200000000000 79.508926296046 18.925982497614 17.354521730661
5205 2 -1.200000000000 81.083360480126 21.152568673804 21.211082115253
5206 2 -1.200000000000 79.508926296046 18.925982497614 21.211082115253
5207 2 -1.200000000000 79.508926296046 22.265861761899 19.282801922957
5208 2 -1.200000000000 77.934492111965 20.039275585709 19.282801922957
5209 1 2.400000000000 81.870577572166 15.586103233329 19.282801922957
5210 1 2.400000000000 78.721709204005 14.472810145234 17.354521730661
5211 1 2.400000000000 78.721709204005 14.472810145234 21.211082115253
5212 1 2.400000000000 78.721709204005 17.812689409519 19.282801922957
5213 2 -1.200000000000 79.508926296046 15.586103233329 19.282801922957
5214 2 -1.200000000000 77.934492111965 13.359517057139 19.282801922957
5215 2 -1.200000000000 77.934492111965 16.699396321424 17.354521730661
5216 2 -1.200000000000 76.360057927885 14.472810145234 17.354521730661
5217 2 -1.200000000000 77.934492111965 16.699396321424 21.211082115253
5218 2 -1.200000000000 76.360057927885 14.472810145234 21.211082115253
5219 2 -1.200000000000 76.360057927885 17.812689409519 19.282801922957
5220 2 -1.200000000000 74.785623743805 15.586103233329 19.282801922957
5221 1 2.400000000000 78.721709204005 11.132930880950 19.282801922957
5222 1 2.400000000000 75.572840835845 10.019637792855 17.354521730661
5223 1 2.400000000000 75.572840835845 10.019637792855 21.211082115253
5224 1 2.400000000000 75.572840835845 13.359517057139 19.282801922957
5225 2 -1.200000000000 76.360057927885 11.132930880950 19.282801922957
5226 2 -1.200000000000 74.785623743805 8.906344704760 19.282801922957
5227 2 -1.200000000000 74.785623743805 12.246223969044 17.354521730661
5228 2 -1.200000000000 73.211189559725 10.019637792855 17.354521730661
5229 2 -1.200000000000 74.785623743805 12.246223969045 21.211082115253
5230 2 -1.200000000000 73.211189559725 10.019637792855 21.211082115253
5231 2 -1.200000000000 73.211189559725 13.359517057139 19.282801922957
5232 2 -1.200000000000 71.636755375645 11.132930880950 19.282801922957
5233 1 2.400000000000 75.572840835845 6.679758528570 19.282801922957
5234 1 2.400000000000 72.423972467685 5.566465440475 17.354521730661
5235 1 2.400000000000 72.423972467685 5.566465440475 21.211082115253
5236 1 2.400000000000 72.423972467685 8.906344704760 19.282801922957
5237 2 -1.200000000000 73.211189559725 6.679758528570 19.282801922957
5238 2 -1.200000000000 71.636755375645 4.453172352380 19.282801922957
5239 2 -1.200000000000 71.636755375645 7.793051616665 17.354521730661
5240 2 -1.200000000000 70.062321191565 5.566465440475 17.354521730661
5241 2 -1.200000000000 71.636755375645 7.793051616665 21.211082115253
5242 2 -1.200000000000 70.062321191565 5.566465440475 21.211082115253
5243 2 -1.200000000000 70.062321191565 8.906344704760 19.282801922957
5244 2 -1.200000000000 68.487887007485 6.679758528570 19.282801922957
5245 1 2.400000000000 81.870577572166 22.265861761899 15.426241538366
5246 1 2.400000000000 78.721709204005 21.152568673804 13.497961346070
5247 1 2.400000000000 78.721709204005 21.152568673804 17.354521730661
5248 1 2.400000000000 78.721709204005 24.492447938089 15.426241538366
5249 2 -1.200000000000 79.508926296046 22.265861761899 15.426241538366
5250 2 -1.200000000000 77.934492111965 20.039275585709 15.426241538366
5251 2 -1.200000000000 77.934492111965 23.379154849994 13.497961346070
5252 2 -1.200000000000 76.360057927885 21.152568673804 13.497961346070
5253 2 -1.200000000000 77.934492111965 23.379154849994 17.354521730661
5254 2 -1.200000000000 76.360057927885 21.152568673804 17.354521730661
5255 2 -1.200000000000 76.360057927885 24.492447938089 15.426241538366
5256 2 -1.200000000000 74.785623743805 22.265861761899 15.426241538366
5257 1 2.400000000000 78.721709204005 17.812689409519 15.426241538366
5258 1 2.400000000000 75.572840835845 16.699396321424 13.497961346070
5259 1 2.400000000000 75.572840835845 16.699396321424 17.354521730661
5260 1 2.400000000000 75.572840835845 20.039275585709 15.426241538366
5261 2 -1.200000000000 76.360057927885 17.812689409519 15.426241538366
5262 2 -1.200000000000 74.785623743805 15.586103233329 15.426241538366
5263 2 -1.200000000000 74.785623743805 18.925982497614 13.497961346070
5264 2 -1.200000000000 73.211189559725 16.699396321424 13.497961346070
5265 2 -1.200000000000 74.785623743805 18.925982497614 17.354521730661
5266 2 -1.200000000000 73.211189559725 16.699396321424 17.354521730661
5267 2 -1.200000000000 73.211189559725 20.039275585709 15.426241538366
5268 2 -1.200000000000 71.636755375645 17.812689409519 15.426241538366
5269 1 2.400000000000 75.572840835845 13.359517057139 15.426241538366
5270 1 2.400000000000 72.423972467685 12.246223969044 13.497961346070
5271 1 2.400000000000 72.423972467685 12.246223969044 17.354521730661
5272 1 2.400000000000 72.423972467685 15.586103233329 15.426241538366
5273 2 -1.200000000000 73.211189559725 13.359517057139 15.426241538366
5274 2 -1.200000000000 71.636755375645 11.132930880950 15.426241538366
5275 2 -1.200000000000 71.636755375645 14.472810145234 13.497961346070
5276 2 -1.200000000000 70.062321191565 12.246223969045 13.497961346070
5277 2 -1.200000000000 71.636755375645 14.472810145234 17.354521730661
5278 2 -1.200000000000 70.062321191565 12.246223969045 17.354521730661
5279 2 -1.200000000000 70.062321191565 15.586103233329 15.426241538366
5280 2 -1.200000000000 68.487887007485 13.359517057139 15.426241538366
5281 1 2.400000000000 78.721709204005 24.492447938089 11.569681153774
5282 1 2.400000000000 75.572840835845 23.379154849994 9.641400961479
5283 1 2.400000000000 75.572840835845 23.379154849994 13.497961346070
5284 1 2.400000000000 75.572840835845 0.000000000000 11.569681153774
5285 2 -1.200000000000 76.360057927885 24.492447938089 11.569681153774
5286 2 -1.200000000000 74.785623743805 22.265861761899 11.569681153774
5287 2 -1.200000000000 74.785623743805 25.605741026184 9.641400961479
5288 2 -1.200000000000 73.211189559725 23.379154849994 9.641400961479
5289 2 -1.200000000000 74.785623743805 25.605741026184 13.497961346070
5290 2 -1.200000000000 73.211189559725 23.379154849994 13.497961346070
5291 2 -1.200000000000 73.211189559725 0.000000000000 11.569681153774
5292 2 -1.200000000000 71.636755375645 24.492447938089 11.569681153774
5293 1 2.400000000000 75.572840835845 20.039275585709 11.569681153774
5294 1 2.400000000000 72.423972467685 18.925982497614 9.641400961479
5295 1 2.400000000000 72.423972467685 18.925982497614 13.497961346070
5296 1 2.400000000000 72.423972467685 22.265861761899 11.569681153774
5297 2 -1.200000000000 73.211189559725 20.039275585709 11.569681153774
5298 2 -1.200000000000 71.636755375645 17.812689409519 11.569681153774
5299 2 -1.200000000000 71.636755375645 21.152568673804 9.641400961479
5300 2 -1.200000000000 70.062321191565 18.925982497614 9.641400961479
5301 2 -1.200000000000 71.636755375645 21.152568673804 13.497961346070
5302 2 -1.200000000000 70.062321191565 18.925982497614 13.497961346070
5303 2 -1.200000000000 70.062321191565 22.265861761899 11.569681153774
5304 2 -1.200000000000 68.487887007485 20.039275585709 11.569681153774
5305 1 2.400000000000 78.721709204005 24.492447938089 19.282801922957
5306 1 2.400000000000 75.572840835845 23.379154849994 17.354521730661
5307 1 2.400000000000 75.572840835845 23.379154849994 21.211082115253
5308 1 2.400000000000 75.572840835845 0.000000000000 19.282801922957
5309 2 -1.200000000000 76.360057927885 24.492447938089 19.282801922957
5310 2 -1.200000000000 74.785623743805 22.265861761899 19.282801922957
5311 2 -1.200000000000 74.785623743805 25.605741026184 17.354521730661
5312 2 -1.200000000000 73.211189559725 23.379154849994 17.354521730661
5313 2 -1.200000000000 74.785623743805 25.605741026184 21.211082115253
5314 2 -1.200000000000 73.211189559725 23.379154849994 21.211082115253
5315 2 -1.200000000000 73.211189559725 0.000000000000 19.282801922957
5316 2 -1.200000000000 71.636755375645 24.492447938089 19.282801922957
5317 1 2.400000000000 75.572840835845 20.039275585709 19.282801922957
5318 1 2.400000000000 72.423972467685 18.925982497614 17.354521730661
5319 1 2.400000000000 72.423972467685 18.925982497614 21.211082115253
5320 1 2.400000000000 72.423972467685 22.265861761899 19.282801922957
5321 2 -1.200000000000 73.211189559725 20.039275585709 19.282801922957
5322 2 -1.200000000000 71.636755375645 17.812689409519 19.282801922957
5323 2 -1.200000000000 71.636755375645 21.152568673804 17.354521730661
5324 2 -1.200000000000 70.062321191565 18.925982497614 17.354521730661
5325 2 -1.200000000000 71.636755375645 21.152568673804 21.211082115253
5326 2 -1.200000000000 70.062321191565 18.925982497614 21.211082115253
5327 2 -1.200000000000 70.062321191565 22.265861761899 19.282801922957
5328 2 -1.200000000000 68.487887007485 20.039275585709 19.282801922957
