Crystalline OU atoms

6120 atoms
2 atom types
0.000000000000 123.409932306926 xlo xhi
0.000000000000 31.802011634486 ylo yhi
0.000000000000 22.487418082119 zlo zhi

Atoms

1 1 2.400000000000 3.856560384591 2.806059850102 19.841839484222
2 1 2.400000000000 1.928280192296 6.079796341887 20.503234133696
3 1 2.400000000000 5.784840576887 6.079796341887 20.503234133696
4 1 2.400000000000 3.856560384591 5.612119700203 17.196260886326
5 2 -1.200000000000 3.856560384591 5.144443058520 19.511142159485
6 2 -1.200000000000 3.856560384591 7.015149625254 21.495326107908
7 2 -1.200000000000 1.928280192296 6.547472983571 18.188352860537
8 2 -1.200000000000 1.928280192296 8.418179550305 20.172536808959
9 2 -1.200000000000 5.784840576887 6.547472983571 18.188352860537
10 2 -1.200000000000 5.784840576887 8.418179550305 20.172536808959
11 2 -1.200000000000 3.856560384591 7.950502908622 16.865563561589
12 2 -1.200000000000 3.856560384591 9.821209475356 18.849747510011
13 1 2.400000000000 11.569681153774 2.806059850102 19.841839484222
14 1 2.400000000000 9.641400961479 6.079796341887 20.503234133696
15 1 2.400000000000 13.497961346070 6.079796341887 20.503234133696
16 1 2.400000000000 11.569681153774 5.612119700203 17.196260886326
17 2 -1.200000000000 11.569681153774 5.144443058520 19.511142159485
18 2 -1.200000000000 11.569681153774 7.015149625254 21.495326107908
19 2 -1.200000000000 9.641400961479 6.547472983571 18.188352860537
20 2 -1.200000000000 9.641400961479 8.418179550305 20.172536808959
21 2 -1.200000000000 13.497961346070 6.547472983571 18.188352860537
22 2 -1.200000000000 13.497961346070 8.418179550305 20.172536808959
23 2 -1.200000000000 11.569681153774 7.950502908622 16.865563561589
24 2 -1.200000000000 11.569681153774 9.821209475356 18.849747510011
25 1 2.400000000000 7.713120769183 1.870706566734 13.227892989482
26 1 2.400000000000 5.784840576887 5.144443058520 13.889287638956
27 1 2.400000000000 9.641400961479 5.144443058520 13.889287638956
28 1 2.400000000000 7.713120769183 4.676766416836 10.582314391585
29 2 -1.200000000000 7.713120769183 4.209089775153 12.897195664745
30 2 -1.200000000000 7.713120769183 6.079796341887 14.881379613167
31 2 -1.200000000000 5.784840576887 5.612119700203 11.574406365796
32 2 -1.200000000000 5.784840576887 7.482826266938 13.558590314219
33 2 -1.200000000000 9.641400961479 5.612119700203 11.574406365796
34 2 -1.200000000000 9.641400961479 7.482826266938 13.558590314219
35 2 -1.200000000000 7.713120769183 7.015149625254 10.251617066848
36 2 -1.200000000000 7.713120769183 8.885856191989 12.235801015270
37 1 2.400000000000 7.713120769183 5.612119700203 17.196260886326
38 1 2.400000000000 5.784840576887 8.885856191989 17.857655535800
39 1 2.400000000000 9.641400961479 8.885856191989 17.857655535800
40 1 2.400000000000 7.713120769183 8.418179550305 14.550682288430
41 2 -1.200000000000 7.713120769183 7.950502908622 16.865563561589
42 2 -1.200000000000 7.713120769183 9.821209475356 18.849747510011
43 2 -1.200000000000 5.784840576887 9.353532833672 15.542774262641
44 2 -1.200000000000 5.784840576887 11.224239400407 17.526958211063
45 2 -1.200000000000 9.641400961479 9.353532833672 15.542774262641
46 2 -1.200000000000 9.641400961479 11.224239400407 17.526958211063
47 2 -1.200000000000 7.713120769183 10.756562758723 14.219984963693
48 2 -1.200000000000 7.713120769183 12.627269325458 16.204168912115
49 1 2.400000000000 7.713120769183 9.353532833672 21.164628783171
50 1 2.400000000000 5.784840576887 12.627269325458 21.826023432645
51 1 2.400000000000 9.641400961479 12.627269325458 21.826023432645
52 1 2.400000000000 7.713120769183 12.159592683774 18.519050185274
53 2 -1.200000000000 7.713120769183 11.691916042091 20.833931458434
54 2 -1.200000000000 7.713120769183 13.562622608825 0.330697324737
55 2 -1.200000000000 5.784840576887 13.094945967141 19.511142159485
56 2 -1.200000000000 5.784840576887 14.965652533876 21.495326107908
57 2 -1.200000000000 9.641400961479 13.094945967141 19.511142159485
58 2 -1.200000000000 9.641400961479 14.965652533876 21.495326107908
59 2 -1.200000000000 7.713120769183 14.497975892192 18.188352860537
60 2 -1.200000000000 7.713120769183 16.368682458927 20.172536808959
61 1 2.400000000000 3.856560384591 0.935353283367 6.613946494741
62 1 2.400000000000 1.928280192296 4.209089775153 7.275341144215
63 1 2.400000000000 5.784840576887 4.209089775153 7.275341144215
64 1 2.400000000000 3.856560384591 3.741413133469 3.968367896844
65 2 -1.200000000000 3.856560384591 3.273736491785 6.283249170004
66 2 -1.200000000000 3.856560384591 5.144443058520 8.267433118426
67 2 -1.200000000000 1.928280192296 4.676766416836 4.960459871056
68 2 -1.200000000000 1.928280192296 6.547472983571 6.944643819478
69 2 -1.200000000000 5.784840576887 4.676766416836 4.960459871056
70 2 -1.200000000000 5.784840576887 6.547472983571 6.944643819478
71 2 -1.200000000000 3.856560384591 6.079796341887 3.637670572107
72 2 -1.200000000000 3.856560384591 7.950502908622 5.621854520530
73 1 2.400000000000 3.856560384591 4.676766416836 10.582314391585
74 1 2.400000000000 1.928280192296 7.950502908622 11.243709041059
75 1 2.400000000000 5.784840576887 7.950502908622 11.243709041059
76 1 2.400000000000 3.856560384591 7.482826266938 7.936735793689
77 2 -1.200000000000 3.856560384591 7.015149625254 10.251617066848
78 2 -1.200000000000 3.856560384591 8.885856191989 12.235801015270
79 2 -1.200000000000 1.928280192296 8.418179550305 8.928827767900
80 2 -1.200000000000 1.928280192296 10.288886117040 10.913011716322
81 2 -1.200000000000 5.784840576887 8.418179550305 8.928827767900
82 2 -1.200000000000 5.784840576887 10.288886117040 10.913011716322
83 2 -1.200000000000 3.856560384591 9.821209475356 7.606038468952
84 2 -1.200000000000 3.856560384591 11.691916042091 9.590222417374
85 1 2.400000000000 3.856560384591 8.418179550305 14.550682288430
86 1 2.400000000000 1.928280192296 11.691916042091 15.212076937904
87 1 2.400000000000 5.784840576887 11.691916042091 15.212076937904
88 1 2.400000000000 3.856560384591 11.224239400407 11.905103690533
89 2 -1.200000000000 3.856560384591 10.756562758723 14.219984963693
90 2 -1.200000000000 3.856560384591 12.627269325458 16.204168912115
91 2 -1.200000000000 1.928280192296 12.159592683774 12.897195664745
92 2 -1.200000000000 1.928280192296 14.030299250509 14.881379613167
93 2 -1.200000000000 5.784840576887 12.159592683774 12.897195664745
94 2 -1.200000000000 5.784840576887 14.030299250509 14.881379613167
95 2 -1.200000000000 3.856560384591 13.562622608825 11.574406365796
96 2 -1.200000000000 3.856560384591 15.433329175560 13.558590314219
97 1 2.400000000000 3.856560384591 12.159592683774 18.519050185274
98 1 2.400000000000 1.928280192296 15.433329175560 19.180444834748
99 1 2.400000000000 5.784840576887 15.433329175560 19.180444834748
100 1 2.400000000000 3.856560384591 14.965652533876 15.873471587378
101 2 -1.200000000000 3.856560384591 14.497975892192 18.188352860537
102 2 -1.200000000000 3.856560384591 16.368682458927 20.172536808959
103 2 -1.200000000000 1.928280192296 15.901005817243 16.865563561589
104 2 -1.200000000000 1.928280192296 17.771712383978 18.849747510011
105 2 -1.200000000000 5.784840576887 15.901005817243 16.865563561589
106 2 -1.200000000000 5.784840576887 17.771712383978 18.849747510011
107 2 -1.200000000000 3.856560384591 17.304035742294 15.542774262641
108 2 -1.200000000000 3.856560384591 19.174742309028 17.526958211063
109 1 2.400000000000 19.282801922957 2.806059850102 19.841839484222
110 1 2.400000000000 17.354521730661 6.079796341887 20.503234133696
111 1 2.400000000000 21.211082115253 6.079796341887 20.503234133696
112 1 2.400000000000 19.282801922957 5.612119700203 17.196260886326
113 2 -1.200000000000 19.282801922957 5.144443058520 19.511142159485
114 2 -1.200000000000 19.282801922957 7.015149625254 21.495326107908
115 2 -1.200000000000 17.354521730661 6.547472983571 18.188352860537
116 2 -1.200000000000 17.354521730661 8.418179550305 20.172536808959
117 2 -1.200000000000 21.211082115253 6.547472983571 18.188352860537
118 2 -1.200000000000 21.211082115253 8.418179550305 20.172536808959
119 2 -1.200000000000 19.282801922957 7.950502908622 16.865563561589
120 2 -1.200000000000 19.282801922957 9.821209475356 18.849747510011
121 1 2.400000000000 15.426241538366 1.870706566734 13.227892989482
122 1 2.400000000000 13.497961346070 5.144443058520 13.889287638956
123 1 2.400000000000 17.354521730661 5.144443058520 13.889287638956
124 1 2.400000000000 15.426241538366 4.676766416836 10.582314391585
125 2 -1.200000000000 15.426241538366 4.209089775153 12.897195664745
126 2 -1.200000000000 15.426241538366 6.079796341887 14.881379613167
127 2 -1.200000000000 13.497961346070 5.612119700203 11.574406365796
128 2 -1.200000000000 13.497961346070 7.482826266938 13.558590314219
129 2 -1.200000000000 17.354521730661 5.612119700203 11.574406365796
130 2 -1.200000000000 17.354521730661 7.482826266938 13.558590314219
131 2 -1.200000000000 15.426241538366 7.015149625254 10.251617066848
132 2 -1.200000000000 15.426241538366 8.885856191989 12.235801015270
133 1 2.400000000000 15.426241538366 5.612119700203 17.196260886326
134 1 2.400000000000 13.497961346070 8.885856191989 17.857655535800
135 1 2.400000000000 17.354521730661 8.885856191989 17.857655535800
136 1 2.400000000000 15.426241538366 8.418179550305 14.550682288430
137 2 -1.200000000000 15.426241538366 7.950502908622 16.865563561589
138 2 -1.200000000000 15.426241538366 9.821209475356 18.849747510011
139 2 -1.200000000000 13.497961346070 9.353532833672 15.542774262641
140 2 -1.200000000000 13.497961346070 11.224239400407 17.526958211063
141 2 -1.200000000000 17.354521730661 9.353532833672 15.542774262641
142 2 -1.200000000000 17.354521730661 11.224239400407 17.526958211063
143 2 -1.200000000000 15.426241538366 10.756562758723 14.219984963693
144 2 -1.200000000000 15.426241538366 12.627269325458 16.204168912115
145 1 2.400000000000 15.426241538366 9.353532833672 21.164628783171
146 1 2.400000000000 13.497961346070 12.627269325458 21.826023432645
147 1 2.400000000000 17.354521730661 12.627269325458 21.826023432645
148 1 2.400000000000 15.426241538366 12.159592683774 18.519050185274
149 2 -1.200000000000 15.426241538366 11.691916042091 20.833931458434
150 2 -1.200000000000 15.426241538366 13.562622608825 0.330697324737
151 2 -1.200000000000 13.497961346070 13.094945967141 19.511142159485
152 2 -1.200000000000 13.497961346070 14.965652533876 21.495326107908
153 2 -1.200000000000 17.354521730661 13.094945967141 19.511142159485
154 2 -1.200000000000 17.354521730661 14.965652533876 21.495326107908
155 2 -1.200000000000 15.426241538366 14.497975892192 18.188352860537
156 2 -1.200000000000 15.426241538366 16.368682458927 20.172536808959
157 1 2.400000000000 11.569681153774 0.935353283367 6.613946494741
158 1 2.400000000000 9.641400961479 4.209089775153 7.275341144215
159 1 2.400000000000 13.497961346070 4.209089775153 7.275341144215
160 1 2.400000000000 11.569681153774 3.741413133469 3.968367896844
161 2 -1.200000000000 11.569681153774 3.273736491785 6.283249170004
162 2 -1.200000000000 11.569681153774 5.144443058520 8.267433118426
163 2 -1.200000000000 9.641400961479 4.676766416836 4.960459871056
164 2 -1.200000000000 9.641400961479 6.547472983571 6.944643819478
165 2 -1.200000000000 13.497961346070 4.676766416836 4.960459871056
166 2 -1.200000000000 13.497961346070 6.547472983571 6.944643819478
167 2 -1.200000000000 11.569681153774 6.079796341887 3.637670572107
168 2 -1.200000000000 11.569681153774 7.950502908622 5.621854520530
169 1 2.400000000000 11.569681153774 4.676766416836 10.582314391585
170 1 2.400000000000 9.641400961479 7.950502908622 11.243709041059
171 1 2.400000000000 13.497961346070 7.950502908622 11.243709041059
172 1 2.400000000000 11.569681153774 7.482826266938 7.936735793689
173 2 -1.200000000000 11.569681153774 7.015149625254 10.251617066848
174 2 -1.200000000000 11.569681153774 8.885856191989 12.235801015270
175 2 -1.200000000000 9.641400961479 8.418179550305 8.928827767900
176 2 -1.200000000000 9.641400961479 10.288886117040 10.913011716322
177 2 -1.200000000000 13.497961346070 8.418179550305 8.928827767900
178 2 -1.200000000000 13.497961346070 10.288886117040 10.913011716322
179 2 -1.200000000000 11.569681153774 9.821209475356 7.606038468952
180 2 -1.200000000000 11.569681153774 11.691916042091 9.590222417374
181 1 2.400000000000 11.569681153774 8.418179550305 14.550682288430
182 1 2.400000000000 9.641400961479 11.691916042091 15.212076937904
183 1 2.400000000000 13.497961346070 11.691916042091 15.212076937904
184 1 2.400000000000 11.569681153774 11.224239400407 11.905103690533
185 2 -1.200000000000 11.569681153774 10.756562758723 14.219984963693
186 2 -1.200000000000 11.569681153774 12.627269325458 16.204168912115
187 2 -1.200000000000 9.641400961479 12.159592683774 12.897195664745
188 2 -1.200000000000 9.641400961479 14.030299250509 14.881379613167
189 2 -1.200000000000 13.497961346070 12.159592683774 12.897195664745
190 2 -1.200000000000 13.497961346070 14.030299250509 14.881379613167
191 2 -1.200000000000 11.569681153774 13.562622608825 11.574406365796
192 2 -1.200000000000 11.569681153774 15.433329175560 13.558590314219
193 1 2.400000000000 11.569681153774 12.159592683774 18.519050185274
194 1 2.400000000000 9.641400961479 15.433329175560 19.180444834748
195 1 2.400000000000 13.497961346070 15.433329175560 19.180444834748
196 1 2.400000000000 11.569681153774 14.965652533876 15.873471587378
197 2 -1.200000000000 11.569681153774 14.497975892192 18.188352860537
198 2 -1.200000000000 11.569681153774 16.368682458927 20.172536808959
199 2 -1.200000000000 9.641400961479 15.901005817243 16.865563561589
200 2 -1.200000000000 9.641400961479 17.771712383978 18.849747510011
201 2 -1.200000000000 13.497961346070 15.901005817243 16.865563561589
202 2 -1.200000000000 13.497961346070 17.771712383978 18.849747510011
203 2 -1.200000000000 11.569681153774 17.304035742294 15.542774262641
204 2 -1.200000000000 11.569681153774 19.174742309028 17.526958211063
205 1 2.400000000000 7.713120769183 0.000000000000 0.000000000000
206 1 2.400000000000 5.784840576887 3.273736491785 0.661394649474
207 1 2.400000000000 9.641400961479 3.273736491785 0.661394649474
208 1 2.400000000000 7.713120769183 2.806059850102 19.841839484222
209 2 -1.200000000000 7.713120769183 2.338383208418 22.156720757382
210 2 -1.200000000000 7.713120769183 4.209089775153 1.653486623685
211 2 -1.200000000000 5.784840576887 3.741413133469 20.833931458434
212 2 -1.200000000000 5.784840576887 5.612119700203 0.330697324737
213 2 -1.200000000000 9.641400961479 3.741413133469 20.833931458434
214 2 -1.200000000000 9.641400961479 5.612119700203 0.330697324737
215 2 -1.200000000000 7.713120769183 5.144443058520 19.511142159485
216 2 -1.200000000000 7.713120769183 7.015149625254 21.495326107908
217 1 2.400000000000 7.713120769183 3.741413133469 3.968367896844
218 1 2.400000000000 5.784840576887 7.015149625254 4.629762546319
219 1 2.400000000000 9.641400961479 7.015149625254 4.629762546319
220 1 2.400000000000 7.713120769183 6.547472983571 1.322789298948
221 2 -1.200000000000 7.713120769183 6.079796341887 3.637670572107
222 2 -1.200000000000 7.713120769183 7.950502908622 5.621854520530
223 2 -1.200000000000 5.784840576887 7.482826266938 2.314881273159
224 2 -1.200000000000 5.784840576887 9.353532833672 4.299065221582
225 2 -1.200000000000 9.641400961479 7.482826266938 2.314881273159
226 2 -1.200000000000 9.641400961479 9.353532833672 4.299065221582
227 2 -1.200000000000 7.713120769183 8.885856191989 0.992091974211
228 2 -1.200000000000 7.713120769183 10.756562758723 2.976275922633
229 1 2.400000000000 7.713120769183 7.482826266938 7.936735793689
230 1 2.400000000000 5.784840576887 10.756562758723 8.598130443163
231 1 2.400000000000 9.641400961479 10.756562758723 8.598130443163
232 1 2.400000000000 7.713120769183 10.288886117040 5.291157195793
233 2 -1.200000000000 7.713120769183 9.821209475356 7.606038468952
234 2 -1.200000000000 7.713120769183 11.691916042091 9.590222417374
235 2 -1.200000000000 5.784840576887 11.224239400407 6.283249170004
236 2 -1.200000000000 5.784840576887 13.094945967141 8.267433118426
237 2 -1.200000000000 9.641400961479 11.224239400407 6.283249170004
238 2 -1.200000000000 9.641400961479 13.094945967141 8.267433118426
239 2 -1.200000000000 7.713120769183 12.627269325458 4.960459871056
240 2 -1.200000000000 7.713120769183 14.497975892192 6.944643819478
241 1 2.400000000000 7.713120769183 11.224239400407 11.905103690533
242 1 2.400000000000 5.784840576887 14.497975892192 12.566498340008
243 1 2.400000000000 9.641400961479 14.497975892192 12.566498340008
244 1 2.400000000000 7.713120769183 14.030299250509 9.259525092637
245 2 -1.200000000000 7.713120769183 13.562622608825 11.574406365796
246 2 -1.200000000000 7.713120769183 15.433329175560 13.558590314219
247 2 -1.200000000000 5.784840576887 14.965652533876 10.251617066848
248 2 -1.200000000000 5.784840576887 16.836359100610 12.235801015270
249 2 -1.200000000000 9.641400961479 14.965652533876 10.251617066848
250 2 -1.200000000000 9.641400961479 16.836359100610 12.235801015270
251 2 -1.200000000000 7.713120769183 16.368682458927 8.928827767900
252 2 -1.200000000000 7.713120769183 18.239389025661 10.913011716322
253 1 2.400000000000 7.713120769183 14.965652533876 15.873471587378
254 1 2.400000000000 5.784840576887 18.239389025661 16.534866236852
255 1 2.400000000000 9.641400961479 18.239389025661 16.534866236852
256 1 2.400000000000 7.713120769183 17.771712383978 13.227892989482
257 2 -1.200000000000 7.713120769183 17.304035742294 15.542774262641
258 2 -1.200000000000 7.713120769183 19.174742309028 17.526958211063
259 2 -1.200000000000 5.784840576887 18.707065667345 14.219984963693
260 2 -1.200000000000 5.784840576887 20.577772234079 16.204168912115
261 2 -1.200000000000 9.641400961479 18.707065667345 14.219984963693
262 2 -1.200000000000 9.641400961479 20.577772234079 16.204168912115
263 2 -1.200000000000 7.713120769183 20.110095592396 12.897195664745
264 2 -1.200000000000 7.713120769183 21.980802159130 14.881379613167
265 1 2.400000000000 7.713120769183 18.707065667345 19.841839484222
266 1 2.400000000000 5.784840576887 21.980802159130 20.503234133696
267 1 2.400000000000 9.641400961479 21.980802159130 20.503234133696
268 1 2.400000000000 7.713120769183 21.513125517447 17.196260886326
269 2 -1.200000000000 7.713120769183 21.045448875763 19.511142159485
270 2 -1.200000000000 7.713120769183 22.916155442497 21.495326107908
271 2 -1.200000000000 5.784840576887 22.448478800814 18.188352860537
272 2 -1.200000000000 5.784840576887 24.319185367548 20.172536808959
273 2 -1.200000000000 9.641400961479 22.448478800814 18.188352860537
274 2 -1.200000000000 9.641400961479 24.319185367548 20.172536808959
275 2 -1.200000000000 7.713120769183 23.851508725865 16.865563561589
276 2 -1.200000000000 7.713120769183 25.722215292599 18.849747510011
277 1 2.400000000000 3.856560384591 6.547472983571 1.322789298948
278 1 2.400000000000 1.928280192296 9.821209475356 1.984183948422
279 1 2.400000000000 5.784840576887 9.821209475356 1.984183948422
280 1 2.400000000000 3.856560384591 9.353532833672 21.164628783171
281 2 -1.200000000000 3.856560384591 8.885856191989 0.992091974211
282 2 -1.200000000000 3.856560384591 10.756562758723 2.976275922633
283 2 -1.200000000000 1.928280192296 10.288886117040 22.156720757382
284 2 -1.200000000000 1.928280192296 12.159592683774 1.653486623685
285 2 -1.200000000000 5.784840576887 10.288886117040 22.156720757382
286 2 -1.200000000000 5.784840576887 12.159592683774 1.653486623685
287 2 -1.200000000000 3.856560384591 11.691916042091 20.833931458434
288 2 -1.200000000000 3.856560384591 13.562622608825 0.330697324737
289 1 2.400000000000 3.856560384591 10.288886117040 5.291157195793
290 1 2.400000000000 1.928280192296 13.562622608825 5.952551845267
291 1 2.400000000000 5.784840576887 13.562622608825 5.952551845267
292 1 2.400000000000 3.856560384591 13.094945967141 2.645578597896
293 2 -1.200000000000 3.856560384591 12.627269325458 4.960459871056
294 2 -1.200000000000 3.856560384591 14.497975892192 6.944643819478
295 2 -1.200000000000 1.928280192296 14.030299250509 3.637670572107
296 2 -1.200000000000 1.928280192296 15.901005817243 5.621854520530
297 2 -1.200000000000 5.784840576887 14.030299250509 3.637670572107
298 2 -1.200000000000 5.784840576887 15.901005817243 5.621854520530
299 2 -1.200000000000 3.856560384591 15.433329175560 2.314881273159
300 2 -1.200000000000 3.856560384591 17.304035742294 4.299065221582
301 1 2.400000000000 3.856560384591 14.030299250509 9.259525092637
302 1 2.400000000000 1.928280192296 17.304035742294 9.920919742111
303 1 2.400000000000 5.784840576887 17.304035742294 9.920919742111
304 1 2.400000000000 3.856560384591 16.836359100610 6.613946494741
305 2 -1.200000000000 3.856560384591 16.368682458927 8.928827767900
306 2 -1.200000000000 3.856560384591 18.239389025661 10.913011716322
307 2 -1.200000000000 1.928280192296 17.771712383978 7.606038468952
308 2 -1.200000000000 1.928280192296 19.642418950712 9.590222417374
309 2 -1.200000000000 5.784840576887 17.771712383978 7.606038468952
310 2 -1.200000000000 5.784840576887 19.642418950712 9.590222417374
311 2 -1.200000000000 3.856560384591 19.174742309028 6.283249170004
312 2 -1.200000000000 3.856560384591 21.045448875763 8.267433118426
313 1 2.400000000000 3.856560384591 17.771712383978 13.227892989482
314 1 2.400000000000 1.928280192296 21.045448875763 13.889287638956
315 1 2.400000000000 5.784840576887 21.045448875763 13.889287638956
316 1 2.400000000000 3.856560384591 20.577772234079 10.582314391585
317 2 -1.200000000000 3.856560384591 20.110095592396 12.897195664745
318 2 -1.200000000000 3.856560384591 21.980802159130 14.881379613167
319 2 -1.200000000000 1.928280192296 21.513125517447 11.574406365796
320 2 -1.200000000000 1.928280192296 23.383832084181 13.558590314219
321 2 -1.200000000000 5.784840576887 21.513125517447 11.574406365796
322 2 -1.200000000000 5.784840576887 23.383832084181 13.558590314219
323 2 -1.200000000000 3.856560384591 22.916155442497 10.251617066848
324 2 -1.200000000000 3.856560384591 24.786862009232 12.235801015270
325 1 2.400000000000 3.856560384591 21.513125517447 17.196260886326
326 1 2.400000000000 1.928280192296 24.786862009232 17.857655535800
327 1 2.400000000000 5.784840576887 24.786862009232 17.857655535800
328 1 2.400000000000 3.856560384591 24.319185367548 14.550682288430
329 2 -1.200000000000 3.856560384591 23.851508725865 16.865563561589
330 2 -1.200000000000 3.856560384591 25.722215292599 18.849747510011
331 2 -1.200000000000 1.928280192296 25.254538650916 15.542774262641
332 2 -1.200000000000 1.928280192296 27.125245217650 17.526958211063
333 2 -1.200000000000 5.784840576887 25.254538650916 15.542774262641
334 2 -1.200000000000 5.784840576887 27.125245217650 17.526958211063
335 2 -1.200000000000 3.856560384591 26.657568575966 14.219984963693
336 2 -1.200000000000 3.856560384591 28.528275142701 16.204168912115
337 1 2.400000000000 3.856560384591 25.254538650916 21.164628783171
338 1 2.400000000000 1.928280192296 28.528275142701 21.826023432645
339 1 2.400000000000 5.784840576887 28.528275142701 21.826023432645
340 1 2.400000000000 3.856560384591 28.060598501017 18.519050185274
341 2 -1.200000000000 3.856560384591 27.592921859334 20.833931458434
342 2 -1.200000000000 3.856560384591 29.463628426068 0.330697324737
343 2 -1.200000000000 1.928280192296 28.995951784385 19.511142159485
344 2 -1.200000000000 1.928280192296 30.866658351119 21.495326107908
345 2 -1.200000000000 5.784840576887 28.995951784385 19.511142159485
346 2 -1.200000000000 5.784840576887 30.866658351119 21.495326107908
347 2 -1.200000000000 3.856560384591 30.398981709435 18.188352860537
348 2 -1.200000000000 3.856560384591 0.467676641684 20.172536808959
349 1 2.400000000000 26.995922692140 2.806059850102 19.841839484222
350 1 2.400000000000 25.067642499844 6.079796341887 20.503234133696
351 1 2.400000000000 28.924202884436 6.079796341887 20.503234133696
352 1 2.400000000000 26.995922692140 5.612119700203 17.196260886326
353 2 -1.200000000000 26.995922692140 5.144443058520 19.511142159485
354 2 -1.200000000000 26.995922692140 7.015149625254 21.495326107908
355 2 -1.200000000000 25.067642499844 6.547472983571 18.188352860537
356 2 -1.200000000000 25.067642499844 8.418179550305 20.172536808959
357 2 -1.200000000000 28.924202884436 6.547472983571 18.188352860537
358 2 -1.200000000000 28.924202884436 8.418179550305 20.172536808959
359 2 -1.200000000000 26.995922692140 7.950502908622 16.865563561589
360 2 -1.200000000000 26.995922692140 9.821209475356 18.849747510011
361 1 2.400000000000 23.139362307549 1.870706566734 13.227892989482
362 1 2.400000000000 21.211082115253 5.144443058520 13.889287638956
363 1 2.400000000000 25.067642499844 5.144443058520 13.889287638956
364 1 2.400000000000 23.139362307549 4.676766416836 10.582314391585
365 2 -1.200000000000 23.139362307549 4.209089775153 12.897195664745
366 2 -1.200000000000 23.139362307549 6.079796341887 14.881379613167
367 2 -1.200000000000 21.211082115253 5.612119700203 11.574406365796
368 2 -1.200000000000 21.211082115253 7.482826266938 13.558590314219
369 2 -1.200000000000 25.067642499844 5.612119700203 11.574406365796
370 2 -1.200000000000 25.067642499844 7.482826266938 13.558590314219
371 2 -1.200000000000 23.139362307549 7.015149625254 10.251617066848
372 2 -1.200000000000 23.139362307549 8.885856191989 12.235801015270
373 1 2.400000000000 23.139362307549 5.612119700203 17.196260886326
374 1 2.400000000000 21.211082115253 8.885856191989 17.857655535800
375 1 2.400000000000 25.067642499844 8.885856191989 17.857655535800
376 1 2.400000000000 23.139362307549 8.418179550305 14.550682288430
377 2 -1.200000000000 23.139362307549 7.950502908622 16.865563561589
378 2 -1.200000000000 23.139362307549 9.821209475356 18.849747510011
379 2 -1.200000000000 21.211082115253 9.353532833672 15.542774262641
380 2 -1.200000000000 21.211082115253 11.224239400407 17.526958211063
381 2 -1.200000000000 25.067642499844 9.353532833672 15.542774262641
382 2 -1.200000000000 25.067642499844 11.224239400407 17.526958211063
383 2 -1.200000000000 23.139362307549 10.756562758723 14.219984963693
384 2 -1.200000000000 23.139362307549 12.627269325458 16.204168912115
385 1 2.400000000000 23.139362307549 9.353532833672 21.164628783171
386 1 2.400000000000 21.211082115253 12.627269325458 21.826023432645
387 1 2.400000000000 25.067642499844 12.627269325458 21.826023432645
388 1 2.400000000000 23.139362307549 12.159592683774 18.519050185274
389 2 -1.200000000000 23.139362307549 11.691916042091 20.833931458434
390 2 -1.200000000000 23.139362307549 13.562622608825 0.330697324737
391 2 -1.200000000000 21.211082115253 13.094945967141 19.511142159485
392 2 -1.200000000000 21.211082115253 14.965652533876 21.495326107908
393 2 -1.200000000000 25.067642499844 13.094945967141 19.511142159485
394 2 -1.200000000000 25.067642499844 14.965652533876 21.495326107908
395 2 -1.200000000000 23.139362307549 14.497975892192 18.188352860537
396 2 -1.200000000000 23.139362307549 16.368682458927 20.172536808959
397 1 2.400000000000 19.282801922957 0.935353283367 6.613946494741
398 1 2.400000000000 17.354521730661 4.209089775153 7.275341144215
399 1 2.400000000000 21.211082115253 4.209089775153 7.275341144215
400 1 2.400000000000 19.282801922957 3.741413133469 3.968367896844
401 2 -1.200000000000 19.282801922957 3.273736491785 6.283249170004
402 2 -1.200000000000 19.282801922957 5.144443058520 8.267433118426
403 2 -1.200000000000 17.354521730661 4.676766416836 4.960459871056
404 2 -1.200000000000 17.354521730661 6.547472983571 6.944643819478
405 2 -1.200000000000 21.211082115253 4.676766416836 4.960459871056
406 2 -1.200000000000 21.211082115253 6.547472983571 6.944643819478
407 2 -1.200000000000 19.282801922957 6.079796341887 3.637670572107
408 2 -1.200000000000 19.282801922957 7.950502908622 5.621854520530
409 1 2.400000000000 19.282801922957 4.676766416836 10.582314391585
410 1 2.400000000000 17.354521730661 7.950502908622 11.243709041059
411 1 2.400000000000 21.211082115253 7.950502908622 11.243709041059
412 1 2.400000000000 19.282801922957 7.482826266938 7.936735793689
413 2 -1.200000000000 19.282801922957 7.015149625254 10.251617066848
414 2 -1.200000000000 19.282801922957 8.885856191989 12.235801015270
415 2 -1.200000000000 17.354521730661 8.418179550305 8.928827767900
416 2 -1.200000000000 17.354521730661 10.288886117040 10.913011716322
417 2 -1.200000000000 21.211082115253 8.418179550305 8.928827767900
418 2 -1.200000000000 21.211082115253 10.288886117040 10.913011716322
419 2 -1.200000000000 19.282801922957 9.821209475356 7.606038468952
420 2 -1.200000000000 19.282801922957 11.691916042091 9.590222417374
421 1 2.400000000000 19.282801922957 8.418179550305 14.550682288430
422 1 2.400000000000 17.354521730661 11.691916042091 15.212076937904
423 1 2.400000000000 21.211082115253 11.691916042091 15.212076937904
424 1 2.400000000000 19.282801922957 11.224239400407 11.905103690533
425 2 -1.200000000000 19.282801922957 10.756562758723 14.219984963693
426 2 -1.200000000000 19.282801922957 12.627269325458 16.204168912115
427 2 -1.200000000000 17.354521730661 12.159592683774 12.897195664745
428 2 -1.200000000000 17.354521730661 14.030299250509 14.881379613167
429 2 -1.200000000000 21.211082115253 12.159592683774 12.897195664745
430 2 -1.200000000000 21.211082115253 14.030299250509 14.881379613167
431 2 -1.200000000000 19.282801922957 13.562622608825 11.574406365796
432 2 -1.200000000000 19.282801922957 15.433329175560 13.558590314219
433 1 2.400000000000 19.282801922957 12.159592683774 18.519050185274
434 1 2.400000000000 17.354521730661 15.433329175560 19.180444834748
435 1 2.400000000000 21.211082115253 15.433329175560 19.180444834748
436 1 2.400000000000 19.282801922957 14.965652533876 15.873471587378
437 2 -1.200000000000 19.282801922957 14.497975892192 18.188352860537
438 2 -1.200000000000 19.282801922957 16.368682458927 20.172536808959
439 2 -1.200000000000 17.354521730661 15.901005817243 16.865563561589
440 2 -1.200000000000 17.354521730661 17.771712383978 18.849747510011
441 2 -1.200000000000 21.211082115253 15.901005817243 16.865563561589
442 2 -1.200000000000 21.211082115253 17.771712383978 18.849747510011
443 2 -1.200000000000 19.282801922957 17.304035742294 15.542774262641
444 2 -1.200000000000 19.282801922957 19.174742309028 17.526958211063
445 1 2.400000000000 15.426241538366 0.000000000000 0.000000000000
446 1 2.400000000000 13.497961346070 3.273736491785 0.661394649474
447 1 2.400000000000 17.354521730661 3.273736491785 0.661394649474
448 1 2.400000000000 15.426241538366 2.806059850102 19.841839484222
449 2 -1.200000000000 15.426241538366 2.338383208418 22.156720757382
450 2 -1.200000000000 15.426241538366 4.209089775153 1.653486623685
451 2 -1.200000000000 13.497961346070 3.741413133469 20.833931458434
452 2 -1.200000000000 13.497961346070 5.612119700203 0.330697324737
453 2 -1.200000000000 17.354521730661 3.741413133469 20.833931458434
454 2 -1.200000000000 17.354521730661 5.612119700203 0.330697324737
455 2 -1.200000000000 15.426241538366 5.144443058520 19.511142159485
456 2 -1.200000000000 15.426241538366 7.015149625254 21.495326107908
457 1 2.400000000000 15.426241538366 3.741413133469 3.968367896844
458 1 2.400000000000 13.497961346070 7.015149625254 4.629762546319
459 1 2.400000000000 17.354521730661 7.015149625254 4.629762546319
460 1 2.400000000000 15.426241538366 6.547472983571 1.322789298948
461 2 -1.200000000000 15.426241538366 6.079796341887 3.637670572107
462 2 -1.200000000000 15.426241538366 7.950502908622 5.621854520530
463 2 -1.200000000000 13.497961346070 7.482826266938 2.314881273159
464 2 -1.200000000000 13.497961346070 9.353532833672 4.299065221582
465 2 -1.200000000000 17.354521730661 7.482826266938 2.314881273159
466 2 -1.200000000000 17.354521730661 9.353532833672 4.299065221582
467 2 -1.200000000000 15.426241538366 8.885856191989 0.992091974211
468 2 -1.200000000000 15.426241538366 10.756562758723 2.976275922633
469 1 2.400000000000 15.426241538366 7.482826266938 7.936735793689
470 1 2.400000000000 13.497961346070 10.756562758723 8.598130443163
471 1 2.400000000000 17.354521730661 10.756562758723 8.598130443163
472 1 2.400000000000 15.426241538366 10.288886117040 5.291157195793
473 2 -1.200000000000 15.426241538366 9.821209475356 7.606038468952
474 2 -1.200000000000 15.426241538366 11.691916042091 9.590222417374
475 2 -1.200000000000 13.497961346070 11.224239400407 6.283249170004
476 2 -1.200000000000 13.497961346070 13.094945967141 8.267433118426
477 2 -1.200000000000 17.354521730661 11.224239400407 6.283249170004
478 2 -1.200000000000 17.354521730661 13.094945967141 8.267433118426
479 2 -1.200000000000 15.426241538366 12.627269325458 4.960459871056
480 2 -1.200000000000 15.426241538366 14.497975892192 6.944643819478
481 1 2.400000000000 15.426241538366 11.224239400407 11.905103690533
482 1 2.400000000000 13.497961346070 14.497975892192 12.566498340008
483 1 2.400000000000 17.354521730661 14.497975892192 12.566498340008
484 1 2.400000000000 15.426241538366 14.030299250509 9.259525092637
485 2 -1.200000000000 15.426241538366 13.562622608825 11.574406365796
486 2 -1.200000000000 15.426241538366 15.433329175560 13.558590314219
487 2 -1.200000000000 13.497961346070 14.965652533876 10.251617066848
488 2 -1.200000000000 13.497961346070 16.836359100610 12.235801015270
489 2 -1.200000000000 17.354521730661 14.965652533876 10.251617066848
490 2 -1.200000000000 17.354521730661 16.836359100610 12.235801015270
491 2 -1.200000000000 15.426241538366 16.368682458927 8.928827767900
492 2 -1.200000000000 15.426241538366 18.239389025661 10.913011716322
493 1 2.400000000000 15.426241538366 14.965652533876 15.873471587378
494 1 2.400000000000 13.497961346070 18.239389025661 16.534866236852
495 1 2.400000000000 17.354521730661 18.239389025661 16.534866236852
496 1 2.400000000000 15.426241538366 17.771712383978 13.227892989482
497 2 -1.200000000000 15.426241538366 17.304035742294 15.542774262641
498 2 -1.200000000000 15.426241538366 19.174742309028 17.526958211063
499 2 -1.200000000000 13.497961346070 18.707065667345 14.219984963693
500 2 -1.200000000000 13.497961346070 20.577772234079 16.204168912115
501 2 -1.200000000000 17.354521730661 18.707065667345 14.219984963693
502 2 -1.200000000000 17.354521730661 20.577772234079 16.204168912115
503 2 -1.200000000000 15.426241538366 20.110095592396 12.897195664745
504 2 -1.200000000000 15.426241538366 21.980802159130 14.881379613167
505 1 2.400000000000 15.426241538366 18.707065667345 19.841839484222
506 1 2.400000000000 13.497961346070 21.980802159130 20.503234133696
507 1 2.400000000000 17.354521730661 21.980802159130 20.503234133696
508 1 2.400000000000 15.426241538366 21.513125517447 17.196260886326
509 2 -1.200000000000 15.426241538366 21.045448875763 19.511142159485
510 2 -1.200000000000 15.426241538366 22.916155442497 21.495326107908
511 2 -1.200000000000 13.497961346070 22.448478800814 18.188352860537
512 2 -1.200000000000 13.497961346070 24.319185367548 20.172536808959
513 2 -1.200000000000 17.354521730661 22.448478800814 18.188352860537
514 2 -1.200000000000 17.354521730661 24.319185367548 20.172536808959
515 2 -1.200000000000 15.426241538366 23.851508725865 16.865563561589
516 2 -1.200000000000 15.426241538366 25.722215292599 18.849747510011
517 1 2.400000000000 11.569681153774 6.547472983571 1.322789298948
518 1 2.400000000000 9.641400961479 9.821209475356 1.984183948422
519 1 2.400000000000 13.497961346070 9.821209475356 1.984183948422
520 1 2.400000000000 11.569681153774 9.353532833672 21.164628783171
521 2 -1.200000000000 11.569681153774 8.885856191989 0.992091974211
522 2 -1.200000000000 11.569681153774 10.756562758723 2.976275922633
523 2 -1.200000000000 9.641400961479 10.288886117040 22.156720757382
524 2 -1.200000000000 9.641400961479 12.159592683774 1.653486623685
525 2 -1.200000000000 13.497961346070 10.288886117040 22.156720757382
526 2 -1.200000000000 13.497961346070 12.159592683774 1.653486623685
527 2 -1.200000000000 11.569681153774 11.691916042091 20.833931458434
528 2 -1.200000000000 11.569681153774 13.562622608825 0.330697324737
529 1 2.400000000000 11.569681153774 10.288886117040 5.291157195793
530 1 2.400000000000 9.641400961479 13.562622608825 5.952551845267
531 1 2.400000000000 13.497961346070 13.562622608825 5.952551845267
532 1 2.400000000000 11.569681153774 13.094945967141 2.645578597896
533 2 -1.200000000000 11.569681153774 12.627269325458 4.960459871056
534 2 -1.200000000000 11.569681153774 14.497975892192 6.944643819478
535 2 -1.200000000000 9.641400961479 14.030299250509 3.637670572107
536 2 -1.200000000000 9.641400961479 15.901005817243 5.621854520530
537 2 -1.200000000000 13.497961346070 14.030299250509 3.637670572107
538 2 -1.200000000000 13.497961346070 15.901005817243 5.621854520530
539 2 -1.200000000000 11.569681153774 15.433329175560 2.314881273159
540 2 -1.200000000000 11.569681153774 17.304035742294 4.299065221582
541 1 2.400000000000 11.569681153774 14.030299250509 9.259525092637
542 1 2.400000000000 9.641400961479 17.304035742294 9.920919742111
543 1 2.400000000000 13.497961346070 17.304035742294 9.920919742111
544 1 2.400000000000 11.569681153774 16.836359100610 6.613946494741
545 2 -1.200000000000 11.569681153774 16.368682458927 8.928827767900
546 2 -1.200000000000 11.569681153774 18.239389025661 10.913011716322
547 2 -1.200000000000 9.641400961479 17.771712383978 7.606038468952
548 2 -1.200000000000 9.641400961479 19.642418950712 9.590222417374
549 2 -1.200000000000 13.497961346070 17.771712383978 7.606038468952
550 2 -1.200000000000 13.497961346070 19.642418950712 9.590222417374
551 2 -1.200000000000 11.569681153774 19.174742309028 6.283249170004
552 2 -1.200000000000 11.569681153774 21.045448875763 8.267433118426
553 1 2.400000000000 11.569681153774 17.771712383978 13.227892989482
554 1 2.400000000000 9.641400961479 21.045448875763 13.889287638956
555 1 2.400000000000 13.497961346070 21.045448875763 13.889287638956
556 1 2.400000000000 11.569681153774 20.577772234079 10.582314391585
557 2 -1.200000000000 11.569681153774 20.110095592396 12.897195664745
558 2 -1.200000000000 11.569681153774 21.980802159130 14.881379613167
559 2 -1.200000000000 9.641400961479 21.513125517447 11.574406365796
560 2 -1.200000000000 9.641400961479 23.383832084181 13.558590314219
561 2 -1.200000000000 13.497961346070 21.513125517447 11.574406365796
562 2 -1.200000000000 13.497961346070 23.383832084181 13.558590314219
563 2 -1.200000000000 11.569681153774 22.916155442497 10.251617066848
564 2 -1.200000000000 11.569681153774 24.786862009232 12.235801015270
565 1 2.400000000000 11.569681153774 21.513125517447 17.196260886326
566 1 2.400000000000 9.641400961479 24.786862009232 17.857655535800
567 1 2.400000000000 13.497961346070 24.786862009232 17.857655535800
568 1 2.400000000000 11.569681153774 24.319185367548 14.550682288430
569 2 -1.200000000000 11.569681153774 23.851508725865 16.865563561589
570 2 -1.200000000000 11.569681153774 25.722215292599 18.849747510011
571 2 -1.200000000000 9.641400961479 25.254538650916 15.542774262641
572 2 -1.200000000000 9.641400961479 27.125245217650 17.526958211063
573 2 -1.200000000000 13.497961346070 25.254538650916 15.542774262641
574 2 -1.200000000000 13.497961346070 27.125245217650 17.526958211063
575 2 -1.200000000000 11.569681153774 26.657568575966 14.219984963693
576 2 -1.200000000000 11.569681153774 28.528275142701 16.204168912115
577 1 2.400000000000 11.569681153774 25.254538650916 21.164628783171
578 1 2.400000000000 9.641400961479 28.528275142701 21.826023432645
579 1 2.400000000000 13.497961346070 28.528275142701 21.826023432645
580 1 2.400000000000 11.569681153774 28.060598501017 18.519050185274
581 2 -1.200000000000 11.569681153774 27.592921859334 20.833931458434
582 2 -1.200000000000 11.569681153774 29.463628426068 0.330697324737
583 2 -1.200000000000 9.641400961479 28.995951784385 19.511142159485
584 2 -1.200000000000 9.641400961479 30.866658351119 21.495326107908
585 2 -1.200000000000 13.497961346070 28.995951784385 19.511142159485
586 2 -1.200000000000 13.497961346070 30.866658351119 21.495326107908
587 2 -1.200000000000 11.569681153774 30.398981709435 18.188352860537
588 2 -1.200000000000 11.569681153774 0.467676641684 20.172536808959
589 1 2.400000000000 7.713120769183 13.094945967141 2.645578597896
590 1 2.400000000000 5.784840576887 16.368682458927 3.306973247370
591 1 2.400000000000 9.641400961479 16.368682458927 3.306973247370
592 1 2.400000000000 7.713120769183 15.901005817243 -0.000000000000
593 2 -1.200000000000 7.713120769183 15.433329175560 2.314881273159
594 2 -1.200000000000 7.713120769183 17.304035742294 4.299065221582
595 2 -1.200000000000 5.784840576887 16.836359100610 0.992091974211
596 2 -1.200000000000 5.784840576887 18.707065667345 2.976275922633
597 2 -1.200000000000 9.641400961479 16.836359100610 0.992091974211
598 2 -1.200000000000 9.641400961479 18.707065667345 2.976275922633
599 2 -1.200000000000 7.713120769183 18.239389025661 22.156720757382
600 2 -1.200000000000 7.713120769183 20.110095592396 1.653486623685
601 1 2.400000000000 7.713120769183 16.836359100610 6.613946494741
602 1 2.400000000000 5.784840576887 20.110095592396 7.275341144215
603 1 2.400000000000 9.641400961479 20.110095592396 7.275341144215
604 1 2.400000000000 7.713120769183 19.642418950712 3.968367896844
605 2 -1.200000000000 7.713120769183 19.174742309028 6.283249170004
606 2 -1.200000000000 7.713120769183 21.045448875763 8.267433118426
607 2 -1.200000000000 5.784840576887 20.577772234079 4.960459871056
608 2 -1.200000000000 5.784840576887 22.448478800814 6.944643819478
609 2 -1.200000000000 9.641400961479 20.577772234079 4.960459871056
610 2 -1.200000000000 9.641400961479 22.448478800814 6.944643819478
611 2 -1.200000000000 7.713120769183 21.980802159130 3.637670572107
612 2 -1.200000000000 7.713120769183 23.851508725865 5.621854520530
613 1 2.400000000000 7.713120769183 20.577772234079 10.582314391585
614 1 2.400000000000 5.784840576887 23.851508725865 11.243709041059
615 1 2.400000000000 9.641400961479 23.851508725865 11.243709041059
616 1 2.400000000000 7.713120769183 23.383832084181 7.936735793689
617 2 -1.200000000000 7.713120769183 22.916155442497 10.251617066848
618 2 -1.200000000000 7.713120769183 24.786862009232 12.235801015270
619 2 -1.200000000000 5.784840576887 24.319185367548 8.928827767900
620 2 -1.200000000000 5.784840576887 26.189891934283 10.913011716322
621 2 -1.200000000000 9.641400961479 24.319185367548 8.928827767900
622 2 -1.200000000000 9.641400961479 26.189891934283 10.913011716322
623 2 -1.200000000000 7.713120769183 25.722215292599 7.606038468952
624 2 -1.200000000000 7.713120769183 27.592921859334 9.590222417374
625 1 2.400000000000 7.713120769183 24.319185367548 14.550682288430
626 1 2.400000000000 5.784840576887 27.592921859334 15.212076937904
627 1 2.400000000000 9.641400961479 27.592921859334 15.212076937904
628 1 2.400000000000 7.713120769183 27.125245217650 11.905103690533
629 2 -1.200000000000 7.713120769183 26.657568575966 14.219984963693
630 2 -1.200000000000 7.713120769183 28.528275142701 16.204168912115
631 2 -1.200000000000 5.784840576887 28.060598501017 12.897195664745
632 2 -1.200000000000 5.784840576887 29.931305067752 14.881379613167
633 2 -1.200000000000 9.641400961479 28.060598501017 12.897195664745
634 2 -1.200000000000 9.641400961479 29.931305067752 14.881379613167
635 2 -1.200000000000 7.713120769183 29.463628426068 11.574406365796
636 2 -1.200000000000 7.713120769183 31.334334992803 13.558590314219
637 1 2.400000000000 7.713120769183 28.060598501017 18.519050185274
638 1 2.400000000000 5.784840576887 31.334334992803 19.180444834748
639 1 2.400000000000 9.641400961479 31.334334992803 19.180444834748
640 1 2.400000000000 7.713120769183 30.866658351119 15.873471587378
641 2 -1.200000000000 7.713120769183 30.398981709435 18.188352860537
642 2 -1.200000000000 7.713120769183 0.467676641684 20.172536808959
643 2 -1.200000000000 5.784840576887 0.000000000000 16.865563561589
644 2 -1.200000000000 5.784840576887 1.870706566734 18.849747510011
645 2 -1.200000000000 9.641400961479 0.000000000000 16.865563561589
646 2 -1.200000000000 9.641400961479 1.870706566734 18.849747510011
647 2 -1.200000000000 7.713120769183 1.403029925051 15.542774262641
648 2 -1.200000000000 7.713120769183 3.273736491785 17.526958211063
649 1 2.400000000000 3.856560384591 15.901005817243 -0.000000000000
650 1 2.400000000000 1.928280192296 19.174742309028 0.661394649474
651 1 2.400000000000 5.784840576887 19.174742309028 0.661394649474
652 1 2.400000000000 3.856560384591 18.707065667345 19.841839484222
653 2 -1.200000000000 3.856560384591 18.239389025661 22.156720757382
654 2 -1.200000000000 3.856560384591 20.110095592396 1.653486623685
655 2 -1.200000000000 1.928280192296 19.642418950712 20.833931458434
656 2 -1.200000000000 1.928280192296 21.513125517447 0.330697324737
657 2 -1.200000000000 5.784840576887 19.642418950712 20.833931458434
658 2 -1.200000000000 5.784840576887 21.513125517447 0.330697324737
659 2 -1.200000000000 3.856560384591 21.045448875763 19.511142159485
660 2 -1.200000000000 3.856560384591 22.916155442497 21.495326107908
661 1 2.400000000000 3.856560384591 19.642418950712 3.968367896844
662 1 2.400000000000 1.928280192296 22.916155442497 4.629762546319
663 1 2.400000000000 5.784840576887 22.916155442497 4.629762546319
664 1 2.400000000000 3.856560384591 22.448478800814 1.322789298948
665 2 -1.200000000000 3.856560384591 21.980802159130 3.637670572107
666 2 -1.200000000000 3.856560384591 23.851508725865 5.621854520530
667 2 -1.200000000000 1.928280192296 23.383832084181 2.314881273159
668 2 -1.200000000000 1.928280192296 25.254538650916 4.299065221582
669 2 -1.200000000000 5.784840576887 23.383832084181 2.314881273159
670 2 -1.200000000000 5.784840576887 25.254538650916 4.299065221582
671 2 -1.200000000000 3.856560384591 24.786862009232 0.992091974211
672 2 -1.200000000000 3.856560384591 26.657568575966 2.976275922633
673 1 2.400000000000 3.856560384591 23.383832084181 7.936735793689
674 1 2.400000000000 1.928280192296 26.657568575966 8.598130443163
675 1 2.400000000000 5.784840576887 26.657568575966 8.598130443163
676 1 2.400000000000 3.856560384591 26.189891934283 5.291157195793
677 2 -1.200000000000 3.856560384591 25.722215292599 7.606038468952
678 2 -1.200000000000 3.856560384591 27.592921859334 9.590222417374
679 2 -1.200000000000 1.928280192296 27.125245217650 6.283249170004
680 2 -1.200000000000 1.928280192296 28.995951784385 8.267433118426
681 2 -1.200000000000 5.784840576887 27.125245217650 6.283249170004
682 2 -1.200000000000 5.784840576887 28.995951784385 8.267433118426
683 2 -1.200000000000 3.856560384591 28.528275142701 4.960459871056
684 2 -1.200000000000 3.856560384591 30.398981709435 6.944643819478
685 1 2.400000000000 3.856560384591 27.125245217650 11.905103690533
686 1 2.400000000000 1.928280192296 30.398981709435 12.566498340008
687 1 2.400000000000 5.784840576887 30.398981709435 12.566498340008
688 1 2.400000000000 3.856560384591 29.931305067752 9.259525092637
689 2 -1.200000000000 3.856560384591 29.463628426068 11.574406365796
690 2 -1.200000000000 3.856560384591 31.334334992803 13.558590314219
691 2 -1.200000000000 1.928280192296 30.866658351119 10.251617066848
692 2 -1.200000000000 1.928280192296 0.935353283367 12.235801015270
693 2 -1.200000000000 5.784840576887 30.866658351119 10.251617066848
694 2 -1.200000000000 5.784840576887 0.935353283367 12.235801015270
695 2 -1.200000000000 3.856560384591 0.467676641684 8.928827767900
696 2 -1.200000000000 3.856560384591 2.338383208418 10.913011716322
697 1 2.400000000000 3.856560384591 30.866658351119 15.873471587378
698 1 2.400000000000 1.928280192296 2.338383208418 16.534866236852
699 1 2.400000000000 5.784840576887 2.338383208418 16.534866236852
700 1 2.400000000000 3.856560384591 1.870706566734 13.227892989482
701 2 -1.200000000000 3.856560384591 1.403029925051 15.542774262641
702 2 -1.200000000000 3.856560384591 3.273736491785 17.526958211063
703 2 -1.200000000000 1.928280192296 2.806059850102 14.219984963693
704 2 -1.200000000000 1.928280192296 4.676766416836 16.204168912115
705 2 -1.200000000000 5.784840576887 2.806059850102 14.219984963693
706 2 -1.200000000000 5.784840576887 4.676766416836 16.204168912115
707 2 -1.200000000000 3.856560384591 4.209089775153 12.897195664745
708 2 -1.200000000000 3.856560384591 6.079796341887 14.881379613167
709 1 2.400000000000 34.709043461323 2.806059850102 19.841839484222
710 1 2.400000000000 32.780763269027 6.079796341887 20.503234133696
711 1 2.400000000000 36.637323653619 6.079796341887 20.503234133696
712 1 2.400000000000 34.709043461323 5.612119700203 17.196260886326
713 2 -1.200000000000 34.709043461323 5.144443058520 19.511142159485
714 2 -1.200000000000 34.709043461323 7.015149625254 21.495326107908
715 2 -1.200000000000 32.780763269027 6.547472983571 18.188352860537
716 2 -1.200000000000 32.780763269027 8.418179550305 20.172536808959
717 2 -1.200000000000 36.637323653619 6.547472983571 18.188352860537
718 2 -1.200000000000 36.637323653619 8.418179550305 20.172536808959
719 2 -1.200000000000 34.709043461323 7.950502908622 16.865563561589
720 2 -1.200000000000 34.709043461323 9.821209475356 18.849747510011
721 1 2.400000000000 30.852483076731 1.870706566734 13.227892989482
722 1 2.400000000000 28.924202884436 5.144443058520 13.889287638956
723 1 2.400000000000 32.780763269027 5.144443058520 13.889287638956
724 1 2.400000000000 30.852483076731 4.676766416836 10.582314391585
725 2 -1.200000000000 30.852483076731 4.209089775153 12.897195664745
726 2 -1.200000000000 30.852483076731 6.079796341887 14.881379613167
727 2 -1.200000000000 28.924202884436 5.612119700203 11.574406365796
728 2 -1.200000000000 28.924202884436 7.482826266938 13.558590314219
729 2 -1.200000000000 32.780763269027 5.612119700203 11.574406365796
730 2 -1.200000000000 32.780763269027 7.482826266938 13.558590314219
731 2 -1.200000000000 30.852483076731 7.015149625254 10.251617066848
732 2 -1.200000000000 30.852483076731 8.885856191989 12.235801015270
733 1 2.400000000000 30.852483076731 5.612119700203 17.196260886326
734 1 2.400000000000 28.924202884436 8.885856191989 17.857655535800
735 1 2.400000000000 32.780763269027 8.885856191989 17.857655535800
736 1 2.400000000000 30.852483076731 8.418179550305 14.550682288430
737 2 -1.200000000000 30.852483076731 7.950502908622 16.865563561589
738 2 -1.200000000000 30.852483076731 9.821209475356 18.849747510011
739 2 -1.200000000000 28.924202884436 9.353532833672 15.542774262641
740 2 -1.200000000000 28.924202884436 11.224239400407 17.526958211063
741 2 -1.200000000000 32.780763269027 9.353532833672 15.542774262641
742 2 -1.200000000000 32.780763269027 11.224239400407 17.526958211063
743 2 -1.200000000000 30.852483076731 10.756562758723 14.219984963693
744 2 -1.200000000000 30.852483076731 12.627269325458 16.204168912115
745 1 2.400000000000 30.852483076731 9.353532833672 21.164628783171
746 1 2.400000000000 28.924202884436 12.627269325458 21.826023432645
747 1 2.400000000000 32.780763269027 12.627269325458 21.826023432645
748 1 2.400000000000 30.852483076731 12.159592683774 18.519050185274
749 2 -1.200000000000 30.852483076731 11.691916042091 20.833931458434
750 2 -1.200000000000 30.852483076731 13.562622608825 0.330697324737
751 2 -1.200000000000 28.924202884436 13.094945967141 19.511142159485
752 2 -1.200000000000 28.924202884436 14.965652533876 21.495326107908
753 2 -1.200000000000 32.780763269027 13.094945967141 19.511142159485
754 2 -1.200000000000 32.780763269027 14.965652533876 21.495326107908
755 2 -1.200000000000 30.852483076731 14.497975892192 18.188352860537
756 2 -1.200000000000 30.852483076731 16.368682458927 20.172536808959
757 1 2.400000000000 26.995922692140 0.935353283367 6.613946494741
758 1 2.400000000000 25.067642499844 4.209089775153 7.275341144215
759 1 2.400000000000 28.924202884436 4.209089775153 7.275341144215
760 1 2.400000000000 26.995922692140 3.741413133469 3.968367896844
761 2 -1.200000000000 26.995922692140 3.273736491785 6.283249170004
762 2 -1.200000000000 26.995922692140 5.144443058520 8.267433118426
763 2 -1.200000000000 25.067642499844 4.676766416836 4.960459871056
764 2 -1.200000000000 25.067642499844 6.547472983571 6.944643819478
765 2 -1.200000000000 28.924202884436 4.676766416836 4.960459871056
766 2 -1.200000000000 28.924202884436 6.547472983571 6.944643819478
767 2 -1.200000000000 26.995922692140 6.079796341887 3.637670572107
768 2 -1.200000000000 26.995922692140 7.950502908622 5.621854520530
769 1 2.400000000000 26.995922692140 4.676766416836 10.582314391585
770 1 2.400000000000 25.067642499844 7.950502908622 11.243709041059
771 1 2.400000000000 28.924202884436 7.950502908622 11.243709041059
772 1 2.400000000000 26.995922692140 7.482826266938 7.936735793689
773 2 -1.200000000000 26.995922692140 7.015149625254 10.251617066848
774 2 -1.200000000000 26.995922692140 8.885856191989 12.235801015270
775 2 -1.200000000000 25.067642499844 8.418179550305 8.928827767900
776 2 -1.200000000000 25.067642499844 10.288886117040 10.913011716322
777 2 -1.200000000000 28.924202884436 8.418179550305 8.928827767900
778 2 -1.200000000000 28.924202884436 10.288886117040 10.913011716322
779 2 -1.200000000000 26.995922692140 9.821209475356 7.606038468952
780 2 -1.200000000000 26.995922692140 11.691916042091 9.590222417374
781 1 2.400000000000 26.995922692140 8.418179550305 14.550682288430
782 1 2.400000000000 25.067642499844 11.691916042091 15.212076937904
783 1 2.400000000000 28.924202884436 11.691916042091 15.212076937904
784 1 2.400000000000 26.995922692140 11.224239400407 11.905103690533
785 2 -1.200000000000 26.995922692140 10.756562758723 14.219984963693
786 2 -1.200000000000 26.995922692140 12.627269325458 16.204168912115
787 2 -1.200000000000 25.067642499844 12.159592683774 12.897195664745
788 2 -1.200000000000 25.067642499844 14.030299250509 14.881379613167
789 2 -1.200000000000 28.924202884436 12.159592683774 12.897195664745
790 2 -1.200000000000 28.924202884436 14.030299250509 14.881379613167
791 2 -1.200000000000 26.995922692140 13.562622608825 11.574406365796
792 2 -1.200000000000 26.995922692140 15.433329175560 13.558590314219
793 1 2.400000000000 26.995922692140 12.159592683774 18.519050185274
794 1 2.400000000000 25.067642499844 15.433329175560 19.180444834748
795 1 2.400000000000 28.924202884436 15.433329175560 19.180444834748
796 1 2.400000000000 26.995922692140 14.965652533876 15.873471587378
797 2 -1.200000000000 26.995922692140 14.497975892192 18.188352860537
798 2 -1.200000000000 26.995922692140 16.368682458927 20.172536808959
799 2 -1.200000000000 25.067642499844 15.901005817243 16.865563561589
800 2 -1.200000000000 25.067642499844 17.771712383978 18.849747510011
801 2 -1.200000000000 28.924202884436 15.901005817243 16.865563561589
802 2 -1.200000000000 28.924202884436 17.771712383978 18.849747510011
803 2 -1.200000000000 26.995922692140 17.304035742294 15.542774262641
804 2 -1.200000000000 26.995922692140 19.174742309028 17.526958211063
805 1 2.400000000000 23.139362307549 0.000000000000 0.000000000000
806 1 2.400000000000 21.211082115253 3.273736491785 0.661394649474
807 1 2.400000000000 25.067642499844 3.273736491785 0.661394649474
808 1 2.400000000000 23.139362307549 2.806059850102 19.841839484222
809 2 -1.200000000000 23.139362307549 2.338383208418 22.156720757382
810 2 -1.200000000000 23.139362307549 4.209089775153 1.653486623685
811 2 -1.200000000000 21.211082115253 3.741413133469 20.833931458434
812 2 -1.200000000000 21.211082115253 5.612119700203 0.330697324737
813 2 -1.200000000000 25.067642499844 3.741413133469 20.833931458434
814 2 -1.200000000000 25.067642499844 5.612119700203 0.330697324737
815 2 -1.200000000000 23.139362307549 5.144443058520 19.511142159485
816 2 -1.200000000000 23.139362307549 7.015149625254 21.495326107908
817 1 2.400000000000 23.139362307549 3.741413133469 3.968367896844
818 1 2.400000000000 21.211082115253 7.015149625254 4.629762546319
819 1 2.400000000000 25.067642499844 7.015149625254 4.629762546319
820 1 2.400000000000 23.139362307549 6.547472983571 1.322789298948
821 2 -1.200000000000 23.139362307549 6.079796341887 3.637670572107
822 2 -1.200000000000 23.139362307549 7.950502908622 5.621854520530
823 2 -1.200000000000 21.211082115253 7.482826266938 2.314881273159
824 2 -1.200000000000 21.211082115253 9.353532833672 4.299065221582
825 2 -1.200000000000 25.067642499844 7.482826266938 2.314881273159
826 2 -1.200000000000 25.067642499844 9.353532833672 4.299065221582
827 2 -1.200000000000 23.139362307549 8.885856191989 0.992091974211
828 2 -1.200000000000 23.139362307549 10.756562758723 2.976275922633
829 1 2.400000000000 23.139362307549 7.482826266938 7.936735793689
830 1 2.400000000000 21.211082115253 10.756562758723 8.598130443163
831 1 2.400000000000 25.067642499844 10.756562758723 8.598130443163
832 1 2.400000000000 23.139362307549 10.288886117040 5.291157195793
833 2 -1.200000000000 23.139362307549 9.821209475356 7.606038468952
834 2 -1.200000000000 23.139362307549 11.691916042091 9.590222417374
835 2 -1.200000000000 21.211082115253 11.224239400407 6.283249170004
836 2 -1.200000000000 21.211082115253 13.094945967141 8.267433118426
837 2 -1.200000000000 25.067642499844 11.224239400407 6.283249170004
838 2 -1.200000000000 25.067642499844 13.094945967141 8.267433118426
839 2 -1.200000000000 23.139362307549 12.627269325458 4.960459871056
840 2 -1.200000000000 23.139362307549 14.497975892192 6.944643819478
841 1 2.400000000000 23.139362307549 11.224239400407 11.905103690533
842 1 2.400000000000 21.211082115253 14.497975892192 12.566498340008
843 1 2.400000000000 25.067642499844 14.497975892192 12.566498340008
844 1 2.400000000000 23.139362307549 14.030299250509 9.259525092637
845 2 -1.200000000000 23.139362307549 13.562622608825 11.574406365796
846 2 -1.200000000000 23.139362307549 15.433329175560 13.558590314219
847 2 -1.200000000000 21.211082115253 14.965652533876 10.251617066848
848 2 -1.200000000000 21.211082115253 16.836359100610 12.235801015270
849 2 -1.200000000000 25.067642499844 14.965652533876 10.251617066848
850 2 -1.200000000000 25.067642499844 16.836359100610 12.235801015270
851 2 -1.200000000000 23.139362307549 16.368682458927 8.928827767900
852 2 -1.200000000000 23.139362307549 18.239389025661 10.913011716322
853 1 2.400000000000 23.139362307549 14.965652533876 15.873471587378
854 1 2.400000000000 21.211082115253 18.239389025661 16.534866236852
855 1 2.400000000000 25.067642499844 18.239389025661 16.534866236852
856 1 2.400000000000 23.139362307549 17.771712383978 13.227892989482
857 2 -1.200000000000 23.139362307549 17.304035742294 15.542774262641
858 2 -1.200000000000 23.139362307549 19.174742309028 17.526958211063
859 2 -1.200000000000 21.211082115253 18.707065667345 14.219984963693
860 2 -1.200000000000 21.211082115253 20.577772234079 16.204168912115
861 2 -1.200000000000 25.067642499844 18.707065667345 14.219984963693
862 2 -1.200000000000 25.067642499844 20.577772234079 16.204168912115
863 2 -1.200000000000 23.139362307549 20.110095592396 12.897195664745
864 2 -1.200000000000 23.139362307549 21.980802159130 14.881379613167
865 1 2.400000000000 23.139362307549 18.707065667345 19.841839484222
866 1 2.400000000000 21.211082115253 21.980802159130 20.503234133696
867 1 2.400000000000 25.067642499844 21.980802159130 20.503234133696
868 1 2.400000000000 23.139362307549 21.513125517447 17.196260886326
869 2 -1.200000000000 23.139362307549 21.045448875763 19.511142159485
870 2 -1.200000000000 23.139362307549 22.916155442497 21.495326107908
871 2 -1.200000000000 21.211082115253 22.448478800814 18.188352860537
872 2 -1.200000000000 21.211082115253 24.319185367548 20.172536808959
873 2 -1.200000000000 25.067642499844 22.448478800814 18.188352860537
874 2 -1.200000000000 25.067642499844 24.319185367548 20.172536808959
875 2 -1.200000000000 23.139362307549 23.851508725865 16.865563561589
876 2 -1.200000000000 23.139362307549 25.722215292599 18.849747510011
877 1 2.400000000000 19.282801922957 6.547472983571 1.322789298948
878 1 2.400000000000 17.354521730661 9.821209475356 1.984183948422
879 1 2.400000000000 21.211082115253 9.821209475356 1.984183948422
880 1 2.400000000000 19.282801922957 9.353532833672 21.164628783171
881 2 -1.200000000000 19.282801922957 8.885856191989 0.992091974211
882 2 -1.200000000000 19.282801922957 10.756562758723 2.976275922633
883 2 -1.200000000000 17.354521730661 10.288886117040 22.156720757382
884 2 -1.200000000000 17.354521730661 12.159592683774 1.653486623685
885 2 -1.200000000000 21.211082115253 10.288886117040 22.156720757382
886 2 -1.200000000000 21.211082115253 12.159592683774 1.653486623685
887 2 -1.200000000000 19.282801922957 11.691916042091 20.833931458434
888 2 -1.200000000000 19.282801922957 13.562622608825 0.330697324737
889 1 2.400000000000 19.282801922957 10.288886117040 5.291157195793
890 1 2.400000000000 17.354521730661 13.562622608825 5.952551845267
891 1 2.400000000000 21.211082115253 13.562622608825 5.952551845267
892 1 2.400000000000 19.282801922957 13.094945967141 2.645578597896
893 2 -1.200000000000 19.282801922957 12.627269325458 4.960459871056
894 2 -1.200000000000 19.282801922957 14.497975892192 6.944643819478
895 2 -1.200000000000 17.354521730661 14.030299250509 3.637670572107
896 2 -1.200000000000 17.354521730661 15.901005817243 5.621854520530
897 2 -1.200000000000 21.211082115253 14.030299250509 3.637670572107
898 2 -1.200000000000 21.211082115253 15.901005817243 5.621854520530
899 2 -1.200000000000 19.282801922957 15.433329175560 2.314881273159
900 2 -1.200000000000 19.282801922957 17.304035742294 4.299065221582
901 1 2.400000000000 19.282801922957 14.030299250509 9.259525092637
902 1 2.400000000000 17.354521730661 17.304035742294 9.920919742111
903 1 2.400000000000 21.211082115253 17.304035742294 9.920919742111
904 1 2.400000000000 19.282801922957 16.836359100610 6.613946494741
905 2 -1.200000000000 19.282801922957 16.368682458927 8.928827767900
906 2 -1.200000000000 19.282801922957 18.239389025661 10.913011716322
907 2 -1.200000000000 17.354521730661 17.771712383978 7.606038468952
908 2 -1.200000000000 17.354521730661 19.642418950712 9.590222417374
909 2 -1.200000000000 21.211082115253 17.771712383978 7.606038468952
910 2 -1.200000000000 21.211082115253 19.642418950712 9.590222417374
911 2 -1.200000000000 19.282801922957 19.174742309028 6.283249170004
912 2 -1.200000000000 19.282801922957 21.045448875763 8.267433118426
913 1 2.400000000000 19.282801922957 17.771712383978 13.227892989482
914 1 2.400000000000 17.354521730661 21.045448875763 13.889287638956
915 1 2.400000000000 21.211082115253 21.045448875763 13.889287638956
916 1 2.400000000000 19.282801922957 20.577772234079 10.582314391585
917 2 -1.200000000000 19.282801922957 20.110095592396 12.897195664745
918 2 -1.200000000000 19.282801922957 21.980802159130 14.881379613167
919 2 -1.200000000000 17.354521730661 21.513125517447 11.574406365796
920 2 -1.200000000000 17.354521730661 23.383832084181 13.558590314219
921 2 -1.200000000000 21.211082115253 21.513125517447 11.574406365796
922 2 -1.200000000000 21.211082115253 23.383832084181 13.558590314219
923 2 -1.200000000000 19.282801922957 22.916155442497 10.251617066848
924 2 -1.200000000000 19.282801922957 24.786862009232 12.235801015270
925 1 2.400000000000 19.282801922957 21.513125517447 17.196260886326
926 1 2.400000000000 17.354521730661 24.786862009232 17.857655535800
927 1 2.400000000000 21.211082115253 24.786862009232 17.857655535800
928 1 2.400000000000 19.282801922957 24.319185367548 14.550682288430
929 2 -1.200000000000 19.282801922957 23.851508725865 16.865563561589
930 2 -1.200000000000 19.282801922957 25.722215292599 18.849747510011
931 2 -1.200000000000 17.354521730661 25.254538650916 15.542774262641
932 2 -1.200000000000 17.354521730661 27.125245217650 17.526958211063
933 2 -1.200000000000 21.211082115253 25.254538650916 15.542774262641
934 2 -1.200000000000 21.211082115253 27.125245217650 17.526958211063
935 2 -1.200000000000 19.282801922957 26.657568575966 14.219984963693
936 2 -1.200000000000 19.282801922957 28.528275142701 16.204168912115
937 1 2.400000000000 19.282801922957 25.254538650916 21.164628783171
938 1 2.400000000000 17.354521730661 28.528275142701 21.826023432645
939 1 2.400000000000 21.211082115253 28.528275142701 21.826023432645
940 1 2.400000000000 19.282801922957 28.060598501017 18.519050185274
941 2 -1.200000000000 19.282801922957 27.592921859334 20.833931458434
942 2 -1.200000000000 19.282801922957 29.463628426068 0.330697324737
943 2 -1.200000000000 17.354521730661 28.995951784385 19.511142159485
944 2 -1.200000000000 17.354521730661 30.866658351119 21.495326107908
945 2 -1.200000000000 21.211082115253 28.995951784385 19.511142159485
946 2 -1.200000000000 21.211082115253 30.866658351119 21.495326107908
947 2 -1.200000000000 19.282801922957 30.398981709435 18.188352860537
948 2 -1.200000000000 19.282801922957 0.467676641684 20.172536808959
949 1 2.400000000000 15.426241538366 13.094945967141 2.645578597896
950 1 2.400000000000 13.497961346070 16.368682458927 3.306973247370
951 1 2.400000000000 17.354521730661 16.368682458927 3.306973247370
952 1 2.400000000000 15.426241538366 15.901005817243 -0.000000000000
953 2 -1.200000000000 15.426241538366 15.433329175560 2.314881273159
954 2 -1.200000000000 15.426241538366 17.304035742294 4.299065221582
955 2 -1.200000000000 13.497961346070 16.836359100610 0.992091974211
956 2 -1.200000000000 13.497961346070 18.707065667345 2.976275922633
957 2 -1.200000000000 17.354521730661 16.836359100610 0.992091974211
958 2 -1.200000000000 17.354521730661 18.707065667345 2.976275922633
959 2 -1.200000000000 15.426241538366 18.239389025661 22.156720757382
960 2 -1.200000000000 15.426241538366 20.110095592396 1.653486623685
961 1 2.400000000000 15.426241538366 16.836359100610 6.613946494741
962 1 2.400000000000 13.497961346070 20.110095592396 7.275341144215
963 1 2.400000000000 17.354521730661 20.110095592396 7.275341144215
964 1 2.400000000000 15.426241538366 19.642418950712 3.968367896844
965 2 -1.200000000000 15.426241538366 19.174742309028 6.283249170004
966 2 -1.200000000000 15.426241538366 21.045448875763 8.267433118426
967 2 -1.200000000000 13.497961346070 20.577772234079 4.960459871056
968 2 -1.200000000000 13.497961346070 22.448478800814 6.944643819478
969 2 -1.200000000000 17.354521730661 20.577772234079 4.960459871056
970 2 -1.200000000000 17.354521730661 22.448478800814 6.944643819478
971 2 -1.200000000000 15.426241538366 21.980802159130 3.637670572107
972 2 -1.200000000000 15.426241538366 23.851508725865 5.621854520530
973 1 2.400000000000 15.426241538366 20.577772234079 10.582314391585
974 1 2.400000000000 13.497961346070 23.851508725865 11.243709041059
975 1 2.400000000000 17.354521730661 23.851508725865 11.243709041059
976 1 2.400000000000 15.426241538366 23.383832084181 7.936735793689
977 2 -1.200000000000 15.426241538366 22.916155442497 10.251617066848
978 2 -1.200000000000 15.426241538366 24.786862009232 12.235801015270
979 2 -1.200000000000 13.497961346070 24.319185367548 8.928827767900
980 2 -1.200000000000 13.497961346070 26.189891934283 10.913011716322
981 2 -1.200000000000 17.354521730661 24.319185367548 8.928827767900
982 2 -1.200000000000 17.354521730661 26.189891934283 10.913011716322
983 2 -1.200000000000 15.426241538366 25.722215292599 7.606038468952
984 2 -1.200000000000 15.426241538366 27.592921859334 9.590222417374
985 1 2.400000000000 15.426241538366 24.319185367548 14.550682288430
986 1 2.400000000000 13.497961346070 27.592921859334 15.212076937904
987 1 2.400000000000 17.354521730661 27.592921859334 15.212076937904
988 1 2.400000000000 15.426241538366 27.125245217650 11.905103690533
989 2 -1.200000000000 15.426241538366 26.657568575966 14.219984963693
990 2 -1.200000000000 15.426241538366 28.528275142701 16.204168912115
991 2 -1.200000000000 13.497961346070 28.060598501017 12.897195664745
992 2 -1.200000000000 13.497961346070 29.931305067752 14.881379613167
993 2 -1.200000000000 17.354521730661 28.060598501017 12.897195664745
994 2 -1.200000000000 17.354521730661 29.931305067752 14.881379613167
995 2 -1.200000000000 15.426241538366 29.463628426068 11.574406365796
996 2 -1.200000000000 15.426241538366 31.334334992803 13.558590314219
997 1 2.400000000000 15.426241538366 28.060598501017 18.519050185274
998 1 2.400000000000 13.497961346070 31.334334992803 19.180444834748
999 1 2.400000000000 17.354521730661 31.334334992803 19.180444834748
1000 1 2.400000000000 15.426241538366 30.866658351119 15.873471587378
1001 2 -1.200000000000 15.426241538366 30.398981709435 18.188352860537
1002 2 -1.200000000000 15.426241538366 0.467676641684 20.172536808959
1003 2 -1.200000000000 13.497961346070 0.000000000000 16.865563561589
1004 2 -1.200000000000 13.497961346070 1.870706566734 18.849747510011
1005 2 -1.200000000000 17.354521730661 0.000000000000 16.865563561589
1006 2 -1.200000000000 17.354521730661 1.870706566734 18.849747510011
1007 2 -1.200000000000 15.426241538366 1.403029925051 15.542774262641
1008 2 -1.200000000000 15.426241538366 3.273736491785 17.526958211063
1009 1 2.400000000000 11.569681153774 15.901005817243 -0.000000000000
1010 1 2.400000000000 9.641400961479 19.174742309028 0.661394649474
1011 1 2.400000000000 13.497961346070 19.174742309028 0.661394649474
1012 1 2.400000000000 11.569681153774 18.707065667345 19.841839484222
1013 2 -1.200000000000 11.569681153774 18.239389025661 22.156720757382
1014 2 -1.200000000000 11.569681153774 20.110095592396 1.653486623685
1015 2 -1.200000000000 9.641400961479 19.642418950712 20.833931458434
1016 2 -1.200000000000 9.641400961479 21.513125517447 0.330697324737
1017 2 -1.200000000000 13.497961346070 19.642418950712 20.833931458434
1018 2 -1.200000000000 13.497961346070 21.513125517447 0.330697324737
1019 2 -1.200000000000 11.569681153774 21.045448875763 19.511142159485
1020 2 -1.200000000000 11.569681153774 22.916155442497 21.495326107908
1021 1 2.400000000000 11.569681153774 19.642418950712 3.968367896844
1022 1 2.400000000000 9.641400961479 22.916155442497 4.629762546319
1023 1 2.400000000000 13.497961346070 22.916155442497 4.629762546319
1024 1 2.400000000000 11.569681153774 22.448478800814 1.322789298948
1025 2 -1.200000000000 11.569681153774 21.980802159130 3.637670572107
1026 2 -1.200000000000 11.569681153774 23.851508725865 5.621854520530
1027 2 -1.200000000000 9.641400961479 23.383832084181 2.314881273159
1028 2 -1.200000000000 9.641400961479 25.254538650916 4.299065221582
1029 2 -1.200000000000 13.497961346070 23.383832084181 2.314881273159
1030 2 -1.200000000000 13.497961346070 25.254538650916 4.299065221582
1031 2 -1.200000000000 11.569681153774 24.786862009232 0.992091974211
1032 2 -1.200000000000 11.569681153774 26.657568575966 2.976275922633
1033 1 2.400000000000 11.569681153774 23.383832084181 7.936735793689
1034 1 2.400000000000 9.641400961479 26.657568575966 8.598130443163
1035 1 2.400000000000 13.497961346070 26.657568575966 8.598130443163
1036 1 2.400000000000 11.569681153774 26.189891934283 5.291157195793
1037 2 -1.200000000000 11.569681153774 25.722215292599 7.606038468952
1038 2 -1.200000000000 11.569681153774 27.592921859334 9.590222417374
1039 2 -1.200000000000 9.641400961479 27.125245217650 6.283249170004
1040 2 -1.200000000000 9.641400961479 28.995951784385 8.267433118426
1041 2 -1.200000000000 13.497961346070 27.125245217650 6.283249170004
1042 2 -1.200000000000 13.497961346070 28.995951784385 8.267433118426
1043 2 -1.200000000000 11.569681153774 28.528275142701 4.960459871056
1044 2 -1.200000000000 11.569681153774 30.398981709435 6.944643819478
1045 1 2.400000000000 11.569681153774 27.125245217650 11.905103690533
1046 1 2.400000000000 9.641400961479 30.398981709435 12.566498340008
1047 1 2.400000000000 13.497961346070 30.398981709435 12.566498340008
1048 1 2.400000000000 11.569681153774 29.931305067752 9.259525092637
1049 2 -1.200000000000 11.569681153774 29.463628426068 11.574406365796
1050 2 -1.200000000000 11.569681153774 31.334334992803 13.558590314219
1051 2 -1.200000000000 9.641400961479 30.866658351119 10.251617066848
1052 2 -1.200000000000 9.641400961479 0.935353283367 12.235801015270
1053 2 -1.200000000000 13.497961346070 30.866658351119 10.251617066848
1054 2 -1.200000000000 13.497961346070 0.935353283367 12.235801015270
1055 2 -1.200000000000 11.569681153774 0.467676641684 8.928827767900
1056 2 -1.200000000000 11.569681153774 2.338383208418 10.913011716322
1057 1 2.400000000000 11.569681153774 30.866658351119 15.873471587378
1058 1 2.400000000000 9.641400961479 2.338383208418 16.534866236852
1059 1 2.400000000000 13.497961346070 2.338383208418 16.534866236852
1060 1 2.400000000000 11.569681153774 1.870706566734 13.227892989482
1061 2 -1.200000000000 11.569681153774 1.403029925051 15.542774262641
1062 2 -1.200000000000 11.569681153774 3.273736491785 17.526958211063
1063 2 -1.200000000000 9.641400961479 2.806059850102 14.219984963693
1064 2 -1.200000000000 9.641400961479 4.676766416836 16.204168912115
1065 2 -1.200000000000 13.497961346070 2.806059850102 14.219984963693
1066 2 -1.200000000000 13.497961346070 4.676766416836 16.204168912115
1067 2 -1.200000000000 11.569681153774 4.209089775153 12.897195664745
1068 2 -1.200000000000 11.569681153774 6.079796341887 14.881379613167
1069 1 2.400000000000 7.713120769183 22.448478800814 1.322789298948
1070 1 2.400000000000 5.784840576887 25.722215292599 1.984183948422
1071 1 2.400000000000 9.641400961479 25.722215292599 1.984183948422
1072 1 2.400000000000 7.713120769183 25.254538650916 21.164628783171
1073 2 -1.200000000000 7.713120769183 24.786862009232 0.992091974211
1074 2 -1.200000000000 7.713120769183 26.657568575966 2.976275922633
1075 2 -1.200000000000 5.784840576887 26.189891934283 22.156720757382
1076 2 -1.200000000000 5.784840576887 28.060598501017 1.653486623685
1077 2 -1.200000000000 9.641400961479 26.189891934283 22.156720757382
1078 2 -1.200000000000 9.641400961479 28.060598501017 1.653486623685
1079 2 -1.200000000000 7.713120769183 27.592921859334 20.833931458434
1080 2 -1.200000000000 7.713120769183 29.463628426068 0.330697324737
1081 1 2.400000000000 7.713120769183 26.189891934283 5.291157195793
1082 1 2.400000000000 5.784840576887 29.463628426068 5.952551845267
1083 1 2.400000000000 9.641400961479 29.463628426068 5.952551845267
1084 1 2.400000000000 7.713120769183 28.995951784385 2.645578597896
1085 2 -1.200000000000 7.713120769183 28.528275142701 4.960459871056
1086 2 -1.200000000000 7.713120769183 30.398981709435 6.944643819478
1087 2 -1.200000000000 5.784840576887 29.931305067752 3.637670572107
1088 2 -1.200000000000 5.784840576887 0.000000000000 5.621854520530
1089 2 -1.200000000000 9.641400961479 29.931305067752 3.637670572107
1090 2 -1.200000000000 9.641400961479 0.000000000000 5.621854520530
1091 2 -1.200000000000 7.713120769183 31.334334992803 2.314881273159
1092 2 -1.200000000000 7.713120769183 1.403029925051 4.299065221582
1093 1 2.400000000000 7.713120769183 29.931305067752 9.259525092637
1094 1 2.400000000000 5.784840576887 1.403029925051 9.920919742111
1095 1 2.400000000000 9.641400961479 1.403029925051 9.920919742111
1096 1 2.400000000000 7.713120769183 0.935353283367 6.613946494741
1097 2 -1.200000000000 7.713120769183 0.467676641684 8.928827767900
1098 2 -1.200000000000 7.713120769183 2.338383208418 10.913011716322
1099 2 -1.200000000000 5.784840576887 1.870706566734 7.606038468952
1100 2 -1.200000000000 5.784840576887 3.741413133469 9.590222417374
1101 2 -1.200000000000 9.641400961479 1.870706566734 7.606038468952
1102 2 -1.200000000000 9.641400961479 3.741413133469 9.590222417374
1103 2 -1.200000000000 7.713120769183 3.273736491785 6.283249170004
1104 2 -1.200000000000 7.713120769183 5.144443058520 8.267433118426
1105 1 2.400000000000 3.856560384591 28.995951784385 2.645578597896
1106 1 2.400000000000 1.928280192296 0.467676641684 3.306973247370
1107 1 2.400000000000 5.784840576887 0.467676641684 3.306973247370
1108 1 2.400000000000 3.856560384591 0.000000000000 0.000000000000
1109 2 -1.200000000000 3.856560384591 31.334334992803 2.314881273159
1110 2 -1.200000000000 3.856560384591 1.403029925051 4.299065221582
1111 2 -1.200000000000 1.928280192296 0.935353283367 0.992091974211
1112 2 -1.200000000000 1.928280192296 2.806059850102 2.976275922633
1113 2 -1.200000000000 5.784840576887 0.935353283367 0.992091974211
1114 2 -1.200000000000 5.784840576887 2.806059850102 2.976275922633
1115 2 -1.200000000000 3.856560384591 2.338383208418 22.156720757382
1116 2 -1.200000000000 3.856560384591 4.209089775153 1.653486623685
1117 1 2.400000000000 42.422164230506 2.806059850102 19.841839484222
1118 1 2.400000000000 40.493884038210 6.079796341887 20.503234133696
1119 1 2.400000000000 44.350444422801 6.079796341887 20.503234133696
1120 1 2.400000000000 42.422164230506 5.612119700203 17.196260886326
1121 2 -1.200000000000 42.422164230506 5.144443058520 19.511142159485
1122 2 -1.200000000000 42.422164230506 7.015149625254 21.495326107908
1123 2 -1.200000000000 40.493884038210 6.547472983571 18.188352860537
1124 2 -1.200000000000 40.493884038210 8.418179550305 20.172536808959
1125 2 -1.200000000000 44.350444422801 6.547472983571 18.188352860537
1126 2 -1.200000000000 44.350444422801 8.418179550305 20.172536808959
1127 2 -1.200000000000 42.422164230506 7.950502908622 16.865563561589
1128 2 -1.200000000000 42.422164230506 9.821209475356 18.849747510011
1129 1 2.400000000000 38.565603845914 1.870706566734 13.227892989482
1130 1 2.400000000000 36.637323653619 5.144443058520 13.889287638956
1131 1 2.400000000000 40.493884038210 5.144443058520 13.889287638956
1132 1 2.400000000000 38.565603845914 4.676766416836 10.582314391585
1133 2 -1.200000000000 38.565603845914 4.209089775153 12.897195664745
1134 2 -1.200000000000 38.565603845914 6.079796341887 14.881379613167
1135 2 -1.200000000000 36.637323653619 5.612119700203 11.574406365796
1136 2 -1.200000000000 36.637323653619 7.482826266938 13.558590314219
1137 2 -1.200000000000 40.493884038210 5.612119700203 11.574406365796
1138 2 -1.200000000000 40.493884038210 7.482826266938 13.558590314219
1139 2 -1.200000000000 38.565603845914 7.015149625254 10.251617066848
1140 2 -1.200000000000 38.565603845914 8.885856191989 12.235801015270
1141 1 2.400000000000 38.565603845914 5.612119700203 17.196260886326
1142 1 2.400000000000 36.637323653619 8.885856191989 17.857655535800
1143 1 2.400000000000 40.493884038210 8.885856191989 17.857655535800
1144 1 2.400000000000 38.565603845914 8.418179550305 14.550682288430
1145 2 -1.200000000000 38.565603845914 7.950502908622 16.865563561589
1146 2 -1.200000000000 38.565603845914 9.821209475356 18.849747510011
1147 2 -1.200000000000 36.637323653619 9.353532833672 15.542774262641
1148 2 -1.200000000000 36.637323653619 11.224239400407 17.526958211063
1149 2 -1.200000000000 40.493884038210 9.353532833672 15.542774262641
1150 2 -1.200000000000 40.493884038210 11.224239400407 17.526958211063
1151 2 -1.200000000000 38.565603845914 10.756562758723 14.219984963693
1152 2 -1.200000000000 38.565603845914 12.627269325458 16.204168912115
1153 1 2.400000000000 38.565603845914 9.353532833672 21.164628783171
1154 1 2.400000000000 36.637323653619 12.627269325458 21.826023432645
1155 1 2.400000000000 40.493884038210 12.627269325458 21.826023432645
1156 1 2.400000000000 38.565603845914 12.159592683774 18.519050185274
1157 2 -1.200000000000 38.565603845914 11.691916042091 20.833931458434
1158 2 -1.200000000000 38.565603845914 13.562622608825 0.330697324737
1159 2 -1.200000000000 36.637323653619 13.094945967141 19.511142159485
1160 2 -1.200000000000 36.637323653619 14.965652533876 21.495326107908
1161 2 -1.200000000000 40.493884038210 13.094945967141 19.511142159485
1162 2 -1.200000000000 40.493884038210 14.965652533876 21.495326107908
1163 2 -1.200000000000 38.565603845914 14.497975892192 18.188352860537
1164 2 -1.200000000000 38.565603845914 16.368682458927 20.172536808959
1165 1 2.400000000000 34.709043461323 0.935353283367 6.613946494741
1166 1 2.400000000000 32.780763269027 4.209089775153 7.275341144215
1167 1 2.400000000000 36.637323653619 4.209089775153 7.275341144215
1168 1 2.400000000000 34.709043461323 3.741413133469 3.968367896844
1169 2 -1.200000000000 34.709043461323 3.273736491785 6.283249170004
1170 2 -1.200000000000 34.709043461323 5.144443058520 8.267433118426
1171 2 -1.200000000000 32.780763269027 4.676766416836 4.960459871056
1172 2 -1.200000000000 32.780763269027 6.547472983571 6.944643819478
1173 2 -1.200000000000 36.637323653619 4.676766416836 4.960459871056
1174 2 -1.200000000000 36.637323653619 6.547472983571 6.944643819478
1175 2 -1.200000000000 34.709043461323 6.079796341887 3.637670572107
1176 2 -1.200000000000 34.709043461323 7.950502908622 5.621854520530
1177 1 2.400000000000 34.709043461323 4.676766416836 10.582314391585
1178 1 2.400000000000 32.780763269027 7.950502908622 11.243709041059
1179 1 2.400000000000 36.637323653619 7.950502908622 11.243709041059
1180 1 2.400000000000 34.709043461323 7.482826266938 7.936735793689
1181 2 -1.200000000000 34.709043461323 7.015149625254 10.251617066848
1182 2 -1.200000000000 34.709043461323 8.885856191989 12.235801015270
1183 2 -1.200000000000 32.780763269027 8.418179550305 8.928827767900
1184 2 -1.200000000000 32.780763269027 10.288886117040 10.913011716322
1185 2 -1.200000000000 36.637323653619 8.418179550305 8.928827767900
1186 2 -1.200000000000 36.637323653619 10.288886117040 10.913011716322
1187 2 -1.200000000000 34.709043461323 9.821209475356 7.606038468952
1188 2 -1.200000000000 34.709043461323 11.691916042091 9.590222417374
1189 1 2.400000000000 34.709043461323 8.418179550305 14.550682288430
1190 1 2.400000000000 32.780763269027 11.691916042091 15.212076937904
1191 1 2.400000000000 36.637323653619 11.691916042091 15.212076937904
1192 1 2.400000000000 34.709043461323 11.224239400407 11.905103690533
1193 2 -1.200000000000 34.709043461323 10.756562758723 14.219984963693
1194 2 -1.200000000000 34.709043461323 12.627269325458 16.204168912115
1195 2 -1.200000000000 32.780763269027 12.159592683774 12.897195664745
1196 2 -1.200000000000 32.780763269027 14.030299250509 14.881379613167
1197 2 -1.200000000000 36.637323653619 12.159592683774 12.897195664745
1198 2 -1.200000000000 36.637323653619 14.030299250509 14.881379613167
1199 2 -1.200000000000 34.709043461323 13.562622608825 11.574406365796
1200 2 -1.200000000000 34.709043461323 15.433329175560 13.558590314219
1201 1 2.400000000000 34.709043461323 12.159592683774 18.519050185274
1202 1 2.400000000000 32.780763269027 15.433329175560 19.180444834748
1203 1 2.400000000000 36.637323653619 15.433329175560 19.180444834748
1204 1 2.400000000000 34.709043461323 14.965652533876 15.873471587378
1205 2 -1.200000000000 34.709043461323 14.497975892192 18.188352860537
1206 2 -1.200000000000 34.709043461323 16.368682458927 20.172536808959
1207 2 -1.200000000000 32.780763269027 15.901005817243 16.865563561589
1208 2 -1.200000000000 32.780763269027 17.771712383978 18.849747510011
1209 2 -1.200000000000 36.637323653619 15.901005817243 16.865563561589
1210 2 -1.200000000000 36.637323653619 17.771712383978 18.849747510011
1211 2 -1.200000000000 34.709043461323 17.304035742294 15.542774262641
1212 2 -1.200000000000 34.709043461323 19.174742309028 17.526958211063
1213 1 2.400000000000 30.852483076731 0.000000000000 0.000000000000
1214 1 2.400000000000 28.924202884436 3.273736491785 0.661394649474
1215 1 2.400000000000 32.780763269027 3.273736491785 0.661394649474
1216 1 2.400000000000 30.852483076731 2.806059850102 19.841839484222
1217 2 -1.200000000000 30.852483076731 2.338383208418 22.156720757382
1218 2 -1.200000000000 30.852483076731 4.209089775153 1.653486623685
1219 2 -1.200000000000 28.924202884436 3.741413133469 20.833931458434
1220 2 -1.200000000000 28.924202884436 5.612119700203 0.330697324737
1221 2 -1.200000000000 32.780763269027 3.741413133469 20.833931458434
1222 2 -1.200000000000 32.780763269027 5.612119700203 0.330697324737
1223 2 -1.200000000000 30.852483076731 5.144443058520 19.511142159485
1224 2 -1.200000000000 30.852483076731 7.015149625254 21.495326107908
1225 1 2.400000000000 30.852483076731 3.741413133469 3.968367896844
1226 1 2.400000000000 28.924202884436 7.015149625254 4.629762546319
1227 1 2.400000000000 32.780763269027 7.015149625254 4.629762546319
1228 1 2.400000000000 30.852483076731 6.547472983571 1.322789298948
1229 2 -1.200000000000 30.852483076731 6.079796341887 3.637670572107
1230 2 -1.200000000000 30.852483076731 7.950502908622 5.621854520530
1231 2 -1.200000000000 28.924202884436 7.482826266938 2.314881273159
1232 2 -1.200000000000 28.924202884436 9.353532833672 4.299065221582
1233 2 -1.200000000000 32.780763269027 7.482826266938 2.314881273159
1234 2 -1.200000000000 32.780763269027 9.353532833672 4.299065221582
1235 2 -1.200000000000 30.852483076731 8.885856191989 0.992091974211
1236 2 -1.200000000000 30.852483076731 10.756562758723 2.976275922633
1237 1 2.400000000000 30.852483076731 7.482826266938 7.936735793689
1238 1 2.400000000000 28.924202884436 10.756562758723 8.598130443163
1239 1 2.400000000000 32.780763269027 10.756562758723 8.598130443163
1240 1 2.400000000000 30.852483076731 10.288886117040 5.291157195793
1241 2 -1.200000000000 30.852483076731 9.821209475356 7.606038468952
1242 2 -1.200000000000 30.852483076731 11.691916042091 9.590222417374
1243 2 -1.200000000000 28.924202884436 11.224239400407 6.283249170004
1244 2 -1.200000000000 28.924202884436 13.094945967141 8.267433118426
1245 2 -1.200000000000 32.780763269027 11.224239400407 6.283249170004
1246 2 -1.200000000000 32.780763269027 13.094945967141 8.267433118426
1247 2 -1.200000000000 30.852483076731 12.627269325458 4.960459871056
1248 2 -1.200000000000 30.852483076731 14.497975892192 6.944643819478
1249 1 2.400000000000 30.852483076731 11.224239400407 11.905103690533
1250 1 2.400000000000 28.924202884436 14.497975892192 12.566498340008
1251 1 2.400000000000 32.780763269027 14.497975892192 12.566498340008
1252 1 2.400000000000 30.852483076731 14.030299250509 9.259525092637
1253 2 -1.200000000000 30.852483076731 13.562622608825 11.574406365796
1254 2 -1.200000000000 30.852483076731 15.433329175560 13.558590314219
1255 2 -1.200000000000 28.924202884436 14.965652533876 10.251617066848
1256 2 -1.200000000000 28.924202884436 16.836359100610 12.235801015270
1257 2 -1.200000000000 32.780763269027 14.965652533876 10.251617066848
1258 2 -1.200000000000 32.780763269027 16.836359100610 12.235801015270
1259 2 -1.200000000000 30.852483076731 16.368682458927 8.928827767900
1260 2 -1.200000000000 30.852483076731 18.239389025661 10.913011716322
1261 1 2.400000000000 30.852483076731 14.965652533876 15.873471587378
1262 1 2.400000000000 28.924202884436 18.239389025661 16.534866236852
1263 1 2.400000000000 32.780763269027 18.239389025661 16.534866236852
1264 1 2.400000000000 30.852483076731 17.771712383978 13.227892989482
1265 2 -1.200000000000 30.852483076731 17.304035742294 15.542774262641
1266 2 -1.200000000000 30.852483076731 19.174742309028 17.526958211063
1267 2 -1.200000000000 28.924202884436 18.707065667345 14.219984963693
1268 2 -1.200000000000 28.924202884436 20.577772234079 16.204168912115
1269 2 -1.200000000000 32.780763269027 18.707065667345 14.219984963693
1270 2 -1.200000000000 32.780763269027 20.577772234079 16.204168912115
1271 2 -1.200000000000 30.852483076731 20.110095592396 12.897195664745
1272 2 -1.200000000000 30.852483076731 21.980802159130 14.881379613167
1273 1 2.400000000000 30.852483076731 18.707065667345 19.841839484222
1274 1 2.400000000000 28.924202884436 21.980802159130 20.503234133696
1275 1 2.400000000000 32.780763269027 21.980802159130 20.503234133696
1276 1 2.400000000000 30.852483076731 21.513125517447 17.196260886326
1277 2 -1.200000000000 30.852483076731 21.045448875763 19.511142159485
1278 2 -1.200000000000 30.852483076731 22.916155442497 21.495326107908
1279 2 -1.200000000000 28.924202884436 22.448478800814 18.188352860537
1280 2 -1.200000000000 28.924202884436 24.319185367548 20.172536808959
1281 2 -1.200000000000 32.780763269027 22.448478800814 18.188352860537
1282 2 -1.200000000000 32.780763269027 24.319185367548 20.172536808959
1283 2 -1.200000000000 30.852483076731 23.851508725865 16.865563561589
1284 2 -1.200000000000 30.852483076731 25.722215292599 18.849747510011
1285 1 2.400000000000 26.995922692140 6.547472983571 1.322789298948
1286 1 2.400000000000 25.067642499844 9.821209475356 1.984183948422
1287 1 2.400000000000 28.924202884436 9.821209475356 1.984183948422
1288 1 2.400000000000 26.995922692140 9.353532833672 21.164628783171
1289 2 -1.200000000000 26.995922692140 8.885856191989 0.992091974211
1290 2 -1.200000000000 26.995922692140 10.756562758723 2.976275922633
1291 2 -1.200000000000 25.067642499844 10.288886117040 22.156720757382
1292 2 -1.200000000000 25.067642499844 12.159592683774 1.653486623685
1293 2 -1.200000000000 28.924202884436 10.288886117040 22.156720757382
1294 2 -1.200000000000 28.924202884436 12.159592683774 1.653486623685
1295 2 -1.200000000000 26.995922692140 11.691916042091 20.833931458434
1296 2 -1.200000000000 26.995922692140 13.562622608825 0.330697324737
1297 1 2.400000000000 26.995922692140 10.288886117040 5.291157195793
1298 1 2.400000000000 25.067642499844 13.562622608825 5.952551845267
1299 1 2.400000000000 28.924202884436 13.562622608825 5.952551845267
1300 1 2.400000000000 26.995922692140 13.094945967141 2.645578597896
1301 2 -1.200000000000 26.995922692140 12.627269325458 4.960459871056
1302 2 -1.200000000000 26.995922692140 14.497975892192 6.944643819478
1303 2 -1.200000000000 25.067642499844 14.030299250509 3.637670572107
1304 2 -1.200000000000 25.067642499844 15.901005817243 5.621854520530
1305 2 -1.200000000000 28.924202884436 14.030299250509 3.637670572107
1306 2 -1.200000000000 28.924202884436 15.901005817243 5.621854520530
1307 2 -1.200000000000 26.995922692140 15.433329175560 2.314881273159
1308 2 -1.200000000000 26.995922692140 17.304035742294 4.299065221582
1309 1 2.400000000000 26.995922692140 14.030299250509 9.259525092637
1310 1 2.400000000000 25.067642499844 17.304035742294 9.920919742111
1311 1 2.400000000000 28.924202884436 17.304035742294 9.920919742111
1312 1 2.400000000000 26.995922692140 16.836359100610 6.613946494741
1313 2 -1.200000000000 26.995922692140 16.368682458927 8.928827767900
1314 2 -1.200000000000 26.995922692140 18.239389025661 10.913011716322
1315 2 -1.200000000000 25.067642499844 17.771712383978 7.606038468952
1316 2 -1.200000000000 25.067642499844 19.642418950712 9.590222417374
1317 2 -1.200000000000 28.924202884436 17.771712383978 7.606038468952
1318 2 -1.200000000000 28.924202884436 19.642418950712 9.590222417374
1319 2 -1.200000000000 26.995922692140 19.174742309028 6.283249170004
1320 2 -1.200000000000 26.995922692140 21.045448875763 8.267433118426
1321 1 2.400000000000 26.995922692140 17.771712383978 13.227892989482
1322 1 2.400000000000 25.067642499844 21.045448875763 13.889287638956
1323 1 2.400000000000 28.924202884436 21.045448875763 13.889287638956
1324 1 2.400000000000 26.995922692140 20.577772234079 10.582314391585
1325 2 -1.200000000000 26.995922692140 20.110095592396 12.897195664745
1326 2 -1.200000000000 26.995922692140 21.980802159130 14.881379613167
1327 2 -1.200000000000 25.067642499844 21.513125517447 11.574406365796
1328 2 -1.200000000000 25.067642499844 23.383832084181 13.558590314219
1329 2 -1.200000000000 28.924202884436 21.513125517447 11.574406365796
1330 2 -1.200000000000 28.924202884436 23.383832084181 13.558590314219
1331 2 -1.200000000000 26.995922692140 22.916155442497 10.251617066848
1332 2 -1.200000000000 26.995922692140 24.786862009232 12.235801015270
1333 1 2.400000000000 26.995922692140 21.513125517447 17.196260886326
1334 1 2.400000000000 25.067642499844 24.786862009232 17.857655535800
1335 1 2.400000000000 28.924202884436 24.786862009232 17.857655535800
1336 1 2.400000000000 26.995922692140 24.319185367548 14.550682288430
1337 2 -1.200000000000 26.995922692140 23.851508725865 16.865563561589
1338 2 -1.200000000000 26.995922692140 25.722215292599 18.849747510011
1339 2 -1.200000000000 25.067642499844 25.254538650916 15.542774262641
1340 2 -1.200000000000 25.067642499844 27.125245217650 17.526958211063
1341 2 -1.200000000000 28.924202884436 25.254538650916 15.542774262641
1342 2 -1.200000000000 28.924202884436 27.125245217650 17.526958211063
1343 2 -1.200000000000 26.995922692140 26.657568575966 14.219984963693
1344 2 -1.200000000000 26.995922692140 28.528275142701 16.204168912115
1345 1 2.400000000000 26.995922692140 25.254538650916 21.164628783171
1346 1 2.400000000000 25.067642499844 28.528275142701 21.826023432645
1347 1 2.400000000000 28.924202884436 28.528275142701 21.826023432645
1348 1 2.400000000000 26.995922692140 28.060598501017 18.519050185274
1349 2 -1.200000000000 26.995922692140 27.592921859334 20.833931458434
1350 2 -1.200000000000 26.995922692140 29.463628426068 0.330697324737
1351 2 -1.200000000000 25.067642499844 28.995951784385 19.511142159485
1352 2 -1.200000000000 25.067642499844 30.866658351119 21.495326107908
1353 2 -1.200000000000 28.924202884436 28.995951784385 19.511142159485
1354 2 -1.200000000000 28.924202884436 30.866658351119 21.495326107908
1355 2 -1.200000000000 26.995922692140 30.398981709435 18.188352860537
1356 2 -1.200000000000 26.995922692140 0.467676641684 20.172536808959
1357 1 2.400000000000 23.139362307549 13.094945967141 2.645578597896
1358 1 2.400000000000 21.211082115253 16.368682458927 3.306973247370
1359 1 2.400000000000 25.067642499844 16.368682458927 3.306973247370
1360 1 2.400000000000 23.139362307549 15.901005817243 -0.000000000000
1361 2 -1.200000000000 23.139362307549 15.433329175560 2.314881273159
1362 2 -1.200000000000 23.139362307549 17.304035742294 4.299065221582
1363 2 -1.200000000000 21.211082115253 16.836359100610 0.992091974211
1364 2 -1.200000000000 21.211082115253 18.707065667345 2.976275922633
1365 2 -1.200000000000 25.067642499844 16.836359100610 0.992091974211
1366 2 -1.200000000000 25.067642499844 18.707065667345 2.976275922633
1367 2 -1.200000000000 23.139362307549 18.239389025661 22.156720757382
1368 2 -1.200000000000 23.139362307549 20.110095592396 1.653486623685
1369 1 2.400000000000 23.139362307549 16.836359100610 6.613946494741
1370 1 2.400000000000 21.211082115253 20.110095592396 7.275341144215
1371 1 2.400000000000 25.067642499844 20.110095592396 7.275341144215
1372 1 2.400000000000 23.139362307549 19.642418950712 3.968367896844
1373 2 -1.200000000000 23.139362307549 19.174742309028 6.283249170004
1374 2 -1.200000000000 23.139362307549 21.045448875763 8.267433118426
1375 2 -1.200000000000 21.211082115253 20.577772234079 4.960459871056
1376 2 -1.200000000000 21.211082115253 22.448478800814 6.944643819478
1377 2 -1.200000000000 25.067642499844 20.577772234079 4.960459871056
1378 2 -1.200000000000 25.067642499844 22.448478800814 6.944643819478
1379 2 -1.200000000000 23.139362307549 21.980802159130 3.637670572107
1380 2 -1.200000000000 23.139362307549 23.851508725865 5.621854520530
1381 1 2.400000000000 23.139362307549 20.577772234079 10.582314391585
1382 1 2.400000000000 21.211082115253 23.851508725865 11.243709041059
1383 1 2.400000000000 25.067642499844 23.851508725865 11.243709041059
1384 1 2.400000000000 23.139362307549 23.383832084181 7.936735793689
1385 2 -1.200000000000 23.139362307549 22.916155442497 10.251617066848
1386 2 -1.200000000000 23.139362307549 24.786862009232 12.235801015270
1387 2 -1.200000000000 21.211082115253 24.319185367548 8.928827767900
1388 2 -1.200000000000 21.211082115253 26.189891934283 10.913011716322
1389 2 -1.200000000000 25.067642499844 24.319185367548 8.928827767900
1390 2 -1.200000000000 25.067642499844 26.189891934283 10.913011716322
1391 2 -1.200000000000 23.139362307549 25.722215292599 7.606038468952
1392 2 -1.200000000000 23.139362307549 27.592921859334 9.590222417374
1393 1 2.400000000000 23.139362307549 24.319185367548 14.550682288430
1394 1 2.400000000000 21.211082115253 27.592921859334 15.212076937904
1395 1 2.400000000000 25.067642499844 27.592921859334 15.212076937904
1396 1 2.400000000000 23.139362307549 27.125245217650 11.905103690533
1397 2 -1.200000000000 23.139362307549 26.657568575966 14.219984963693
1398 2 -1.200000000000 23.139362307549 28.528275142701 16.204168912115
1399 2 -1.200000000000 21.211082115253 28.060598501017 12.897195664745
1400 2 -1.200000000000 21.211082115253 29.931305067752 14.881379613167
1401 2 -1.200000000000 25.067642499844 28.060598501017 12.897195664745
1402 2 -1.200000000000 25.067642499844 29.931305067752 14.881379613167
1403 2 -1.200000000000 23.139362307549 29.463628426068 11.574406365796
1404 2 -1.200000000000 23.139362307549 31.334334992803 13.558590314219
1405 1 2.400000000000 23.139362307549 28.060598501017 18.519050185274
1406 1 2.400000000000 21.211082115253 31.334334992803 19.180444834748
1407 1 2.400000000000 25.067642499844 31.334334992803 19.180444834748
1408 1 2.400000000000 23.139362307549 30.866658351119 15.873471587378
1409 2 -1.200000000000 23.139362307549 30.398981709435 18.188352860537
1410 2 -1.200000000000 23.139362307549 0.467676641684 20.172536808959
1411 2 -1.200000000000 21.211082115253 0.000000000000 16.865563561589
1412 2 -1.200000000000 21.211082115253 1.870706566734 18.849747510011
1413 2 -1.200000000000 25.067642499844 0.000000000000 16.865563561589
1414 2 -1.200000000000 25.067642499844 1.870706566734 18.849747510011
1415 2 -1.200000000000 23.139362307549 1.403029925051 15.542774262641
1416 2 -1.200000000000 23.139362307549 3.273736491785 17.526958211063
1417 1 2.400000000000 19.282801922957 15.901005817243 -0.000000000000
1418 1 2.400000000000 17.354521730661 19.174742309028 0.661394649474
1419 1 2.400000000000 21.211082115253 19.174742309028 0.661394649474
1420 1 2.400000000000 19.282801922957 18.707065667345 19.841839484222
1421 2 -1.200000000000 19.282801922957 18.239389025661 22.156720757382
1422 2 -1.200000000000 19.282801922957 20.110095592396 1.653486623685
1423 2 -1.200000000000 17.354521730661 19.642418950712 20.833931458434
1424 2 -1.200000000000 17.354521730661 21.513125517447 0.330697324737
1425 2 -1.200000000000 21.211082115253 19.642418950712 20.833931458434
1426 2 -1.200000000000 21.211082115253 21.513125517447 0.330697324737
1427 2 -1.200000000000 19.282801922957 21.045448875763 19.511142159485
1428 2 -1.200000000000 19.282801922957 22.916155442497 21.495326107908
1429 1 2.400000000000 19.282801922957 19.642418950712 3.968367896844
1430 1 2.400000000000 17.354521730661 22.916155442497 4.629762546319
1431 1 2.400000000000 21.211082115253 22.916155442497 4.629762546319
1432 1 2.400000000000 19.282801922957 22.448478800814 1.322789298948
1433 2 -1.200000000000 19.282801922957 21.980802159130 3.637670572107
1434 2 -1.200000000000 19.282801922957 23.851508725865 5.621854520530
1435 2 -1.200000000000 17.354521730661 23.383832084181 2.314881273159
1436 2 -1.200000000000 17.354521730661 25.254538650916 4.299065221582
1437 2 -1.200000000000 21.211082115253 23.383832084181 2.314881273159
1438 2 -1.200000000000 21.211082115253 25.254538650916 4.299065221582
1439 2 -1.200000000000 19.282801922957 24.786862009232 0.992091974211
1440 2 -1.200000000000 19.282801922957 26.657568575966 2.976275922633
1441 1 2.400000000000 19.282801922957 23.383832084181 7.936735793689
1442 1 2.400000000000 17.354521730661 26.657568575966 8.598130443163
1443 1 2.400000000000 21.211082115253 26.657568575966 8.598130443163
1444 1 2.400000000000 19.282801922957 26.189891934283 5.291157195793
1445 2 -1.200000000000 19.282801922957 25.722215292599 7.606038468952
1446 2 -1.200000000000 19.282801922957 27.592921859334 9.590222417374
1447 2 -1.200000000000 17.354521730661 27.125245217650 6.283249170004
1448 2 -1.200000000000 17.354521730661 28.995951784385 8.267433118426
1449 2 -1.200000000000 21.211082115253 27.125245217650 6.283249170004
1450 2 -1.200000000000 21.211082115253 28.995951784385 8.267433118426
1451 2 -1.200000000000 19.282801922957 28.528275142701 4.960459871056
1452 2 -1.200000000000 19.282801922957 30.398981709435 6.944643819478
1453 1 2.400000000000 19.282801922957 27.125245217650 11.905103690533
1454 1 2.400000000000 17.354521730661 30.398981709435 12.566498340008
1455 1 2.400000000000 21.211082115253 30.398981709435 12.566498340008
1456 1 2.400000000000 19.282801922957 29.931305067752 9.259525092637
1457 2 -1.200000000000 19.282801922957 29.463628426068 11.574406365796
1458 2 -1.200000000000 19.282801922957 31.334334992803 13.558590314219
1459 2 -1.200000000000 17.354521730661 30.866658351119 10.251617066848
1460 2 -1.200000000000 17.354521730661 0.935353283367 12.235801015270
1461 2 -1.200000000000 21.211082115253 30.866658351119 10.251617066848
1462 2 -1.200000000000 21.211082115253 0.935353283367 12.235801015270
1463 2 -1.200000000000 19.282801922957 0.467676641684 8.928827767900
1464 2 -1.200000000000 19.282801922957 2.338383208418 10.913011716322
1465 1 2.400000000000 19.282801922957 30.866658351119 15.873471587378
1466 1 2.400000000000 17.354521730661 2.338383208418 16.534866236852
1467 1 2.400000000000 21.211082115253 2.338383208418 16.534866236852
1468 1 2.400000000000 19.282801922957 1.870706566734 13.227892989482
1469 2 -1.200000000000 19.282801922957 1.403029925051 15.542774262641
1470 2 -1.200000000000 19.282801922957 3.273736491785 17.526958211063
1471 2 -1.200000000000 17.354521730661 2.806059850102 14.219984963693
1472 2 -1.200000000000 17.354521730661 4.676766416836 16.204168912115
1473 2 -1.200000000000 21.211082115253 2.806059850102 14.219984963693
1474 2 -1.200000000000 21.211082115253 4.676766416836 16.204168912115
1475 2 -1.200000000000 19.282801922957 4.209089775153 12.897195664745
1476 2 -1.200000000000 19.282801922957 6.079796341887 14.881379613167
1477 1 2.400000000000 15.426241538366 22.448478800814 1.322789298948
1478 1 2.400000000000 13.497961346070 25.722215292599 1.984183948422
1479 1 2.400000000000 17.354521730661 25.722215292599 1.984183948422
1480 1 2.400000000000 15.426241538366 25.254538650916 21.164628783171
1481 2 -1.200000000000 15.426241538366 24.786862009232 0.992091974211
1482 2 -1.200000000000 15.426241538366 26.657568575966 2.976275922633
1483 2 -1.200000000000 13.497961346070 26.189891934283 22.156720757382
1484 2 -1.200000000000 13.497961346070 28.060598501017 1.653486623685
1485 2 -1.200000000000 17.354521730661 26.189891934283 22.156720757382
1486 2 -1.200000000000 17.354521730661 28.060598501017 1.653486623685
1487 2 -1.200000000000 15.426241538366 27.592921859334 20.833931458434
1488 2 -1.200000000000 15.426241538366 29.463628426068 0.330697324737
1489 1 2.400000000000 15.426241538366 26.189891934283 5.291157195793
1490 1 2.400000000000 13.497961346070 29.463628426068 5.952551845267
1491 1 2.400000000000 17.354521730661 29.463628426068 5.952551845267
1492 1 2.400000000000 15.426241538366 28.995951784385 2.645578597896
1493 2 -1.200000000000 15.426241538366 28.528275142701 4.960459871056
1494 2 -1.200000000000 15.426241538366 30.398981709435 6.944643819478
1495 2 -1.200000000000 13.497961346070 29.931305067752 3.637670572107
1496 2 -1.200000000000 13.497961346070 0.000000000000 5.621854520530
1497 2 -1.200000000000 17.354521730661 29.931305067752 3.637670572107
1498 2 -1.200000000000 17.354521730661 0.000000000000 5.621854520530
1499 2 -1.200000000000 15.426241538366 31.334334992803 2.314881273159
1500 2 -1.200000000000 15.426241538366 1.403029925051 4.299065221582
1501 1 2.400000000000 15.426241538366 29.931305067752 9.259525092637
1502 1 2.400000000000 13.497961346070 1.403029925051 9.920919742111
1503 1 2.400000000000 17.354521730661 1.403029925051 9.920919742111
1504 1 2.400000000000 15.426241538366 0.935353283367 6.613946494741
1505 2 -1.200000000000 15.426241538366 0.467676641684 8.928827767900
1506 2 -1.200000000000 15.426241538366 2.338383208418 10.913011716322
1507 2 -1.200000000000 13.497961346070 1.870706566734 7.606038468952
1508 2 -1.200000000000 13.497961346070 3.741413133469 9.590222417374
1509 2 -1.200000000000 17.354521730661 1.870706566734 7.606038468952
1510 2 -1.200000000000 17.354521730661 3.741413133469 9.590222417374
1511 2 -1.200000000000 15.426241538366 3.273736491785 6.283249170004
1512 2 -1.200000000000 15.426241538366 5.144443058520 8.267433118426
1513 1 2.400000000000 11.569681153774 28.995951784385 2.645578597896
1514 1 2.400000000000 9.641400961479 0.467676641684 3.306973247370
1515 1 2.400000000000 13.497961346070 0.467676641684 3.306973247370
1516 1 2.400000000000 11.569681153774 0.000000000000 0.000000000000
1517 2 -1.200000000000 11.569681153774 31.334334992803 2.314881273159
1518 2 -1.200000000000 11.569681153774 1.403029925051 4.299065221582
1519 2 -1.200000000000 9.641400961479 0.935353283367 0.992091974211
1520 2 -1.200000000000 9.641400961479 2.806059850102 2.976275922633
1521 2 -1.200000000000 13.497961346070 0.935353283367 0.992091974211
1522 2 -1.200000000000 13.497961346070 2.806059850102 2.976275922633
1523 2 -1.200000000000 11.569681153774 2.338383208418 22.156720757382
1524 2 -1.200000000000 11.569681153774 4.209089775153 1.653486623685
1525 1 2.400000000000 50.135284999689 2.806059850102 19.841839484222
1526 1 2.400000000000 48.207004807393 6.079796341887 20.503234133696
1527 1 2.400000000000 52.063565191984 6.079796341887 20.503234133696
1528 1 2.400000000000 50.135284999689 5.612119700203 17.196260886326
1529 2 -1.200000000000 50.135284999689 5.144443058520 19.511142159485
1530 2 -1.200000000000 50.135284999689 7.015149625254 21.495326107908
1531 2 -1.200000000000 48.207004807393 6.547472983571 18.188352860537
1532 2 -1.200000000000 48.207004807393 8.418179550305 20.172536808959
1533 2 -1.200000000000 52.063565191984 6.547472983571 18.188352860537
1534 2 -1.200000000000 52.063565191984 8.418179550305 20.172536808959
1535 2 -1.200000000000 50.135284999689 7.950502908622 16.865563561589
1536 2 -1.200000000000 50.135284999689 9.821209475356 18.849747510011
1537 1 2.400000000000 46.278724615097 1.870706566734 13.227892989482
1538 1 2.400000000000 44.350444422801 5.144443058520 13.889287638956
1539 1 2.400000000000 48.207004807393 5.144443058520 13.889287638956
1540 1 2.400000000000 46.278724615097 4.676766416836 10.582314391585
1541 2 -1.200000000000 46.278724615097 4.209089775153 12.897195664745
1542 2 -1.200000000000 46.278724615097 6.079796341887 14.881379613167
1543 2 -1.200000000000 44.350444422801 5.612119700203 11.574406365796
1544 2 -1.200000000000 44.350444422801 7.482826266938 13.558590314219
1545 2 -1.200000000000 48.207004807393 5.612119700203 11.574406365796
1546 2 -1.200000000000 48.207004807393 7.482826266938 13.558590314219
1547 2 -1.200000000000 46.278724615097 7.015149625254 10.251617066848
1548 2 -1.200000000000 46.278724615097 8.885856191989 12.235801015270
1549 1 2.400000000000 46.278724615097 5.612119700203 17.196260886326
1550 1 2.400000000000 44.350444422801 8.885856191989 17.857655535800
1551 1 2.400000000000 48.207004807393 8.885856191989 17.857655535800
1552 1 2.400000000000 46.278724615097 8.418179550305 14.550682288430
1553 2 -1.200000000000 46.278724615097 7.950502908622 16.865563561589
1554 2 -1.200000000000 46.278724615097 9.821209475356 18.849747510011
1555 2 -1.200000000000 44.350444422801 9.353532833672 15.542774262641
1556 2 -1.200000000000 44.350444422801 11.224239400407 17.526958211063
1557 2 -1.200000000000 48.207004807393 9.353532833672 15.542774262641
1558 2 -1.200000000000 48.207004807393 11.224239400407 17.526958211063
1559 2 -1.200000000000 46.278724615097 10.756562758723 14.219984963693
1560 2 -1.200000000000 46.278724615097 12.627269325458 16.204168912115
1561 1 2.400000000000 46.278724615097 9.353532833672 21.164628783171
1562 1 2.400000000000 44.350444422801 12.627269325458 21.826023432645
1563 1 2.400000000000 48.207004807393 12.627269325458 21.826023432645
1564 1 2.400000000000 46.278724615097 12.159592683774 18.519050185274
1565 2 -1.200000000000 46.278724615097 11.691916042091 20.833931458434
1566 2 -1.200000000000 46.278724615097 13.562622608825 0.330697324737
1567 2 -1.200000000000 44.350444422801 13.094945967141 19.511142159485
1568 2 -1.200000000000 44.350444422801 14.965652533876 21.495326107908
1569 2 -1.200000000000 48.207004807393 13.094945967141 19.511142159485
1570 2 -1.200000000000 48.207004807393 14.965652533876 21.495326107908
1571 2 -1.200000000000 46.278724615097 14.497975892192 18.188352860537
1572 2 -1.200000000000 46.278724615097 16.368682458927 20.172536808959
1573 1 2.400000000000 42.422164230506 0.935353283367 6.613946494741
1574 1 2.400000000000 40.493884038210 4.209089775153 7.275341144215
1575 1 2.400000000000 44.350444422801 4.209089775153 7.275341144215
1576 1 2.400000000000 42.422164230506 3.741413133469 3.968367896844
1577 2 -1.200000000000 42.422164230506 3.273736491785 6.283249170004
1578 2 -1.200000000000 42.422164230506 5.144443058520 8.267433118426
1579 2 -1.200000000000 40.493884038210 4.676766416836 4.960459871056
1580 2 -1.200000000000 40.493884038210 6.547472983571 6.944643819478
1581 2 -1.200000000000 44.350444422801 4.676766416836 4.960459871056
1582 2 -1.200000000000 44.350444422801 6.547472983571 6.944643819478
1583 2 -1.200000000000 42.422164230506 6.079796341887 3.637670572107
1584 2 -1.200000000000 42.422164230506 7.950502908622 5.621854520530
1585 1 2.400000000000 42.422164230506 4.676766416836 10.582314391585
1586 1 2.400000000000 40.493884038210 7.950502908622 11.243709041059
1587 1 2.400000000000 44.350444422801 7.950502908622 11.243709041059
1588 1 2.400000000000 42.422164230506 7.482826266938 7.936735793689
1589 2 -1.200000000000 42.422164230506 7.015149625254 10.251617066848
1590 2 -1.200000000000 42.422164230506 8.885856191989 12.235801015270
1591 2 -1.200000000000 40.493884038210 8.418179550305 8.928827767900
1592 2 -1.200000000000 40.493884038210 10.288886117040 10.913011716322
1593 2 -1.200000000000 44.350444422801 8.418179550305 8.928827767900
1594 2 -1.200000000000 44.350444422801 10.288886117040 10.913011716322
1595 2 -1.200000000000 42.422164230506 9.821209475356 7.606038468952
1596 2 -1.200000000000 42.422164230506 11.691916042091 9.590222417374
1597 1 2.400000000000 42.422164230506 8.418179550305 14.550682288430
1598 1 2.400000000000 40.493884038210 11.691916042091 15.212076937904
1599 1 2.400000000000 44.350444422801 11.691916042091 15.212076937904
1600 1 2.400000000000 42.422164230506 11.224239400407 11.905103690533
1601 2 -1.200000000000 42.422164230506 10.756562758723 14.219984963693
1602 2 -1.200000000000 42.422164230506 12.627269325458 16.204168912115
1603 2 -1.200000000000 40.493884038210 12.159592683774 12.897195664745
1604 2 -1.200000000000 40.493884038210 14.030299250509 14.881379613167
1605 2 -1.200000000000 44.350444422801 12.159592683774 12.897195664745
1606 2 -1.200000000000 44.350444422801 14.030299250509 14.881379613167
1607 2 -1.200000000000 42.422164230506 13.562622608825 11.574406365796
1608 2 -1.200000000000 42.422164230506 15.433329175560 13.558590314219
1609 1 2.400000000000 42.422164230506 12.159592683774 18.519050185274
1610 1 2.400000000000 40.493884038210 15.433329175560 19.180444834748
1611 1 2.400000000000 44.350444422801 15.433329175560 19.180444834748
1612 1 2.400000000000 42.422164230506 14.965652533876 15.873471587378
1613 2 -1.200000000000 42.422164230506 14.497975892192 18.188352860537
1614 2 -1.200000000000 42.422164230506 16.368682458927 20.172536808959
1615 2 -1.200000000000 40.493884038210 15.901005817243 16.865563561589
1616 2 -1.200000000000 40.493884038210 17.771712383978 18.849747510011
1617 2 -1.200000000000 44.350444422801 15.901005817243 16.865563561589
1618 2 -1.200000000000 44.350444422801 17.771712383978 18.849747510011
1619 2 -1.200000000000 42.422164230506 17.304035742294 15.542774262641
1620 2 -1.200000000000 42.422164230506 19.174742309028 17.526958211063
1621 1 2.400000000000 38.565603845914 0.000000000000 0.000000000000
1622 1 2.400000000000 36.637323653619 3.273736491785 0.661394649474
1623 1 2.400000000000 40.493884038210 3.273736491785 0.661394649474
1624 1 2.400000000000 38.565603845914 2.806059850102 19.841839484222
1625 2 -1.200000000000 38.565603845914 2.338383208418 22.156720757382
1626 2 -1.200000000000 38.565603845914 4.209089775153 1.653486623685
1627 2 -1.200000000000 36.637323653619 3.741413133469 20.833931458434
1628 2 -1.200000000000 36.637323653619 5.612119700203 0.330697324737
1629 2 -1.200000000000 40.493884038210 3.741413133469 20.833931458434
1630 2 -1.200000000000 40.493884038210 5.612119700203 0.330697324737
1631 2 -1.200000000000 38.565603845914 5.144443058520 19.511142159485
1632 2 -1.200000000000 38.565603845914 7.015149625254 21.495326107908
1633 1 2.400000000000 38.565603845914 3.741413133469 3.968367896844
1634 1 2.400000000000 36.637323653619 7.015149625254 4.629762546319
1635 1 2.400000000000 40.493884038210 7.015149625254 4.629762546319
1636 1 2.400000000000 38.565603845914 6.547472983571 1.322789298948
1637 2 -1.200000000000 38.565603845914 6.079796341887 3.637670572107
1638 2 -1.200000000000 38.565603845914 7.950502908622 5.621854520530
1639 2 -1.200000000000 36.637323653619 7.482826266938 2.314881273159
1640 2 -1.200000000000 36.637323653619 9.353532833672 4.299065221582
1641 2 -1.200000000000 40.493884038210 7.482826266938 2.314881273159
1642 2 -1.200000000000 40.493884038210 9.353532833672 4.299065221582
1643 2 -1.200000000000 38.565603845914 8.885856191989 0.992091974211
1644 2 -1.200000000000 38.565603845914 10.756562758723 2.976275922633
1645 1 2.400000000000 38.565603845914 7.482826266938 7.936735793689
1646 1 2.400000000000 36.637323653619 10.756562758723 8.598130443163
1647 1 2.400000000000 40.493884038210 10.756562758723 8.598130443163
1648 1 2.400000000000 38.565603845914 10.288886117040 5.291157195793
1649 2 -1.200000000000 38.565603845914 9.821209475356 7.606038468952
1650 2 -1.200000000000 38.565603845914 11.691916042091 9.590222417374
1651 2 -1.200000000000 36.637323653619 11.224239400407 6.283249170004
1652 2 -1.200000000000 36.637323653619 13.094945967141 8.267433118426
1653 2 -1.200000000000 40.493884038210 11.224239400407 6.283249170004
1654 2 -1.200000000000 40.493884038210 13.094945967141 8.267433118426
1655 2 -1.200000000000 38.565603845914 12.627269325458 4.960459871056
1656 2 -1.200000000000 38.565603845914 14.497975892192 6.944643819478
1657 1 2.400000000000 38.565603845914 11.224239400407 11.905103690533
1658 1 2.400000000000 36.637323653619 14.497975892192 12.566498340008
1659 1 2.400000000000 40.493884038210 14.497975892192 12.566498340008
1660 1 2.400000000000 38.565603845914 14.030299250509 9.259525092637
1661 2 -1.200000000000 38.565603845914 13.562622608825 11.574406365796
1662 2 -1.200000000000 38.565603845914 15.433329175560 13.558590314219
1663 2 -1.200000000000 36.637323653619 14.965652533876 10.251617066848
1664 2 -1.200000000000 36.637323653619 16.836359100610 12.235801015270
1665 2 -1.200000000000 40.493884038210 14.965652533876 10.251617066848
1666 2 -1.200000000000 40.493884038210 16.836359100610 12.235801015270
1667 2 -1.200000000000 38.565603845914 16.368682458927 8.928827767900
1668 2 -1.200000000000 38.565603845914 18.239389025661 10.913011716322
1669 1 2.400000000000 38.565603845914 14.965652533876 15.873471587378
1670 1 2.400000000000 36.637323653619 18.239389025661 16.534866236852
1671 1 2.400000000000 40.493884038210 18.239389025661 16.534866236852
1672 1 2.400000000000 38.565603845914 17.771712383978 13.227892989482
1673 2 -1.200000000000 38.565603845914 17.304035742294 15.542774262641
1674 2 -1.200000000000 38.565603845914 19.174742309028 17.526958211063
1675 2 -1.200000000000 36.637323653619 18.707065667345 14.219984963693
1676 2 -1.200000000000 36.637323653619 20.577772234079 16.204168912115
1677 2 -1.200000000000 40.493884038210 18.707065667345 14.219984963693
1678 2 -1.200000000000 40.493884038210 20.577772234079 16.204168912115
1679 2 -1.200000000000 38.565603845914 20.110095592396 12.897195664745
1680 2 -1.200000000000 38.565603845914 21.980802159130 14.881379613167
1681 1 2.400000000000 38.565603845914 18.707065667345 19.841839484222
1682 1 2.400000000000 36.637323653619 21.980802159130 20.503234133696
1683 1 2.400000000000 40.493884038210 21.980802159130 20.503234133696
1684 1 2.400000000000 38.565603845914 21.513125517447 17.196260886326
1685 2 -1.200000000000 38.565603845914 21.045448875763 19.511142159485
1686 2 -1.200000000000 38.565603845914 22.916155442497 21.495326107908
1687 2 -1.200000000000 36.637323653619 22.448478800814 18.188352860537
1688 2 -1.200000000000 36.637323653619 24.319185367548 20.172536808959
1689 2 -1.200000000000 40.493884038210 22.448478800814 18.188352860537
1690 2 -1.200000000000 40.493884038210 24.319185367548 20.172536808959
1691 2 -1.200000000000 38.565603845914 23.851508725865 16.865563561589
1692 2 -1.200000000000 38.565603845914 25.722215292599 18.849747510011
1693 1 2.400000000000 34.709043461323 6.547472983571 1.322789298948
1694 1 2.400000000000 32.780763269027 9.821209475356 1.984183948422
1695 1 2.400000000000 36.637323653619 9.821209475356 1.984183948422
1696 1 2.400000000000 34.709043461323 9.353532833672 21.164628783171
1697 2 -1.200000000000 34.709043461323 8.885856191989 0.992091974211
1698 2 -1.200000000000 34.709043461323 10.756562758723 2.976275922633
1699 2 -1.200000000000 32.780763269027 10.288886117040 22.156720757382
1700 2 -1.200000000000 32.780763269027 12.159592683774 1.653486623685
1701 2 -1.200000000000 36.637323653619 10.288886117040 22.156720757382
1702 2 -1.200000000000 36.637323653619 12.159592683774 1.653486623685
1703 2 -1.200000000000 34.709043461323 11.691916042091 20.833931458434
1704 2 -1.200000000000 34.709043461323 13.562622608825 0.330697324737
1705 1 2.400000000000 34.709043461323 10.288886117040 5.291157195793
1706 1 2.400000000000 32.780763269027 13.562622608825 5.952551845267
1707 1 2.400000000000 36.637323653619 13.562622608825 5.952551845267
1708 1 2.400000000000 34.709043461323 13.094945967141 2.645578597896
1709 2 -1.200000000000 34.709043461323 12.627269325458 4.960459871056
1710 2 -1.200000000000 34.709043461323 14.497975892192 6.944643819478
1711 2 -1.200000000000 32.780763269027 14.030299250509 3.637670572107
1712 2 -1.200000000000 32.780763269027 15.901005817243 5.621854520530
1713 2 -1.200000000000 36.637323653619 14.030299250509 3.637670572107
1714 2 -1.200000000000 36.637323653619 15.901005817243 5.621854520530
1715 2 -1.200000000000 34.709043461323 15.433329175560 2.314881273159
1716 2 -1.200000000000 34.709043461323 17.304035742294 4.299065221582
1717 1 2.400000000000 34.709043461323 14.030299250509 9.259525092637
1718 1 2.400000000000 32.780763269027 17.304035742294 9.920919742111
1719 1 2.400000000000 36.637323653619 17.304035742294 9.920919742111
1720 1 2.400000000000 34.709043461323 16.836359100610 6.613946494741
1721 2 -1.200000000000 34.709043461323 16.368682458927 8.928827767900
1722 2 -1.200000000000 34.709043461323 18.239389025661 10.913011716322
1723 2 -1.200000000000 32.780763269027 17.771712383978 7.606038468952
1724 2 -1.200000000000 32.780763269027 19.642418950712 9.590222417374
1725 2 -1.200000000000 36.637323653619 17.771712383978 7.606038468952
1726 2 -1.200000000000 36.637323653619 19.642418950712 9.590222417374
1727 2 -1.200000000000 34.709043461323 19.174742309028 6.283249170004
1728 2 -1.200000000000 34.709043461323 21.045448875763 8.267433118426
1729 1 2.400000000000 34.709043461323 17.771712383978 13.227892989482
1730 1 2.400000000000 32.780763269027 21.045448875763 13.889287638956
1731 1 2.400000000000 36.637323653619 21.045448875763 13.889287638956
1732 1 2.400000000000 34.709043461323 20.577772234079 10.582314391585
1733 2 -1.200000000000 34.709043461323 20.110095592396 12.897195664745
1734 2 -1.200000000000 34.709043461323 21.980802159130 14.881379613167
1735 2 -1.200000000000 32.780763269027 21.513125517447 11.574406365796
1736 2 -1.200000000000 32.780763269027 23.383832084181 13.558590314219
1737 2 -1.200000000000 36.637323653619 21.513125517447 11.574406365796
1738 2 -1.200000000000 36.637323653619 23.383832084181 13.558590314219
1739 2 -1.200000000000 34.709043461323 22.916155442497 10.251617066848
1740 2 -1.200000000000 34.709043461323 24.786862009232 12.235801015270
1741 1 2.400000000000 34.709043461323 21.513125517447 17.196260886326
1742 1 2.400000000000 32.780763269027 24.786862009232 17.857655535800
1743 1 2.400000000000 36.637323653619 24.786862009232 17.857655535800
1744 1 2.400000000000 34.709043461323 24.319185367548 14.550682288430
1745 2 -1.200000000000 34.709043461323 23.851508725865 16.865563561589
1746 2 -1.200000000000 34.709043461323 25.722215292599 18.849747510011
1747 2 -1.200000000000 32.780763269027 25.254538650916 15.542774262641
1748 2 -1.200000000000 32.780763269027 27.125245217650 17.526958211063
1749 2 -1.200000000000 36.637323653619 25.254538650916 15.542774262641
1750 2 -1.200000000000 36.637323653619 27.125245217650 17.526958211063
1751 2 -1.200000000000 34.709043461323 26.657568575966 14.219984963693
1752 2 -1.200000000000 34.709043461323 28.528275142701 16.204168912115
1753 1 2.400000000000 34.709043461323 25.254538650916 21.164628783171
1754 1 2.400000000000 32.780763269027 28.528275142701 21.826023432645
1755 1 2.400000000000 36.637323653619 28.528275142701 21.826023432645
1756 1 2.400000000000 34.709043461323 28.060598501017 18.519050185274
1757 2 -1.200000000000 34.709043461323 27.592921859334 20.833931458434
1758 2 -1.200000000000 34.709043461323 29.463628426068 0.330697324737
1759 2 -1.200000000000 32.780763269027 28.995951784385 19.511142159485
1760 2 -1.200000000000 32.780763269027 30.866658351119 21.495326107908
1761 2 -1.200000000000 36.637323653619 28.995951784385 19.511142159485
1762 2 -1.200000000000 36.637323653619 30.866658351119 21.495326107908
1763 2 -1.200000000000 34.709043461323 30.398981709435 18.188352860537
1764 2 -1.200000000000 34.709043461323 0.467676641684 20.172536808959
1765 1 2.400000000000 30.852483076731 13.094945967141 2.645578597896
1766 1 2.400000000000 28.924202884436 16.368682458927 3.306973247370
1767 1 2.400000000000 32.780763269027 16.368682458927 3.306973247370
1768 1 2.400000000000 30.852483076731 15.901005817243 -0.000000000000
1769 2 -1.200000000000 30.852483076731 15.433329175560 2.314881273159
1770 2 -1.200000000000 30.852483076731 17.304035742294 4.299065221582
1771 2 -1.200000000000 28.924202884436 16.836359100610 0.992091974211
1772 2 -1.200000000000 28.924202884436 18.707065667345 2.976275922633
1773 2 -1.200000000000 32.780763269027 16.836359100610 0.992091974211
1774 2 -1.200000000000 32.780763269027 18.707065667345 2.976275922633
1775 2 -1.200000000000 30.852483076731 18.239389025661 22.156720757382
1776 2 -1.200000000000 30.852483076731 20.110095592396 1.653486623685
1777 1 2.400000000000 30.852483076731 16.836359100610 6.613946494741
1778 1 2.400000000000 28.924202884436 20.110095592396 7.275341144215
1779 1 2.400000000000 32.780763269027 20.110095592396 7.275341144215
1780 1 2.400000000000 30.852483076731 19.642418950712 3.968367896844
1781 2 -1.200000000000 30.852483076731 19.174742309028 6.283249170004
1782 2 -1.200000000000 30.852483076731 21.045448875763 8.267433118426
1783 2 -1.200000000000 28.924202884436 20.577772234079 4.960459871056
1784 2 -1.200000000000 28.924202884436 22.448478800814 6.944643819478
1785 2 -1.200000000000 32.780763269027 20.577772234079 4.960459871056
1786 2 -1.200000000000 32.780763269027 22.448478800814 6.944643819478
1787 2 -1.200000000000 30.852483076731 21.980802159130 3.637670572107
1788 2 -1.200000000000 30.852483076731 23.851508725865 5.621854520530
1789 1 2.400000000000 30.852483076731 20.577772234079 10.582314391585
1790 1 2.400000000000 28.924202884436 23.851508725865 11.243709041059
1791 1 2.400000000000 32.780763269027 23.851508725865 11.243709041059
1792 1 2.400000000000 30.852483076731 23.383832084181 7.936735793689
1793 2 -1.200000000000 30.852483076731 22.916155442497 10.251617066848
1794 2 -1.200000000000 30.852483076731 24.786862009232 12.235801015270
1795 2 -1.200000000000 28.924202884436 24.319185367548 8.928827767900
1796 2 -1.200000000000 28.924202884436 26.189891934283 10.913011716322
1797 2 -1.200000000000 32.780763269027 24.319185367548 8.928827767900
1798 2 -1.200000000000 32.780763269027 26.189891934283 10.913011716322
1799 2 -1.200000000000 30.852483076731 25.722215292599 7.606038468952
1800 2 -1.200000000000 30.852483076731 27.592921859334 9.590222417374
1801 1 2.400000000000 30.852483076731 24.319185367548 14.550682288430
1802 1 2.400000000000 28.924202884436 27.592921859334 15.212076937904
1803 1 2.400000000000 32.780763269027 27.592921859334 15.212076937904
1804 1 2.400000000000 30.852483076731 27.125245217650 11.905103690533
1805 2 -1.200000000000 30.852483076731 26.657568575966 14.219984963693
1806 2 -1.200000000000 30.852483076731 28.528275142701 16.204168912115
1807 2 -1.200000000000 28.924202884436 28.060598501017 12.897195664745
1808 2 -1.200000000000 28.924202884436 29.931305067752 14.881379613167
1809 2 -1.200000000000 32.780763269027 28.060598501017 12.897195664745
1810 2 -1.200000000000 32.780763269027 29.931305067752 14.881379613167
1811 2 -1.200000000000 30.852483076731 29.463628426068 11.574406365796
1812 2 -1.200000000000 30.852483076731 31.334334992803 13.558590314219
1813 1 2.400000000000 30.852483076731 28.060598501017 18.519050185274
1814 1 2.400000000000 28.924202884436 31.334334992803 19.180444834748
1815 1 2.400000000000 32.780763269027 31.334334992803 19.180444834748
1816 1 2.400000000000 30.852483076731 30.866658351119 15.873471587378
1817 2 -1.200000000000 30.852483076731 30.398981709435 18.188352860537
1818 2 -1.200000000000 30.852483076731 0.467676641684 20.172536808959
1819 2 -1.200000000000 28.924202884436 0.000000000000 16.865563561589
1820 2 -1.200000000000 28.924202884436 1.870706566734 18.849747510011
1821 2 -1.200000000000 32.780763269027 0.000000000000 16.865563561589
1822 2 -1.200000000000 32.780763269027 1.870706566734 18.849747510011
1823 2 -1.200000000000 30.852483076731 1.403029925051 15.542774262641
1824 2 -1.200000000000 30.852483076731 3.273736491785 17.526958211063
1825 1 2.400000000000 26.995922692140 15.901005817243 -0.000000000000
1826 1 2.400000000000 25.067642499844 19.174742309028 0.661394649474
1827 1 2.400000000000 28.924202884436 19.174742309028 0.661394649474
1828 1 2.400000000000 26.995922692140 18.707065667345 19.841839484222
1829 2 -1.200000000000 26.995922692140 18.239389025661 22.156720757382
1830 2 -1.200000000000 26.995922692140 20.110095592396 1.653486623685
1831 2 -1.200000000000 25.067642499844 19.642418950712 20.833931458434
1832 2 -1.200000000000 25.067642499844 21.513125517447 0.330697324737
1833 2 -1.200000000000 28.924202884436 19.642418950712 20.833931458434
1834 2 -1.200000000000 28.924202884436 21.513125517447 0.330697324737
1835 2 -1.200000000000 26.995922692140 21.045448875763 19.511142159485
1836 2 -1.200000000000 26.995922692140 22.916155442497 21.495326107908
1837 1 2.400000000000 26.995922692140 19.642418950712 3.968367896844
1838 1 2.400000000000 25.067642499844 22.916155442497 4.629762546319
1839 1 2.400000000000 28.924202884436 22.916155442497 4.629762546319
1840 1 2.400000000000 26.995922692140 22.448478800814 1.322789298948
1841 2 -1.200000000000 26.995922692140 21.980802159130 3.637670572107
1842 2 -1.200000000000 26.995922692140 23.851508725865 5.621854520530
1843 2 -1.200000000000 25.067642499844 23.383832084181 2.314881273159
1844 2 -1.200000000000 25.067642499844 25.254538650916 4.299065221582
1845 2 -1.200000000000 28.924202884436 23.383832084181 2.314881273159
1846 2 -1.200000000000 28.924202884436 25.254538650916 4.299065221582
1847 2 -1.200000000000 26.995922692140 24.786862009232 0.992091974211
1848 2 -1.200000000000 26.995922692140 26.657568575966 2.976275922633
1849 1 2.400000000000 26.995922692140 23.383832084181 7.936735793689
1850 1 2.400000000000 25.067642499844 26.657568575966 8.598130443163
1851 1 2.400000000000 28.924202884436 26.657568575966 8.598130443163
1852 1 2.400000000000 26.995922692140 26.189891934283 5.291157195793
1853 2 -1.200000000000 26.995922692140 25.722215292599 7.606038468952
1854 2 -1.200000000000 26.995922692140 27.592921859334 9.590222417374
1855 2 -1.200000000000 25.067642499844 27.125245217650 6.283249170004
1856 2 -1.200000000000 25.067642499844 28.995951784385 8.267433118426
1857 2 -1.200000000000 28.924202884436 27.125245217650 6.283249170004
1858 2 -1.200000000000 28.924202884436 28.995951784385 8.267433118426
1859 2 -1.200000000000 26.995922692140 28.528275142701 4.960459871056
1860 2 -1.200000000000 26.995922692140 30.398981709435 6.944643819478
1861 1 2.400000000000 26.995922692140 27.125245217650 11.905103690533
1862 1 2.400000000000 25.067642499844 30.398981709435 12.566498340008
1863 1 2.400000000000 28.924202884436 30.398981709435 12.566498340008
1864 1 2.400000000000 26.995922692140 29.931305067752 9.259525092637
1865 2 -1.200000000000 26.995922692140 29.463628426068 11.574406365796
1866 2 -1.200000000000 26.995922692140 31.334334992803 13.558590314219
1867 2 -1.200000000000 25.067642499844 30.866658351119 10.251617066848
1868 2 -1.200000000000 25.067642499844 0.935353283367 12.235801015270
1869 2 -1.200000000000 28.924202884436 30.866658351119 10.251617066848
1870 2 -1.200000000000 28.924202884436 0.935353283367 12.235801015270
1871 2 -1.200000000000 26.995922692140 0.467676641684 8.928827767900
1872 2 -1.200000000000 26.995922692140 2.338383208418 10.913011716322
1873 1 2.400000000000 26.995922692140 30.866658351119 15.873471587378
1874 1 2.400000000000 25.067642499844 2.338383208418 16.534866236852
1875 1 2.400000000000 28.924202884436 2.338383208418 16.534866236852
1876 1 2.400000000000 26.995922692140 1.870706566734 13.227892989482
1877 2 -1.200000000000 26.995922692140 1.403029925051 15.542774262641
1878 2 -1.200000000000 26.995922692140 3.273736491785 17.526958211063
1879 2 -1.200000000000 25.067642499844 2.806059850102 14.219984963693
1880 2 -1.200000000000 25.067642499844 4.676766416836 16.204168912115
1881 2 -1.200000000000 28.924202884436 2.806059850102 14.219984963693
1882 2 -1.200000000000 28.924202884436 4.676766416836 16.204168912115
1883 2 -1.200000000000 26.995922692140 4.209089775153 12.897195664745
1884 2 -1.200000000000 26.995922692140 6.079796341887 14.881379613167
1885 1 2.400000000000 23.139362307549 22.448478800814 1.322789298948
1886 1 2.400000000000 21.211082115253 25.722215292599 1.984183948422
1887 1 2.400000000000 25.067642499844 25.722215292599 1.984183948422
1888 1 2.400000000000 23.139362307549 25.254538650916 21.164628783171
1889 2 -1.200000000000 23.139362307549 24.786862009232 0.992091974211
1890 2 -1.200000000000 23.139362307549 26.657568575966 2.976275922633
1891 2 -1.200000000000 21.211082115253 26.189891934283 22.156720757382
1892 2 -1.200000000000 21.211082115253 28.060598501017 1.653486623685
1893 2 -1.200000000000 25.067642499844 26.189891934283 22.156720757382
1894 2 -1.200000000000 25.067642499844 28.060598501017 1.653486623685
1895 2 -1.200000000000 23.139362307549 27.592921859334 20.833931458434
1896 2 -1.200000000000 23.139362307549 29.463628426068 0.330697324737
1897 1 2.400000000000 23.139362307549 26.189891934283 5.291157195793
1898 1 2.400000000000 21.211082115253 29.463628426068 5.952551845267
1899 1 2.400000000000 25.067642499844 29.463628426068 5.952551845267
1900 1 2.400000000000 23.139362307549 28.995951784385 2.645578597896
1901 2 -1.200000000000 23.139362307549 28.528275142701 4.960459871056
1902 2 -1.200000000000 23.139362307549 30.398981709435 6.944643819478
1903 2 -1.200000000000 21.211082115253 29.931305067752 3.637670572107
1904 2 -1.200000000000 21.211082115253 0.000000000000 5.621854520530
1905 2 -1.200000000000 25.067642499844 29.931305067752 3.637670572107
1906 2 -1.200000000000 25.067642499844 0.000000000000 5.621854520530
1907 2 -1.200000000000 23.139362307549 31.334334992803 2.314881273159
1908 2 -1.200000000000 23.139362307549 1.403029925051 4.299065221582
1909 1 2.400000000000 23.139362307549 29.931305067752 9.259525092637
1910 1 2.400000000000 21.211082115253 1.403029925051 9.920919742111
1911 1 2.400000000000 25.067642499844 1.403029925051 9.920919742111
1912 1 2.400000000000 23.139362307549 0.935353283367 6.613946494741
1913 2 -1.200000000000 23.139362307549 0.467676641684 8.928827767900
1914 2 -1.200000000000 23.139362307549 2.338383208418 10.913011716322
1915 2 -1.200000000000 21.211082115253 1.870706566734 7.606038468952
1916 2 -1.200000000000 21.211082115253 3.741413133469 9.590222417374
1917 2 -1.200000000000 25.067642499844 1.870706566734 7.606038468952
1918 2 -1.200000000000 25.067642499844 3.741413133469 9.590222417374
1919 2 -1.200000000000 23.139362307549 3.273736491785 6.283249170004
1920 2 -1.200000000000 23.139362307549 5.144443058520 8.267433118426
1921 1 2.400000000000 19.282801922957 28.995951784385 2.645578597896
1922 1 2.400000000000 17.354521730661 0.467676641684 3.306973247370
1923 1 2.400000000000 21.211082115253 0.467676641684 3.306973247370
1924 1 2.400000000000 19.282801922957 0.000000000000 0.000000000000
1925 2 -1.200000000000 19.282801922957 31.334334992803 2.314881273159
1926 2 -1.200000000000 19.282801922957 1.403029925051 4.299065221582
1927 2 -1.200000000000 17.354521730661 0.935353283367 0.992091974211
1928 2 -1.200000000000 17.354521730661 2.806059850102 2.976275922633
1929 2 -1.200000000000 21.211082115253 0.935353283367 0.992091974211
1930 2 -1.200000000000 21.211082115253 2.806059850102 2.976275922633
1931 2 -1.200000000000 19.282801922957 2.338383208418 22.156720757382
1932 2 -1.200000000000 19.282801922957 4.209089775153 1.653486623685
1933 1 2.400000000000 57.848405768871 2.806059850102 19.841839484222
1934 1 2.400000000000 55.920125576576 6.079796341887 20.503234133696
1935 1 2.400000000000 59.776685961167 6.079796341887 20.503234133696
1936 1 2.400000000000 57.848405768871 5.612119700203 17.196260886326
1937 2 -1.200000000000 57.848405768871 5.144443058520 19.511142159485
1938 2 -1.200000000000 57.848405768871 7.015149625254 21.495326107908
1939 2 -1.200000000000 55.920125576576 6.547472983571 18.188352860537
1940 2 -1.200000000000 55.920125576576 8.418179550305 20.172536808959
1941 2 -1.200000000000 59.776685961167 6.547472983571 18.188352860537
1942 2 -1.200000000000 59.776685961167 8.418179550305 20.172536808959
1943 2 -1.200000000000 57.848405768871 7.950502908622 16.865563561589
1944 2 -1.200000000000 57.848405768871 9.821209475356 18.849747510011
1945 1 2.400000000000 53.991845384280 1.870706566734 13.227892989482
1946 1 2.400000000000 52.063565191984 5.144443058520 13.889287638956
1947 1 2.400000000000 55.920125576576 5.144443058520 13.889287638956
1948 1 2.400000000000 53.991845384280 4.676766416836 10.582314391585
1949 2 -1.200000000000 53.991845384280 4.209089775153 12.897195664745
1950 2 -1.200000000000 53.991845384280 6.079796341887 14.881379613167
1951 2 -1.200000000000 52.063565191984 5.612119700203 11.574406365796
1952 2 -1.200000000000 52.063565191984 7.482826266938 13.558590314219
1953 2 -1.200000000000 55.920125576576 5.612119700203 11.574406365796
1954 2 -1.200000000000 55.920125576576 7.482826266938 13.558590314219
1955 2 -1.200000000000 53.991845384280 7.015149625254 10.251617066848
1956 2 -1.200000000000 53.991845384280 8.885856191989 12.235801015270
1957 1 2.400000000000 53.991845384280 5.612119700203 17.196260886326
1958 1 2.400000000000 52.063565191984 8.885856191989 17.857655535800
1959 1 2.400000000000 55.920125576576 8.885856191989 17.857655535800
1960 1 2.400000000000 53.991845384280 8.418179550305 14.550682288430
1961 2 -1.200000000000 53.991845384280 7.950502908622 16.865563561589
1962 2 -1.200000000000 53.991845384280 9.821209475356 18.849747510011
1963 2 -1.200000000000 52.063565191984 9.353532833672 15.542774262641
1964 2 -1.200000000000 52.063565191984 11.224239400407 17.526958211063
1965 2 -1.200000000000 55.920125576576 9.353532833672 15.542774262641
1966 2 -1.200000000000 55.920125576576 11.224239400407 17.526958211063
1967 2 -1.200000000000 53.991845384280 10.756562758723 14.219984963693
1968 2 -1.200000000000 53.991845384280 12.627269325458 16.204168912115
1969 1 2.400000000000 53.991845384280 9.353532833672 21.164628783171
1970 1 2.400000000000 52.063565191984 12.627269325458 21.826023432645
1971 1 2.400000000000 55.920125576576 12.627269325458 21.826023432645
1972 1 2.400000000000 53.991845384280 12.159592683774 18.519050185274
1973 2 -1.200000000000 53.991845384280 11.691916042091 20.833931458434
1974 2 -1.200000000000 53.991845384280 13.562622608825 0.330697324737
1975 2 -1.200000000000 52.063565191984 13.094945967141 19.511142159485
1976 2 -1.200000000000 52.063565191984 14.965652533876 21.495326107908
1977 2 -1.200000000000 55.920125576576 13.094945967141 19.511142159485
1978 2 -1.200000000000 55.920125576576 14.965652533876 21.495326107908
1979 2 -1.200000000000 53.991845384280 14.497975892192 18.188352860537
1980 2 -1.200000000000 53.991845384280 16.368682458927 20.172536808959
1981 1 2.400000000000 50.135284999689 0.935353283367 6.613946494741
1982 1 2.400000000000 48.207004807393 4.209089775153 7.275341144215
1983 1 2.400000000000 52.063565191984 4.209089775153 7.275341144215
1984 1 2.400000000000 50.135284999689 3.741413133469 3.968367896844
1985 2 -1.200000000000 50.135284999689 3.273736491785 6.283249170004
1986 2 -1.200000000000 50.135284999689 5.144443058520 8.267433118426
1987 2 -1.200000000000 48.207004807393 4.676766416836 4.960459871056
1988 2 -1.200000000000 48.207004807393 6.547472983571 6.944643819478
1989 2 -1.200000000000 52.063565191984 4.676766416836 4.960459871056
1990 2 -1.200000000000 52.063565191984 6.547472983571 6.944643819478
1991 2 -1.200000000000 50.135284999689 6.079796341887 3.637670572107
1992 2 -1.200000000000 50.135284999689 7.950502908622 5.621854520530
1993 1 2.400000000000 50.135284999689 4.676766416836 10.582314391585
1994 1 2.400000000000 48.207004807393 7.950502908622 11.243709041059
1995 1 2.400000000000 52.063565191984 7.950502908622 11.243709041059
1996 1 2.400000000000 50.135284999689 7.482826266938 7.936735793689
1997 2 -1.200000000000 50.135284999689 7.015149625254 10.251617066848
1998 2 -1.200000000000 50.135284999689 8.885856191989 12.235801015270
1999 2 -1.200000000000 48.207004807393 8.418179550305 8.928827767900
2000 2 -1.200000000000 48.207004807393 10.288886117040 10.913011716322
2001 2 -1.200000000000 52.063565191984 8.418179550305 8.928827767900
2002 2 -1.200000000000 52.063565191984 10.288886117040 10.913011716322
2003 2 -1.200000000000 50.135284999689 9.821209475356 7.606038468952
2004 2 -1.200000000000 50.135284999689 11.691916042091 9.590222417374
2005 1 2.400000000000 50.135284999689 8.418179550305 14.550682288430
2006 1 2.400000000000 48.207004807393 11.691916042091 15.212076937904
2007 1 2.400000000000 52.063565191984 11.691916042091 15.212076937904
2008 1 2.400000000000 50.135284999689 11.224239400407 11.905103690533
2009 2 -1.200000000000 50.135284999689 10.756562758723 14.219984963693
2010 2 -1.200000000000 50.135284999689 12.627269325458 16.204168912115
2011 2 -1.200000000000 48.207004807393 12.159592683774 12.897195664745
2012 2 -1.200000000000 48.207004807393 14.030299250509 14.881379613167
2013 2 -1.200000000000 52.063565191984 12.159592683774 12.897195664745
2014 2 -1.200000000000 52.063565191984 14.030299250509 14.881379613167
2015 2 -1.200000000000 50.135284999689 13.562622608825 11.574406365796
2016 2 -1.200000000000 50.135284999689 15.433329175560 13.558590314219
2017 1 2.400000000000 50.135284999689 12.159592683774 18.519050185274
2018 1 2.400000000000 48.207004807393 15.433329175560 19.180444834748
2019 1 2.400000000000 52.063565191984 15.433329175560 19.180444834748
2020 1 2.400000000000 50.135284999689 14.965652533876 15.873471587378
2021 2 -1.200000000000 50.135284999689 14.497975892192 18.188352860537
2022 2 -1.200000000000 50.135284999689 16.368682458927 20.172536808959
2023 2 -1.200000000000 48.207004807393 15.901005817243 16.865563561589
2024 2 -1.200000000000 48.207004807393 17.771712383978 18.849747510011
2025 2 -1.200000000000 52.063565191984 15.901005817243 16.865563561589
2026 2 -1.200000000000 52.063565191984 17.771712383978 18.849747510011
2027 2 -1.200000000000 50.135284999689 17.304035742294 15.542774262641
2028 2 -1.200000000000 50.135284999689 19.174742309028 17.526958211063
2029 1 2.400000000000 46.278724615097 0.000000000000 0.000000000000
2030 1 2.400000000000 44.350444422801 3.273736491785 0.661394649474
2031 1 2.400000000000 48.207004807393 3.273736491785 0.661394649474
2032 1 2.400000000000 46.278724615097 2.806059850102 19.841839484222
2033 2 -1.200000000000 46.278724615097 2.338383208418 22.156720757382
2034 2 -1.200000000000 46.278724615097 4.209089775153 1.653486623685
2035 2 -1.200000000000 44.350444422801 3.741413133469 20.833931458434
2036 2 -1.200000000000 44.350444422801 5.612119700203 0.330697324737
2037 2 -1.200000000000 48.207004807393 3.741413133469 20.833931458434
2038 2 -1.200000000000 48.207004807393 5.612119700203 0.330697324737
2039 2 -1.200000000000 46.278724615097 5.144443058520 19.511142159485
2040 2 -1.200000000000 46.278724615097 7.015149625254 21.495326107908
2041 1 2.400000000000 46.278724615097 3.741413133469 3.968367896844
2042 1 2.400000000000 44.350444422801 7.015149625254 4.629762546319
2043 1 2.400000000000 48.207004807393 7.015149625254 4.629762546319
2044 1 2.400000000000 46.278724615097 6.547472983571 1.322789298948
2045 2 -1.200000000000 46.278724615097 6.079796341887 3.637670572107
2046 2 -1.200000000000 46.278724615097 7.950502908622 5.621854520530
2047 2 -1.200000000000 44.350444422801 7.482826266938 2.314881273159
2048 2 -1.200000000000 44.350444422801 9.353532833672 4.299065221582
2049 2 -1.200000000000 48.207004807393 7.482826266938 2.314881273159
2050 2 -1.200000000000 48.207004807393 9.353532833672 4.299065221582
2051 2 -1.200000000000 46.278724615097 8.885856191989 0.992091974211
2052 2 -1.200000000000 46.278724615097 10.756562758723 2.976275922633
2053 1 2.400000000000 46.278724615097 7.482826266938 7.936735793689
2054 1 2.400000000000 44.350444422801 10.756562758723 8.598130443163
2055 1 2.400000000000 48.207004807393 10.756562758723 8.598130443163
2056 1 2.400000000000 46.278724615097 10.288886117040 5.291157195793
2057 2 -1.200000000000 46.278724615097 9.821209475356 7.606038468952
2058 2 -1.200000000000 46.278724615097 11.691916042091 9.590222417374
2059 2 -1.200000000000 44.350444422801 11.224239400407 6.283249170004
2060 2 -1.200000000000 44.350444422801 13.094945967141 8.267433118426
2061 2 -1.200000000000 48.207004807393 11.224239400407 6.283249170004
2062 2 -1.200000000000 48.207004807393 13.094945967141 8.267433118426
2063 2 -1.200000000000 46.278724615097 12.627269325458 4.960459871056
2064 2 -1.200000000000 46.278724615097 14.497975892192 6.944643819478
2065 1 2.400000000000 46.278724615097 11.224239400407 11.905103690533
2066 1 2.400000000000 44.350444422801 14.497975892192 12.566498340008
2067 1 2.400000000000 48.207004807393 14.497975892192 12.566498340008
2068 1 2.400000000000 46.278724615097 14.030299250509 9.259525092637
2069 2 -1.200000000000 46.278724615097 13.562622608825 11.574406365796
2070 2 -1.200000000000 46.278724615097 15.433329175560 13.558590314219
2071 2 -1.200000000000 44.350444422801 14.965652533876 10.251617066848
2072 2 -1.200000000000 44.350444422801 16.836359100610 12.235801015270
2073 2 -1.200000000000 48.207004807393 14.965652533876 10.251617066848
2074 2 -1.200000000000 48.207004807393 16.836359100610 12.235801015270
2075 2 -1.200000000000 46.278724615097 16.368682458927 8.928827767900
2076 2 -1.200000000000 46.278724615097 18.239389025661 10.913011716322
2077 1 2.400000000000 46.278724615097 14.965652533876 15.873471587378
2078 1 2.400000000000 44.350444422801 18.239389025661 16.534866236852
2079 1 2.400000000000 48.207004807393 18.239389025661 16.534866236852
2080 1 2.400000000000 46.278724615097 17.771712383978 13.227892989482
2081 2 -1.200000000000 46.278724615097 17.304035742294 15.542774262641
2082 2 -1.200000000000 46.278724615097 19.174742309028 17.526958211063
2083 2 -1.200000000000 44.350444422801 18.707065667345 14.219984963693
2084 2 -1.200000000000 44.350444422801 20.577772234079 16.204168912115
2085 2 -1.200000000000 48.207004807393 18.707065667345 14.219984963693
2086 2 -1.200000000000 48.207004807393 20.577772234079 16.204168912115
2087 2 -1.200000000000 46.278724615097 20.110095592396 12.897195664745
2088 2 -1.200000000000 46.278724615097 21.980802159130 14.881379613167
2089 1 2.400000000000 46.278724615097 18.707065667345 19.841839484222
2090 1 2.400000000000 44.350444422801 21.980802159130 20.503234133696
2091 1 2.400000000000 48.207004807393 21.980802159130 20.503234133696
2092 1 2.400000000000 46.278724615097 21.513125517447 17.196260886326
2093 2 -1.200000000000 46.278724615097 21.045448875763 19.511142159485
2094 2 -1.200000000000 46.278724615097 22.916155442497 21.495326107908
2095 2 -1.200000000000 44.350444422801 22.448478800814 18.188352860537
2096 2 -1.200000000000 44.350444422801 24.319185367548 20.172536808959
2097 2 -1.200000000000 48.207004807393 22.448478800814 18.188352860537
2098 2 -1.200000000000 48.207004807393 24.319185367548 20.172536808959
2099 2 -1.200000000000 46.278724615097 23.851508725865 16.865563561589
2100 2 -1.200000000000 46.278724615097 25.722215292599 18.849747510011
2101 1 2.400000000000 42.422164230506 6.547472983571 1.322789298948
2102 1 2.400000000000 40.493884038210 9.821209475356 1.984183948422
2103 1 2.400000000000 44.350444422801 9.821209475356 1.984183948422
2104 1 2.400000000000 42.422164230506 9.353532833672 21.164628783171
2105 2 -1.200000000000 42.422164230506 8.885856191989 0.992091974211
2106 2 -1.200000000000 42.422164230506 10.756562758723 2.976275922633
2107 2 -1.200000000000 40.493884038210 10.288886117040 22.156720757382
2108 2 -1.200000000000 40.493884038210 12.159592683774 1.653486623685
2109 2 -1.200000000000 44.350444422801 10.288886117040 22.156720757382
2110 2 -1.200000000000 44.350444422801 12.159592683774 1.653486623685
2111 2 -1.200000000000 42.422164230506 11.691916042091 20.833931458434
2112 2 -1.200000000000 42.422164230506 13.562622608825 0.330697324737
2113 1 2.400000000000 42.422164230506 10.288886117040 5.291157195793
2114 1 2.400000000000 40.493884038210 13.562622608825 5.952551845267
2115 1 2.400000000000 44.350444422801 13.562622608825 5.952551845267
2116 1 2.400000000000 42.422164230506 13.094945967141 2.645578597896
2117 2 -1.200000000000 42.422164230506 12.627269325458 4.960459871056
2118 2 -1.200000000000 42.422164230506 14.497975892192 6.944643819478
2119 2 -1.200000000000 40.493884038210 14.030299250509 3.637670572107
2120 2 -1.200000000000 40.493884038210 15.901005817243 5.621854520530
2121 2 -1.200000000000 44.350444422801 14.030299250509 3.637670572107
2122 2 -1.200000000000 44.350444422801 15.901005817243 5.621854520530
2123 2 -1.200000000000 42.422164230506 15.433329175560 2.314881273159
2124 2 -1.200000000000 42.422164230506 17.304035742294 4.299065221582
2125 1 2.400000000000 42.422164230506 14.030299250509 9.259525092637
2126 1 2.400000000000 40.493884038210 17.304035742294 9.920919742111
2127 1 2.400000000000 44.350444422801 17.304035742294 9.920919742111
2128 1 2.400000000000 42.422164230506 16.836359100610 6.613946494741
2129 2 -1.200000000000 42.422164230506 16.368682458927 8.928827767900
2130 2 -1.200000000000 42.422164230506 18.239389025661 10.913011716322
2131 2 -1.200000000000 40.493884038210 17.771712383978 7.606038468952
2132 2 -1.200000000000 40.493884038210 19.642418950712 9.590222417374
2133 2 -1.200000000000 44.350444422801 17.771712383978 7.606038468952
2134 2 -1.200000000000 44.350444422801 19.642418950712 9.590222417374
2135 2 -1.200000000000 42.422164230506 19.174742309028 6.283249170004
2136 2 -1.200000000000 42.422164230506 21.045448875763 8.267433118426
2137 1 2.400000000000 42.422164230506 17.771712383978 13.227892989482
2138 1 2.400000000000 40.493884038210 21.045448875763 13.889287638956
2139 1 2.400000000000 44.350444422801 21.045448875763 13.889287638956
2140 1 2.400000000000 42.422164230506 20.577772234079 10.582314391585
2141 2 -1.200000000000 42.422164230506 20.110095592396 12.897195664745
2142 2 -1.200000000000 42.422164230506 21.980802159130 14.881379613167
2143 2 -1.200000000000 40.493884038210 21.513125517447 11.574406365796
2144 2 -1.200000000000 40.493884038210 23.383832084181 13.558590314219
2145 2 -1.200000000000 44.350444422801 21.513125517447 11.574406365796
2146 2 -1.200000000000 44.350444422801 23.383832084181 13.558590314219
2147 2 -1.200000000000 42.422164230506 22.916155442497 10.251617066848
2148 2 -1.200000000000 42.422164230506 24.786862009232 12.235801015270
2149 1 2.400000000000 42.422164230506 21.513125517447 17.196260886326
2150 1 2.400000000000 40.493884038210 24.786862009232 17.857655535800
2151 1 2.400000000000 44.350444422801 24.786862009232 17.857655535800
2152 1 2.400000000000 42.422164230506 24.319185367548 14.550682288430
2153 2 -1.200000000000 42.422164230506 23.851508725865 16.865563561589
2154 2 -1.200000000000 42.422164230506 25.722215292599 18.849747510011
2155 2 -1.200000000000 40.493884038210 25.254538650916 15.542774262641
2156 2 -1.200000000000 40.493884038210 27.125245217650 17.526958211063
2157 2 -1.200000000000 44.350444422801 25.254538650916 15.542774262641
2158 2 -1.200000000000 44.350444422801 27.125245217650 17.526958211063
2159 2 -1.200000000000 42.422164230506 26.657568575966 14.219984963693
2160 2 -1.200000000000 42.422164230506 28.528275142701 16.204168912115
2161 1 2.400000000000 42.422164230506 25.254538650916 21.164628783171
2162 1 2.400000000000 40.493884038210 28.528275142701 21.826023432645
2163 1 2.400000000000 44.350444422801 28.528275142701 21.826023432645
2164 1 2.400000000000 42.422164230506 28.060598501017 18.519050185274
2165 2 -1.200000000000 42.422164230506 27.592921859334 20.833931458434
2166 2 -1.200000000000 42.422164230506 29.463628426068 0.330697324737
2167 2 -1.200000000000 40.493884038210 28.995951784385 19.511142159485
2168 2 -1.200000000000 40.493884038210 30.866658351119 21.495326107908
2169 2 -1.200000000000 44.350444422801 28.995951784385 19.511142159485
2170 2 -1.200000000000 44.350444422801 30.866658351119 21.495326107908
2171 2 -1.200000000000 42.422164230506 30.398981709435 18.188352860537
2172 2 -1.200000000000 42.422164230506 0.467676641684 20.172536808959
2173 1 2.400000000000 38.565603845914 13.094945967141 2.645578597896
2174 1 2.400000000000 36.637323653619 16.368682458927 3.306973247370
2175 1 2.400000000000 40.493884038210 16.368682458927 3.306973247370
2176 1 2.400000000000 38.565603845914 15.901005817243 -0.000000000000
2177 2 -1.200000000000 38.565603845914 15.433329175560 2.314881273159
2178 2 -1.200000000000 38.565603845914 17.304035742294 4.299065221582
2179 2 -1.200000000000 36.637323653619 16.836359100610 0.992091974211
2180 2 -1.200000000000 36.637323653619 18.707065667345 2.976275922633
2181 2 -1.200000000000 40.493884038210 16.836359100610 0.992091974211
2182 2 -1.200000000000 40.493884038210 18.707065667345 2.976275922633
2183 2 -1.200000000000 38.565603845914 18.239389025661 22.156720757382
2184 2 -1.200000000000 38.565603845914 20.110095592396 1.653486623685
2185 1 2.400000000000 38.565603845914 16.836359100610 6.613946494741
2186 1 2.400000000000 36.637323653619 20.110095592396 7.275341144215
2187 1 2.400000000000 40.493884038210 20.110095592396 7.275341144215
2188 1 2.400000000000 38.565603845914 19.642418950712 3.968367896844
2189 2 -1.200000000000 38.565603845914 19.174742309028 6.283249170004
2190 2 -1.200000000000 38.565603845914 21.045448875763 8.267433118426
2191 2 -1.200000000000 36.637323653619 20.577772234079 4.960459871056
2192 2 -1.200000000000 36.637323653619 22.448478800814 6.944643819478
2193 2 -1.200000000000 40.493884038210 20.577772234079 4.960459871056
2194 2 -1.200000000000 40.493884038210 22.448478800814 6.944643819478
2195 2 -1.200000000000 38.565603845914 21.980802159130 3.637670572107
2196 2 -1.200000000000 38.565603845914 23.851508725865 5.621854520530
2197 1 2.400000000000 38.565603845914 20.577772234079 10.582314391585
2198 1 2.400000000000 36.637323653619 23.851508725865 11.243709041059
2199 1 2.400000000000 40.493884038210 23.851508725865 11.243709041059
2200 1 2.400000000000 38.565603845914 23.383832084181 7.936735793689
2201 2 -1.200000000000 38.565603845914 22.916155442497 10.251617066848
2202 2 -1.200000000000 38.565603845914 24.786862009232 12.235801015270
2203 2 -1.200000000000 36.637323653619 24.319185367548 8.928827767900
2204 2 -1.200000000000 36.637323653619 26.189891934283 10.913011716322
2205 2 -1.200000000000 40.493884038210 24.319185367548 8.928827767900
2206 2 -1.200000000000 40.493884038210 26.189891934283 10.913011716322
2207 2 -1.200000000000 38.565603845914 25.722215292599 7.606038468952
2208 2 -1.200000000000 38.565603845914 27.592921859334 9.590222417374
2209 1 2.400000000000 38.565603845914 24.319185367548 14.550682288430
2210 1 2.400000000000 36.637323653619 27.592921859334 15.212076937904
2211 1 2.400000000000 40.493884038210 27.592921859334 15.212076937904
2212 1 2.400000000000 38.565603845914 27.125245217650 11.905103690533
2213 2 -1.200000000000 38.565603845914 26.657568575966 14.219984963693
2214 2 -1.200000000000 38.565603845914 28.528275142701 16.204168912115
2215 2 -1.200000000000 36.637323653619 28.060598501017 12.897195664745
2216 2 -1.200000000000 36.637323653619 29.931305067752 14.881379613167
2217 2 -1.200000000000 40.493884038210 28.060598501017 12.897195664745
2218 2 -1.200000000000 40.493884038210 29.931305067752 14.881379613167
2219 2 -1.200000000000 38.565603845914 29.463628426068 11.574406365796
2220 2 -1.200000000000 38.565603845914 31.334334992803 13.558590314219
2221 1 2.400000000000 38.565603845914 28.060598501017 18.519050185274
2222 1 2.400000000000 36.637323653619 31.334334992803 19.180444834748
2223 1 2.400000000000 40.493884038210 31.334334992803 19.180444834748
2224 1 2.400000000000 38.565603845914 30.866658351119 15.873471587378
2225 2 -1.200000000000 38.565603845914 30.398981709435 18.188352860537
2226 2 -1.200000000000 38.565603845914 0.467676641684 20.172536808959
2227 2 -1.200000000000 36.637323653619 0.000000000000 16.865563561589
2228 2 -1.200000000000 36.637323653619 1.870706566734 18.849747510011
2229 2 -1.200000000000 40.493884038210 0.000000000000 16.865563561589
2230 2 -1.200000000000 40.493884038210 1.870706566734 18.849747510011
2231 2 -1.200000000000 38.565603845914 1.403029925051 15.542774262641
2232 2 -1.200000000000 38.565603845914 3.273736491785 17.526958211063
2233 1 2.400000000000 34.709043461323 15.901005817243 -0.000000000000
2234 1 2.400000000000 32.780763269027 19.174742309028 0.661394649474
2235 1 2.400000000000 36.637323653619 19.174742309028 0.661394649474
2236 1 2.400000000000 34.709043461323 18.707065667345 19.841839484222
2237 2 -1.200000000000 34.709043461323 18.239389025661 22.156720757382
2238 2 -1.200000000000 34.709043461323 20.110095592396 1.653486623685
2239 2 -1.200000000000 32.780763269027 19.642418950712 20.833931458434
2240 2 -1.200000000000 32.780763269027 21.513125517447 0.330697324737
2241 2 -1.200000000000 36.637323653619 19.642418950712 20.833931458434
2242 2 -1.200000000000 36.637323653619 21.513125517447 0.330697324737
2243 2 -1.200000000000 34.709043461323 21.045448875763 19.511142159485
2244 2 -1.200000000000 34.709043461323 22.916155442497 21.495326107908
2245 1 2.400000000000 34.709043461323 19.642418950712 3.968367896844
2246 1 2.400000000000 32.780763269027 22.916155442497 4.629762546319
2247 1 2.400000000000 36.637323653619 22.916155442497 4.629762546319
2248 1 2.400000000000 34.709043461323 22.448478800814 1.322789298948
2249 2 -1.200000000000 34.709043461323 21.980802159130 3.637670572107
2250 2 -1.200000000000 34.709043461323 23.851508725865 5.621854520530
2251 2 -1.200000000000 32.780763269027 23.383832084181 2.314881273159
2252 2 -1.200000000000 32.780763269027 25.254538650916 4.299065221582
2253 2 -1.200000000000 36.637323653619 23.383832084181 2.314881273159
2254 2 -1.200000000000 36.637323653619 25.254538650916 4.299065221582
2255 2 -1.200000000000 34.709043461323 24.786862009232 0.992091974211
2256 2 -1.200000000000 34.709043461323 26.657568575966 2.976275922633
2257 1 2.400000000000 34.709043461323 23.383832084181 7.936735793689
2258 1 2.400000000000 32.780763269027 26.657568575966 8.598130443163
2259 1 2.400000000000 36.637323653619 26.657568575966 8.598130443163
2260 1 2.400000000000 34.709043461323 26.189891934283 5.291157195793
2261 2 -1.200000000000 34.709043461323 25.722215292599 7.606038468952
2262 2 -1.200000000000 34.709043461323 27.592921859334 9.590222417374
2263 2 -1.200000000000 32.780763269027 27.125245217650 6.283249170004
2264 2 -1.200000000000 32.780763269027 28.995951784385 8.267433118426
2265 2 -1.200000000000 36.637323653619 27.125245217650 6.283249170004
2266 2 -1.200000000000 36.637323653619 28.995951784385 8.267433118426
2267 2 -1.200000000000 34.709043461323 28.528275142701 4.960459871056
2268 2 -1.200000000000 34.709043461323 30.398981709435 6.944643819478
2269 1 2.400000000000 34.709043461323 27.125245217650 11.905103690533
2270 1 2.400000000000 32.780763269027 30.398981709435 12.566498340008
2271 1 2.400000000000 36.637323653619 30.398981709435 12.566498340008
2272 1 2.400000000000 34.709043461323 29.931305067752 9.259525092637
2273 2 -1.200000000000 34.709043461323 29.463628426068 11.574406365796
2274 2 -1.200000000000 34.709043461323 31.334334992803 13.558590314219
2275 2 -1.200000000000 32.780763269027 30.866658351119 10.251617066848
2276 2 -1.200000000000 32.780763269027 0.935353283367 12.235801015270
2277 2 -1.200000000000 36.637323653619 30.866658351119 10.251617066848
2278 2 -1.200000000000 36.637323653619 0.935353283367 12.235801015270
2279 2 -1.200000000000 34.709043461323 0.467676641684 8.928827767900
2280 2 -1.200000000000 34.709043461323 2.338383208418 10.913011716322
2281 1 2.400000000000 34.709043461323 30.866658351119 15.873471587378
2282 1 2.400000000000 32.780763269027 2.338383208418 16.534866236852
2283 1 2.400000000000 36.637323653619 2.338383208418 16.534866236852
2284 1 2.400000000000 34.709043461323 1.870706566734 13.227892989482
2285 2 -1.200000000000 34.709043461323 1.403029925051 15.542774262641
2286 2 -1.200000000000 34.709043461323 3.273736491785 17.526958211063
2287 2 -1.200000000000 32.780763269027 2.806059850102 14.219984963693
2288 2 -1.200000000000 32.780763269027 4.676766416836 16.204168912115
2289 2 -1.200000000000 36.637323653619 2.806059850102 14.219984963693
2290 2 -1.200000000000 36.637323653619 4.676766416836 16.204168912115
2291 2 -1.200000000000 34.709043461323 4.209089775153 12.897195664745
2292 2 -1.200000000000 34.709043461323 6.079796341887 14.881379613167
2293 1 2.400000000000 30.852483076731 22.448478800814 1.322789298948
2294 1 2.400000000000 28.924202884436 25.722215292599 1.984183948422
2295 1 2.400000000000 32.780763269027 25.722215292599 1.984183948422
2296 1 2.400000000000 30.852483076731 25.254538650916 21.164628783171
2297 2 -1.200000000000 30.852483076731 24.786862009232 0.992091974211
2298 2 -1.200000000000 30.852483076731 26.657568575966 2.976275922633
2299 2 -1.200000000000 28.924202884436 26.189891934283 22.156720757382
2300 2 -1.200000000000 28.924202884436 28.060598501017 1.653486623685
2301 2 -1.200000000000 32.780763269027 26.189891934283 22.156720757382
2302 2 -1.200000000000 32.780763269027 28.060598501017 1.653486623685
2303 2 -1.200000000000 30.852483076731 27.592921859334 20.833931458434
2304 2 -1.200000000000 30.852483076731 29.463628426068 0.330697324737
2305 1 2.400000000000 30.852483076731 26.189891934283 5.291157195793
2306 1 2.400000000000 28.924202884436 29.463628426068 5.952551845267
2307 1 2.400000000000 32.780763269027 29.463628426068 5.952551845267
2308 1 2.400000000000 30.852483076731 28.995951784385 2.645578597896
2309 2 -1.200000000000 30.852483076731 28.528275142701 4.960459871056
2310 2 -1.200000000000 30.852483076731 30.398981709435 6.944643819478
2311 2 -1.200000000000 28.924202884436 29.931305067752 3.637670572107
2312 2 -1.200000000000 28.924202884436 0.000000000000 5.621854520530
2313 2 -1.200000000000 32.780763269027 29.931305067752 3.637670572107
2314 2 -1.200000000000 32.780763269027 0.000000000000 5.621854520530
2315 2 -1.200000000000 30.852483076731 31.334334992803 2.314881273159
2316 2 -1.200000000000 30.852483076731 1.403029925051 4.299065221582
2317 1 2.400000000000 30.852483076731 29.931305067752 9.259525092637
2318 1 2.400000000000 28.924202884436 1.403029925051 9.920919742111
2319 1 2.400000000000 32.780763269027 1.403029925051 9.920919742111
2320 1 2.400000000000 30.852483076731 0.935353283367 6.613946494741
2321 2 -1.200000000000 30.852483076731 0.467676641684 8.928827767900
2322 2 -1.200000000000 30.852483076731 2.338383208418 10.913011716322
2323 2 -1.200000000000 28.924202884436 1.870706566734 7.606038468952
2324 2 -1.200000000000 28.924202884436 3.741413133469 9.590222417374
2325 2 -1.200000000000 32.780763269027 1.870706566734 7.606038468952
2326 2 -1.200000000000 32.780763269027 3.741413133469 9.590222417374
2327 2 -1.200000000000 30.852483076731 3.273736491785 6.283249170004
2328 2 -1.200000000000 30.852483076731 5.144443058520 8.267433118426
2329 1 2.400000000000 26.995922692140 28.995951784385 2.645578597896
2330 1 2.400000000000 25.067642499844 0.467676641684 3.306973247370
2331 1 2.400000000000 28.924202884436 0.467676641684 3.306973247370
2332 1 2.400000000000 26.995922692140 0.000000000000 0.000000000000
2333 2 -1.200000000000 26.995922692140 31.334334992803 2.314881273159
2334 2 -1.200000000000 26.995922692140 1.403029925051 4.299065221582
2335 2 -1.200000000000 25.067642499844 0.935353283367 0.992091974211
2336 2 -1.200000000000 25.067642499844 2.806059850102 2.976275922633
2337 2 -1.200000000000 28.924202884436 0.935353283367 0.992091974211
2338 2 -1.200000000000 28.924202884436 2.806059850102 2.976275922633
2339 2 -1.200000000000 26.995922692140 2.338383208418 22.156720757382
2340 2 -1.200000000000 26.995922692140 4.209089775153 1.653486623685
2341 1 2.400000000000 57.848405768871 0.935353283367 6.613946494741
2342 1 2.400000000000 55.920125576576 4.209089775153 7.275341144215
2343 1 2.400000000000 59.776685961167 4.209089775153 7.275341144215
2344 1 2.400000000000 57.848405768871 3.741413133469 3.968367896844
2345 2 -1.200000000000 57.848405768871 3.273736491785 6.283249170004
2346 2 -1.200000000000 57.848405768871 5.144443058520 8.267433118426
2347 2 -1.200000000000 55.920125576576 4.676766416836 4.960459871056
2348 2 -1.200000000000 55.920125576576 6.547472983571 6.944643819478
2349 2 -1.200000000000 59.776685961167 4.676766416836 4.960459871056
2350 2 -1.200000000000 59.776685961167 6.547472983571 6.944643819478
2351 2 -1.200000000000 57.848405768871 6.079796341887 3.637670572107
2352 2 -1.200000000000 57.848405768871 7.950502908622 5.621854520530
2353 1 2.400000000000 57.848405768871 4.676766416836 10.582314391585
2354 1 2.400000000000 55.920125576576 7.950502908622 11.243709041059
2355 1 2.400000000000 59.776685961167 7.950502908622 11.243709041059
2356 1 2.400000000000 57.848405768871 7.482826266938 7.936735793689
2357 2 -1.200000000000 57.848405768871 7.015149625254 10.251617066848
2358 2 -1.200000000000 57.848405768871 8.885856191989 12.235801015270
2359 2 -1.200000000000 55.920125576576 8.418179550305 8.928827767900
2360 2 -1.200000000000 55.920125576576 10.288886117040 10.913011716322
2361 2 -1.200000000000 59.776685961167 8.418179550305 8.928827767900
2362 2 -1.200000000000 59.776685961167 10.288886117040 10.913011716322
2363 2 -1.200000000000 57.848405768871 9.821209475356 7.606038468952
2364 2 -1.200000000000 57.848405768871 11.691916042091 9.590222417374
2365 1 2.400000000000 57.848405768871 8.418179550305 14.550682288430
2366 1 2.400000000000 55.920125576576 11.691916042091 15.212076937904
2367 1 2.400000000000 59.776685961167 11.691916042091 15.212076937904
2368 1 2.400000000000 57.848405768871 11.224239400407 11.905103690533
2369 2 -1.200000000000 57.848405768871 10.756562758723 14.219984963693
2370 2 -1.200000000000 57.848405768871 12.627269325458 16.204168912115
2371 2 -1.200000000000 55.920125576576 12.159592683774 12.897195664745
2372 2 -1.200000000000 55.920125576576 14.030299250509 14.881379613167
2373 2 -1.200000000000 59.776685961167 12.159592683774 12.897195664745
2374 2 -1.200000000000 59.776685961167 14.030299250509 14.881379613167
2375 2 -1.200000000000 57.848405768871 13.562622608825 11.574406365796
2376 2 -1.200000000000 57.848405768871 15.433329175560 13.558590314219
2377 1 2.400000000000 57.848405768871 12.159592683774 18.519050185274
2378 1 2.400000000000 55.920125576576 15.433329175560 19.180444834748
2379 1 2.400000000000 59.776685961167 15.433329175560 19.180444834748
2380 1 2.400000000000 57.848405768871 14.965652533876 15.873471587378
2381 2 -1.200000000000 57.848405768871 14.497975892192 18.188352860537
2382 2 -1.200000000000 57.848405768871 16.368682458927 20.172536808959
2383 2 -1.200000000000 55.920125576576 15.901005817243 16.865563561589
2384 2 -1.200000000000 55.920125576576 17.771712383978 18.849747510011
2385 2 -1.200000000000 59.776685961167 15.901005817243 16.865563561589
2386 2 -1.200000000000 59.776685961167 17.771712383978 18.849747510011
2387 2 -1.200000000000 57.848405768871 17.304035742294 15.542774262641
2388 2 -1.200000000000 57.848405768871 19.174742309028 17.526958211063
2389 1 2.400000000000 53.991845384280 0.000000000000 0.000000000000
2390 1 2.400000000000 52.063565191984 3.273736491785 0.661394649474
2391 1 2.400000000000 55.920125576576 3.273736491785 0.661394649474
2392 1 2.400000000000 53.991845384280 2.806059850102 19.841839484222
2393 2 -1.200000000000 53.991845384280 2.338383208418 22.156720757382
2394 2 -1.200000000000 53.991845384280 4.209089775153 1.653486623685
2395 2 -1.200000000000 52.063565191984 3.741413133469 20.833931458434
2396 2 -1.200000000000 52.063565191984 5.612119700203 0.330697324737
2397 2 -1.200000000000 55.920125576576 3.741413133469 20.833931458434
2398 2 -1.200000000000 55.920125576576 5.612119700203 0.330697324737
2399 2 -1.200000000000 53.991845384280 5.144443058520 19.511142159485
2400 2 -1.200000000000 53.991845384280 7.015149625254 21.495326107908
2401 1 2.400000000000 53.991845384280 3.741413133469 3.968367896844
2402 1 2.400000000000 52.063565191984 7.015149625254 4.629762546319
2403 1 2.400000000000 55.920125576576 7.015149625254 4.629762546319
2404 1 2.400000000000 53.991845384280 6.547472983571 1.322789298948
2405 2 -1.200000000000 53.991845384280 6.079796341887 3.637670572107
2406 2 -1.200000000000 53.991845384280 7.950502908622 5.621854520530
2407 2 -1.200000000000 52.063565191984 7.482826266938 2.314881273159
2408 2 -1.200000000000 52.063565191984 9.353532833672 4.299065221582
2409 2 -1.200000000000 55.920125576576 7.482826266938 2.314881273159
2410 2 -1.200000000000 55.920125576576 9.353532833672 4.299065221582
2411 2 -1.200000000000 53.991845384280 8.885856191989 0.992091974211
2412 2 -1.200000000000 53.991845384280 10.756562758723 2.976275922633
2413 1 2.400000000000 53.991845384280 7.482826266938 7.936735793689
2414 1 2.400000000000 52.063565191984 10.756562758723 8.598130443163
2415 1 2.400000000000 55.920125576576 10.756562758723 8.598130443163
2416 1 2.400000000000 53.991845384280 10.288886117040 5.291157195793
2417 2 -1.200000000000 53.991845384280 9.821209475356 7.606038468952
2418 2 -1.200000000000 53.991845384280 11.691916042091 9.590222417374
2419 2 -1.200000000000 52.063565191984 11.224239400407 6.283249170004
2420 2 -1.200000000000 52.063565191984 13.094945967141 8.267433118426
2421 2 -1.200000000000 55.920125576576 11.224239400407 6.283249170004
2422 2 -1.200000000000 55.920125576576 13.094945967141 8.267433118426
2423 2 -1.200000000000 53.991845384280 12.627269325458 4.960459871056
2424 2 -1.200000000000 53.991845384280 14.497975892192 6.944643819478
2425 1 2.400000000000 53.991845384280 11.224239400407 11.905103690533
2426 1 2.400000000000 52.063565191984 14.497975892192 12.566498340008
2427 1 2.400000000000 55.920125576576 14.497975892192 12.566498340008
2428 1 2.400000000000 53.991845384280 14.030299250509 9.259525092637
2429 2 -1.200000000000 53.991845384280 13.562622608825 11.574406365796
2430 2 -1.200000000000 53.991845384280 15.433329175560 13.558590314219
2431 2 -1.200000000000 52.063565191984 14.965652533876 10.251617066848
2432 2 -1.200000000000 52.063565191984 16.836359100610 12.235801015270
2433 2 -1.200000000000 55.920125576576 14.965652533876 10.251617066848
2434 2 -1.200000000000 55.920125576576 16.836359100610 12.235801015270
2435 2 -1.200000000000 53.991845384280 16.368682458927 8.928827767900
2436 2 -1.200000000000 53.991845384280 18.239389025661 10.913011716322
2437 1 2.400000000000 53.991845384280 14.965652533876 15.873471587378
2438 1 2.400000000000 52.063565191984 18.239389025661 16.534866236852
2439 1 2.400000000000 55.920125576576 18.239389025661 16.534866236852
2440 1 2.400000000000 53.991845384280 17.771712383978 13.227892989482
2441 2 -1.200000000000 53.991845384280 17.304035742294 15.542774262641
2442 2 -1.200000000000 53.991845384280 19.174742309028 17.526958211063
2443 2 -1.200000000000 52.063565191984 18.707065667345 14.219984963693
2444 2 -1.200000000000 52.063565191984 20.577772234079 16.204168912115
2445 2 -1.200000000000 55.920125576576 18.707065667345 14.219984963693
2446 2 -1.200000000000 55.920125576576 20.577772234079 16.204168912115
2447 2 -1.200000000000 53.991845384280 20.110095592396 12.897195664745
2448 2 -1.200000000000 53.991845384280 21.980802159130 14.881379613167
2449 1 2.400000000000 53.991845384280 18.707065667345 19.841839484222
2450 1 2.400000000000 52.063565191984 21.980802159130 20.503234133696
2451 1 2.400000000000 55.920125576576 21.980802159130 20.503234133696
2452 1 2.400000000000 53.991845384280 21.513125517447 17.196260886326
2453 2 -1.200000000000 53.991845384280 21.045448875763 19.511142159485
2454 2 -1.200000000000 53.991845384280 22.916155442497 21.495326107908
2455 2 -1.200000000000 52.063565191984 22.448478800814 18.188352860537
2456 2 -1.200000000000 52.063565191984 24.319185367548 20.172536808959
2457 2 -1.200000000000 55.920125576576 22.448478800814 18.188352860537
2458 2 -1.200000000000 55.920125576576 24.319185367548 20.172536808959
2459 2 -1.200000000000 53.991845384280 23.851508725865 16.865563561589
2460 2 -1.200000000000 53.991845384280 25.722215292599 18.849747510011
2461 1 2.400000000000 50.135284999689 6.547472983571 1.322789298948
2462 1 2.400000000000 48.207004807393 9.821209475356 1.984183948422
2463 1 2.400000000000 52.063565191984 9.821209475356 1.984183948422
2464 1 2.400000000000 50.135284999689 9.353532833672 21.164628783171
2465 2 -1.200000000000 50.135284999689 8.885856191989 0.992091974211
2466 2 -1.200000000000 50.135284999689 10.756562758723 2.976275922633
2467 2 -1.200000000000 48.207004807393 10.288886117040 22.156720757382
2468 2 -1.200000000000 48.207004807393 12.159592683774 1.653486623685
2469 2 -1.200000000000 52.063565191984 10.288886117040 22.156720757382
2470 2 -1.200000000000 52.063565191984 12.159592683774 1.653486623685
2471 2 -1.200000000000 50.135284999689 11.691916042091 20.833931458434
2472 2 -1.200000000000 50.135284999689 13.562622608825 0.330697324737
2473 1 2.400000000000 50.135284999689 10.288886117040 5.291157195793
2474 1 2.400000000000 48.207004807393 13.562622608825 5.952551845267
2475 1 2.400000000000 52.063565191984 13.562622608825 5.952551845267
2476 1 2.400000000000 50.135284999689 13.094945967141 2.645578597896
2477 2 -1.200000000000 50.135284999689 12.627269325458 4.960459871056
2478 2 -1.200000000000 50.135284999689 14.497975892192 6.944643819478
2479 2 -1.200000000000 48.207004807393 14.030299250509 3.637670572107
2480 2 -1.200000000000 48.207004807393 15.901005817243 5.621854520530
2481 2 -1.200000000000 52.063565191984 14.030299250509 3.637670572107
2482 2 -1.200000000000 52.063565191984 15.901005817243 5.621854520530
2483 2 -1.200000000000 50.135284999689 15.433329175560 2.314881273159
2484 2 -1.200000000000 50.135284999689 17.304035742294 4.299065221582
2485 1 2.400000000000 50.135284999689 14.030299250509 9.259525092637
2486 1 2.400000000000 48.207004807393 17.304035742294 9.920919742111
2487 1 2.400000000000 52.063565191984 17.304035742294 9.920919742111
2488 1 2.400000000000 50.135284999689 16.836359100610 6.613946494741
2489 2 -1.200000000000 50.135284999689 16.368682458927 8.928827767900
2490 2 -1.200000000000 50.135284999689 18.239389025661 10.913011716322
2491 2 -1.200000000000 48.207004807393 17.771712383978 7.606038468952
2492 2 -1.200000000000 48.207004807393 19.642418950712 9.590222417374
2493 2 -1.200000000000 52.063565191984 17.771712383978 7.606038468952
2494 2 -1.200000000000 52.063565191984 19.642418950712 9.590222417374
2495 2 -1.200000000000 50.135284999689 19.174742309028 6.283249170004
2496 2 -1.200000000000 50.135284999689 21.045448875763 8.267433118426
2497 1 2.400000000000 50.135284999689 17.771712383978 13.227892989482
2498 1 2.400000000000 48.207004807393 21.045448875763 13.889287638956
2499 1 2.400000000000 52.063565191984 21.045448875763 13.889287638956
2500 1 2.400000000000 50.135284999689 20.577772234079 10.582314391585
2501 2 -1.200000000000 50.135284999689 20.110095592396 12.897195664745
2502 2 -1.200000000000 50.135284999689 21.980802159130 14.881379613167
2503 2 -1.200000000000 48.207004807393 21.513125517447 11.574406365796
2504 2 -1.200000000000 48.207004807393 23.383832084181 13.558590314219
2505 2 -1.200000000000 52.063565191984 21.513125517447 11.574406365796
2506 2 -1.200000000000 52.063565191984 23.383832084181 13.558590314219
2507 2 -1.200000000000 50.135284999689 22.916155442497 10.251617066848
2508 2 -1.200000000000 50.135284999689 24.786862009232 12.235801015270
2509 1 2.400000000000 50.135284999689 21.513125517447 17.196260886326
2510 1 2.400000000000 48.207004807393 24.786862009232 17.857655535800
2511 1 2.400000000000 52.063565191984 24.786862009232 17.857655535800
2512 1 2.400000000000 50.135284999689 24.319185367548 14.550682288430
2513 2 -1.200000000000 50.135284999689 23.851508725865 16.865563561589
2514 2 -1.200000000000 50.135284999689 25.722215292599 18.849747510011
2515 2 -1.200000000000 48.207004807393 25.254538650916 15.542774262641
2516 2 -1.200000000000 48.207004807393 27.125245217650 17.526958211063
2517 2 -1.200000000000 52.063565191984 25.254538650916 15.542774262641
2518 2 -1.200000000000 52.063565191984 27.125245217650 17.526958211063
2519 2 -1.200000000000 50.135284999689 26.657568575966 14.219984963693
2520 2 -1.200000000000 50.135284999689 28.528275142701 16.204168912115
2521 1 2.400000000000 50.135284999689 25.254538650916 21.164628783171
2522 1 2.400000000000 48.207004807393 28.528275142701 21.826023432645
2523 1 2.400000000000 52.063565191984 28.528275142701 21.826023432645
2524 1 2.400000000000 50.135284999689 28.060598501017 18.519050185274
2525 2 -1.200000000000 50.135284999689 27.592921859334 20.833931458434
2526 2 -1.200000000000 50.135284999689 29.463628426068 0.330697324737
2527 2 -1.200000000000 48.207004807393 28.995951784385 19.511142159485
2528 2 -1.200000000000 48.207004807393 30.866658351119 21.495326107908
2529 2 -1.200000000000 52.063565191984 28.995951784385 19.511142159485
2530 2 -1.200000000000 52.063565191984 30.866658351119 21.495326107908
2531 2 -1.200000000000 50.135284999689 30.398981709435 18.188352860537
2532 2 -1.200000000000 50.135284999689 0.467676641684 20.172536808959
2533 1 2.400000000000 46.278724615097 13.094945967141 2.645578597896
2534 1 2.400000000000 44.350444422801 16.368682458927 3.306973247370
2535 1 2.400000000000 48.207004807393 16.368682458927 3.306973247370
2536 1 2.400000000000 46.278724615097 15.901005817243 -0.000000000000
2537 2 -1.200000000000 46.278724615097 15.433329175560 2.314881273159
2538 2 -1.200000000000 46.278724615097 17.304035742294 4.299065221582
2539 2 -1.200000000000 44.350444422801 16.836359100610 0.992091974211
2540 2 -1.200000000000 44.350444422801 18.707065667345 2.976275922633
2541 2 -1.200000000000 48.207004807393 16.836359100610 0.992091974211
2542 2 -1.200000000000 48.207004807393 18.707065667345 2.976275922633
2543 2 -1.200000000000 46.278724615097 18.239389025661 22.156720757382
2544 2 -1.200000000000 46.278724615097 20.110095592396 1.653486623685
2545 1 2.400000000000 46.278724615097 16.836359100610 6.613946494741
2546 1 2.400000000000 44.350444422801 20.110095592396 7.275341144215
2547 1 2.400000000000 48.207004807393 20.110095592396 7.275341144215
2548 1 2.400000000000 46.278724615097 19.642418950712 3.968367896844
2549 2 -1.200000000000 46.278724615097 19.174742309028 6.283249170004
2550 2 -1.200000000000 46.278724615097 21.045448875763 8.267433118426
2551 2 -1.200000000000 44.350444422801 20.577772234079 4.960459871056
2552 2 -1.200000000000 44.350444422801 22.448478800814 6.944643819478
2553 2 -1.200000000000 48.207004807393 20.577772234079 4.960459871056
2554 2 -1.200000000000 48.207004807393 22.448478800814 6.944643819478
2555 2 -1.200000000000 46.278724615097 21.980802159130 3.637670572107
2556 2 -1.200000000000 46.278724615097 23.851508725865 5.621854520530
2557 1 2.400000000000 46.278724615097 20.577772234079 10.582314391585
2558 1 2.400000000000 44.350444422801 23.851508725865 11.243709041059
2559 1 2.400000000000 48.207004807393 23.851508725865 11.243709041059
2560 1 2.400000000000 46.278724615097 23.383832084181 7.936735793689
2561 2 -1.200000000000 46.278724615097 22.916155442497 10.251617066848
2562 2 -1.200000000000 46.278724615097 24.786862009232 12.235801015270
2563 2 -1.200000000000 44.350444422801 24.319185367548 8.928827767900
2564 2 -1.200000000000 44.350444422801 26.189891934283 10.913011716322
2565 2 -1.200000000000 48.207004807393 24.319185367548 8.928827767900
2566 2 -1.200000000000 48.207004807393 26.189891934283 10.913011716322
2567 2 -1.200000000000 46.278724615097 25.722215292599 7.606038468952
2568 2 -1.200000000000 46.278724615097 27.592921859334 9.590222417374
2569 1 2.400000000000 46.278724615097 24.319185367548 14.550682288430
2570 1 2.400000000000 44.350444422801 27.592921859334 15.212076937904
2571 1 2.400000000000 48.207004807393 27.592921859334 15.212076937904
2572 1 2.400000000000 46.278724615097 27.125245217650 11.905103690533
2573 2 -1.200000000000 46.278724615097 26.657568575966 14.219984963693
2574 2 -1.200000000000 46.278724615097 28.528275142701 16.204168912115
2575 2 -1.200000000000 44.350444422801 28.060598501017 12.897195664745
2576 2 -1.200000000000 44.350444422801 29.931305067752 14.881379613167
2577 2 -1.200000000000 48.207004807393 28.060598501017 12.897195664745
2578 2 -1.200000000000 48.207004807393 29.931305067752 14.881379613167
2579 2 -1.200000000000 46.278724615097 29.463628426068 11.574406365796
2580 2 -1.200000000000 46.278724615097 31.334334992803 13.558590314219
2581 1 2.400000000000 46.278724615097 28.060598501017 18.519050185274
2582 1 2.400000000000 44.350444422801 31.334334992803 19.180444834748
2583 1 2.400000000000 48.207004807393 31.334334992803 19.180444834748
2584 1 2.400000000000 46.278724615097 30.866658351119 15.873471587378
2585 2 -1.200000000000 46.278724615097 30.398981709435 18.188352860537
2586 2 -1.200000000000 46.278724615097 0.467676641684 20.172536808959
2587 2 -1.200000000000 44.350444422801 0.000000000000 16.865563561589
2588 2 -1.200000000000 44.350444422801 1.870706566734 18.849747510011
2589 2 -1.200000000000 48.207004807393 0.000000000000 16.865563561589
2590 2 -1.200000000000 48.207004807393 1.870706566734 18.849747510011
2591 2 -1.200000000000 46.278724615097 1.403029925051 15.542774262641
2592 2 -1.200000000000 46.278724615097 3.273736491785 17.526958211063
2593 1 2.400000000000 42.422164230506 15.901005817243 -0.000000000000
2594 1 2.400000000000 40.493884038210 19.174742309028 0.661394649474
2595 1 2.400000000000 44.350444422801 19.174742309028 0.661394649474
2596 1 2.400000000000 42.422164230506 18.707065667345 19.841839484222
2597 2 -1.200000000000 42.422164230506 18.239389025661 22.156720757382
2598 2 -1.200000000000 42.422164230506 20.110095592396 1.653486623685
2599 2 -1.200000000000 40.493884038210 19.642418950712 20.833931458434
2600 2 -1.200000000000 40.493884038210 21.513125517447 0.330697324737
2601 2 -1.200000000000 44.350444422801 19.642418950712 20.833931458434
2602 2 -1.200000000000 44.350444422801 21.513125517447 0.330697324737
2603 2 -1.200000000000 42.422164230506 21.045448875763 19.511142159485
2604 2 -1.200000000000 42.422164230506 22.916155442497 21.495326107908
2605 1 2.400000000000 42.422164230506 19.642418950712 3.968367896844
2606 1 2.400000000000 40.493884038210 22.916155442497 4.629762546319
2607 1 2.400000000000 44.350444422801 22.916155442497 4.629762546319
2608 1 2.400000000000 42.422164230506 22.448478800814 1.322789298948
2609 2 -1.200000000000 42.422164230506 21.980802159130 3.637670572107
2610 2 -1.200000000000 42.422164230506 23.851508725865 5.621854520530
2611 2 -1.200000000000 40.493884038210 23.383832084181 2.314881273159
2612 2 -1.200000000000 40.493884038210 25.254538650916 4.299065221582
2613 2 -1.200000000000 44.350444422801 23.383832084181 2.314881273159
2614 2 -1.200000000000 44.350444422801 25.254538650916 4.299065221582
2615 2 -1.200000000000 42.422164230506 24.786862009232 0.992091974211
2616 2 -1.200000000000 42.422164230506 26.657568575966 2.976275922633
2617 1 2.400000000000 42.422164230506 23.383832084181 7.936735793689
2618 1 2.400000000000 40.493884038210 26.657568575966 8.598130443163
2619 1 2.400000000000 44.350444422801 26.657568575966 8.598130443163
2620 1 2.400000000000 42.422164230506 26.189891934283 5.291157195793
2621 2 -1.200000000000 42.422164230506 25.722215292599 7.606038468952
2622 2 -1.200000000000 42.422164230506 27.592921859334 9.590222417374
2623 2 -1.200000000000 40.493884038210 27.125245217650 6.283249170004
2624 2 -1.200000000000 40.493884038210 28.995951784385 8.267433118426
2625 2 -1.200000000000 44.350444422801 27.125245217650 6.283249170004
2626 2 -1.200000000000 44.350444422801 28.995951784385 8.267433118426
2627 2 -1.200000000000 42.422164230506 28.528275142701 4.960459871056
2628 2 -1.200000000000 42.422164230506 30.398981709435 6.944643819478
2629 1 2.400000000000 42.422164230506 27.125245217650 11.905103690533
2630 1 2.400000000000 40.493884038210 30.398981709435 12.566498340008
2631 1 2.400000000000 44.350444422801 30.398981709435 12.566498340008
2632 1 2.400000000000 42.422164230506 29.931305067752 9.259525092637
2633 2 -1.200000000000 42.422164230506 29.463628426068 11.574406365796
2634 2 -1.200000000000 42.422164230506 31.334334992803 13.558590314219
2635 2 -1.200000000000 40.493884038210 30.866658351119 10.251617066848
2636 2 -1.200000000000 40.493884038210 0.935353283367 12.235801015270
2637 2 -1.200000000000 44.350444422801 30.866658351119 10.251617066848
2638 2 -1.200000000000 44.350444422801 0.935353283367 12.235801015270
2639 2 -1.200000000000 42.422164230506 0.467676641684 8.928827767900
2640 2 -1.200000000000 42.422164230506 2.338383208418 10.913011716322
2641 1 2.400000000000 42.422164230506 30.866658351119 15.873471587378
2642 1 2.400000000000 40.493884038210 2.338383208418 16.534866236852
2643 1 2.400000000000 44.350444422801 2.338383208418 16.534866236852
2644 1 2.400000000000 42.422164230506 1.870706566734 13.227892989482
2645 2 -1.200000000000 42.422164230506 1.403029925051 15.542774262641
2646 2 -1.200000000000 42.422164230506 3.273736491785 17.526958211063
2647 2 -1.200000000000 40.493884038210 2.806059850102 14.219984963693
2648 2 -1.200000000000 40.493884038210 4.676766416836 16.204168912115
2649 2 -1.200000000000 44.350444422801 2.806059850102 14.219984963693
2650 2 -1.200000000000 44.350444422801 4.676766416836 16.204168912115
2651 2 -1.200000000000 42.422164230506 4.209089775153 12.897195664745
2652 2 -1.200000000000 42.422164230506 6.079796341887 14.881379613167
2653 1 2.400000000000 38.565603845914 22.448478800814 1.322789298948
2654 1 2.400000000000 36.637323653619 25.722215292599 1.984183948422
2655 1 2.400000000000 40.493884038210 25.722215292599 1.984183948422
2656 1 2.400000000000 38.565603845914 25.254538650916 21.164628783171
2657 2 -1.200000000000 38.565603845914 24.786862009232 0.992091974211
2658 2 -1.200000000000 38.565603845914 26.657568575966 2.976275922633
2659 2 -1.200000000000 36.637323653619 26.189891934283 22.156720757382
2660 2 -1.200000000000 36.637323653619 28.060598501017 1.653486623685
2661 2 -1.200000000000 40.493884038210 26.189891934283 22.156720757382
2662 2 -1.200000000000 40.493884038210 28.060598501017 1.653486623685
2663 2 -1.200000000000 38.565603845914 27.592921859334 20.833931458434
2664 2 -1.200000000000 38.565603845914 29.463628426068 0.330697324737
2665 1 2.400000000000 38.565603845914 26.189891934283 5.291157195793
2666 1 2.400000000000 36.637323653619 29.463628426068 5.952551845267
2667 1 2.400000000000 40.493884038210 29.463628426068 5.952551845267
2668 1 2.400000000000 38.565603845914 28.995951784385 2.645578597896
2669 2 -1.200000000000 38.565603845914 28.528275142701 4.960459871056
2670 2 -1.200000000000 38.565603845914 30.398981709435 6.944643819478
2671 2 -1.200000000000 36.637323653619 29.931305067752 3.637670572107
2672 2 -1.200000000000 36.637323653619 0.000000000000 5.621854520530
2673 2 -1.200000000000 40.493884038210 29.931305067752 3.637670572107
2674 2 -1.200000000000 40.493884038210 0.000000000000 5.621854520530
2675 2 -1.200000000000 38.565603845914 31.334334992803 2.314881273159
2676 2 -1.200000000000 38.565603845914 1.403029925051 4.299065221582
2677 1 2.400000000000 38.565603845914 29.931305067752 9.259525092637
2678 1 2.400000000000 36.637323653619 1.403029925051 9.920919742111
2679 1 2.400000000000 40.493884038210 1.403029925051 9.920919742111
2680 1 2.400000000000 38.565603845914 0.935353283367 6.613946494741
2681 2 -1.200000000000 38.565603845914 0.467676641684 8.928827767900
2682 2 -1.200000000000 38.565603845914 2.338383208418 10.913011716322
2683 2 -1.200000000000 36.637323653619 1.870706566734 7.606038468952
2684 2 -1.200000000000 36.637323653619 3.741413133469 9.590222417374
2685 2 -1.200000000000 40.493884038210 1.870706566734 7.606038468952
2686 2 -1.200000000000 40.493884038210 3.741413133469 9.590222417374
2687 2 -1.200000000000 38.565603845914 3.273736491785 6.283249170004
2688 2 -1.200000000000 38.565603845914 5.144443058520 8.267433118426
2689 1 2.400000000000 34.709043461323 28.995951784385 2.645578597896
2690 1 2.400000000000 32.780763269027 0.467676641684 3.306973247370
2691 1 2.400000000000 36.637323653619 0.467676641684 3.306973247370
2692 1 2.400000000000 34.709043461323 0.000000000000 0.000000000000
2693 2 -1.200000000000 34.709043461323 31.334334992803 2.314881273159
2694 2 -1.200000000000 34.709043461323 1.403029925051 4.299065221582
2695 2 -1.200000000000 32.780763269027 0.935353283367 0.992091974211
2696 2 -1.200000000000 32.780763269027 2.806059850102 2.976275922633
2697 2 -1.200000000000 36.637323653619 0.935353283367 0.992091974211
2698 2 -1.200000000000 36.637323653619 2.806059850102 2.976275922633
2699 2 -1.200000000000 34.709043461323 2.338383208418 22.156720757382
2700 2 -1.200000000000 34.709043461323 4.209089775153 1.653486623685
2701 1 2.400000000000 57.848405768871 6.547472983571 1.322789298948
2702 1 2.400000000000 55.920125576576 9.821209475356 1.984183948422
2703 1 2.400000000000 59.776685961167 9.821209475356 1.984183948422
2704 1 2.400000000000 57.848405768871 9.353532833672 21.164628783171
2705 2 -1.200000000000 57.848405768871 8.885856191989 0.992091974211
2706 2 -1.200000000000 57.848405768871 10.756562758723 2.976275922633
2707 2 -1.200000000000 55.920125576576 10.288886117040 22.156720757382
2708 2 -1.200000000000 55.920125576576 12.159592683774 1.653486623685
2709 2 -1.200000000000 59.776685961167 10.288886117040 22.156720757382
2710 2 -1.200000000000 59.776685961167 12.159592683774 1.653486623685
2711 2 -1.200000000000 57.848405768871 11.691916042091 20.833931458434
2712 2 -1.200000000000 57.848405768871 13.562622608825 0.330697324737
2713 1 2.400000000000 57.848405768871 10.288886117040 5.291157195793
2714 1 2.400000000000 55.920125576576 13.562622608825 5.952551845267
2715 1 2.400000000000 59.776685961167 13.562622608825 5.952551845267
2716 1 2.400000000000 57.848405768871 13.094945967141 2.645578597896
2717 2 -1.200000000000 57.848405768871 12.627269325458 4.960459871056
2718 2 -1.200000000000 57.848405768871 14.497975892192 6.944643819478
2719 2 -1.200000000000 55.920125576576 14.030299250509 3.637670572107
2720 2 -1.200000000000 55.920125576576 15.901005817243 5.621854520530
2721 2 -1.200000000000 59.776685961167 14.030299250509 3.637670572107
2722 2 -1.200000000000 59.776685961167 15.901005817243 5.621854520530
2723 2 -1.200000000000 57.848405768871 15.433329175560 2.314881273159
2724 2 -1.200000000000 57.848405768871 17.304035742294 4.299065221582
2725 1 2.400000000000 57.848405768871 14.030299250509 9.259525092637
2726 1 2.400000000000 55.920125576576 17.304035742294 9.920919742111
2727 1 2.400000000000 59.776685961167 17.304035742294 9.920919742111
2728 1 2.400000000000 57.848405768871 16.836359100610 6.613946494741
2729 2 -1.200000000000 57.848405768871 16.368682458927 8.928827767900
2730 2 -1.200000000000 57.848405768871 18.239389025661 10.913011716322
2731 2 -1.200000000000 55.920125576576 17.771712383978 7.606038468952
2732 2 -1.200000000000 55.920125576576 19.642418950712 9.590222417374
2733 2 -1.200000000000 59.776685961167 17.771712383978 7.606038468952
2734 2 -1.200000000000 59.776685961167 19.642418950712 9.590222417374
2735 2 -1.200000000000 57.848405768871 19.174742309028 6.283249170004
2736 2 -1.200000000000 57.848405768871 21.045448875763 8.267433118426
2737 1 2.400000000000 57.848405768871 17.771712383978 13.227892989482
2738 1 2.400000000000 55.920125576576 21.045448875763 13.889287638956
2739 1 2.400000000000 59.776685961167 21.045448875763 13.889287638956
2740 1 2.400000000000 57.848405768871 20.577772234079 10.582314391585
2741 2 -1.200000000000 57.848405768871 20.110095592396 12.897195664745
2742 2 -1.200000000000 57.848405768871 21.980802159130 14.881379613167
2743 2 -1.200000000000 55.920125576576 21.513125517447 11.574406365796
2744 2 -1.200000000000 55.920125576576 23.383832084181 13.558590314219
2745 2 -1.200000000000 59.776685961167 21.513125517447 11.574406365796
2746 2 -1.200000000000 59.776685961167 23.383832084181 13.558590314219
2747 2 -1.200000000000 57.848405768871 22.916155442497 10.251617066848
2748 2 -1.200000000000 57.848405768871 24.786862009232 12.235801015270
2749 1 2.400000000000 57.848405768871 21.513125517447 17.196260886326
2750 1 2.400000000000 55.920125576576 24.786862009232 17.857655535800
2751 1 2.400000000000 59.776685961167 24.786862009232 17.857655535800
2752 1 2.400000000000 57.848405768871 24.319185367548 14.550682288430
2753 2 -1.200000000000 57.848405768871 23.851508725865 16.865563561589
2754 2 -1.200000000000 57.848405768871 25.722215292599 18.849747510011
2755 2 -1.200000000000 55.920125576576 25.254538650916 15.542774262641
2756 2 -1.200000000000 55.920125576576 27.125245217650 17.526958211063
2757 2 -1.200000000000 59.776685961167 25.254538650916 15.542774262641
2758 2 -1.200000000000 59.776685961167 27.125245217650 17.526958211063
2759 2 -1.200000000000 57.848405768871 26.657568575966 14.219984963693
2760 2 -1.200000000000 57.848405768871 28.528275142701 16.204168912115
2761 1 2.400000000000 57.848405768871 25.254538650916 21.164628783171
2762 1 2.400000000000 55.920125576576 28.528275142701 21.826023432645
2763 1 2.400000000000 59.776685961167 28.528275142701 21.826023432645
2764 1 2.400000000000 57.848405768871 28.060598501017 18.519050185274
2765 2 -1.200000000000 57.848405768871 27.592921859334 20.833931458434
2766 2 -1.200000000000 57.848405768871 29.463628426068 0.330697324737
2767 2 -1.200000000000 55.920125576576 28.995951784385 19.511142159485
2768 2 -1.200000000000 55.920125576576 30.866658351119 21.495326107908
2769 2 -1.200000000000 59.776685961167 28.995951784385 19.511142159485
2770 2 -1.200000000000 59.776685961167 30.866658351119 21.495326107908
2771 2 -1.200000000000 57.848405768871 30.398981709435 18.188352860537
2772 2 -1.200000000000 57.848405768871 0.467676641684 20.172536808959
2773 1 2.400000000000 53.991845384280 13.094945967141 2.645578597896
2774 1 2.400000000000 52.063565191984 16.368682458927 3.306973247370
2775 1 2.400000000000 55.920125576576 16.368682458927 3.306973247370
2776 1 2.400000000000 53.991845384280 15.901005817243 -0.000000000000
2777 2 -1.200000000000 53.991845384280 15.433329175560 2.314881273159
2778 2 -1.200000000000 53.991845384280 17.304035742294 4.299065221582
2779 2 -1.200000000000 52.063565191984 16.836359100610 0.992091974211
2780 2 -1.200000000000 52.063565191984 18.707065667345 2.976275922633
2781 2 -1.200000000000 55.920125576576 16.836359100610 0.992091974211
2782 2 -1.200000000000 55.920125576576 18.707065667345 2.976275922633
2783 2 -1.200000000000 53.991845384280 18.239389025661 22.156720757382
2784 2 -1.200000000000 53.991845384280 20.110095592396 1.653486623685
2785 1 2.400000000000 53.991845384280 16.836359100610 6.613946494741
2786 1 2.400000000000 52.063565191984 20.110095592396 7.275341144215
2787 1 2.400000000000 55.920125576576 20.110095592396 7.275341144215
2788 1 2.400000000000 53.991845384280 19.642418950712 3.968367896844
2789 2 -1.200000000000 53.991845384280 19.174742309028 6.283249170004
2790 2 -1.200000000000 53.991845384280 21.045448875763 8.267433118426
2791 2 -1.200000000000 52.063565191984 20.577772234079 4.960459871056
2792 2 -1.200000000000 52.063565191984 22.448478800814 6.944643819478
2793 2 -1.200000000000 55.920125576576 20.577772234079 4.960459871056
2794 2 -1.200000000000 55.920125576576 22.448478800814 6.944643819478
2795 2 -1.200000000000 53.991845384280 21.980802159130 3.637670572107
2796 2 -1.200000000000 53.991845384280 23.851508725865 5.621854520530
2797 1 2.400000000000 53.991845384280 20.577772234079 10.582314391585
2798 1 2.400000000000 52.063565191984 23.851508725865 11.243709041059
2799 1 2.400000000000 55.920125576576 23.851508725865 11.243709041059
2800 1 2.400000000000 53.991845384280 23.383832084181 7.936735793689
2801 2 -1.200000000000 53.991845384280 22.916155442497 10.251617066848
2802 2 -1.200000000000 53.991845384280 24.786862009232 12.235801015270
2803 2 -1.200000000000 52.063565191984 24.319185367548 8.928827767900
2804 2 -1.200000000000 52.063565191984 26.189891934283 10.913011716322
2805 2 -1.200000000000 55.920125576576 24.319185367548 8.928827767900
2806 2 -1.200000000000 55.920125576576 26.189891934283 10.913011716322
2807 2 -1.200000000000 53.991845384280 25.722215292599 7.606038468952
2808 2 -1.200000000000 53.991845384280 27.592921859334 9.590222417374
2809 1 2.400000000000 53.991845384280 24.319185367548 14.550682288430
2810 1 2.400000000000 52.063565191984 27.592921859334 15.212076937904
2811 1 2.400000000000 55.920125576576 27.592921859334 15.212076937904
2812 1 2.400000000000 53.991845384280 27.125245217650 11.905103690533
2813 2 -1.200000000000 53.991845384280 26.657568575966 14.219984963693
2814 2 -1.200000000000 53.991845384280 28.528275142701 16.204168912115
2815 2 -1.200000000000 52.063565191984 28.060598501017 12.897195664745
2816 2 -1.200000000000 52.063565191984 29.931305067752 14.881379613167
2817 2 -1.200000000000 55.920125576576 28.060598501017 12.897195664745
2818 2 -1.200000000000 55.920125576576 29.931305067752 14.881379613167
2819 2 -1.200000000000 53.991845384280 29.463628426068 11.574406365796
2820 2 -1.200000000000 53.991845384280 31.334334992803 13.558590314219
2821 1 2.400000000000 53.991845384280 28.060598501017 18.519050185274
2822 1 2.400000000000 52.063565191984 31.334334992803 19.180444834748
2823 1 2.400000000000 55.920125576576 31.334334992803 19.180444834748
2824 1 2.400000000000 53.991845384280 30.866658351119 15.873471587378
2825 2 -1.200000000000 53.991845384280 30.398981709435 18.188352860537
2826 2 -1.200000000000 53.991845384280 0.467676641684 20.172536808959
2827 2 -1.200000000000 52.063565191984 0.000000000000 16.865563561589
2828 2 -1.200000000000 52.063565191984 1.870706566734 18.849747510011
2829 2 -1.200000000000 55.920125576576 0.000000000000 16.865563561589
2830 2 -1.200000000000 55.920125576576 1.870706566734 18.849747510011
2831 2 -1.200000000000 53.991845384280 1.403029925051 15.542774262641
2832 2 -1.200000000000 53.991845384280 3.273736491785 17.526958211063
2833 1 2.400000000000 50.135284999689 15.901005817243 -0.000000000000
2834 1 2.400000000000 48.207004807393 19.174742309028 0.661394649474
2835 1 2.400000000000 52.063565191984 19.174742309028 0.661394649474
2836 1 2.400000000000 50.135284999689 18.707065667345 19.841839484222
2837 2 -1.200000000000 50.135284999689 18.239389025661 22.156720757382
2838 2 -1.200000000000 50.135284999689 20.110095592396 1.653486623685
2839 2 -1.200000000000 48.207004807393 19.642418950712 20.833931458434
2840 2 -1.200000000000 48.207004807393 21.513125517447 0.330697324737
2841 2 -1.200000000000 52.063565191984 19.642418950712 20.833931458434
2842 2 -1.200000000000 52.063565191984 21.513125517447 0.330697324737
2843 2 -1.200000000000 50.135284999689 21.045448875763 19.511142159485
2844 2 -1.200000000000 50.135284999689 22.916155442497 21.495326107908
2845 1 2.400000000000 50.135284999689 19.642418950712 3.968367896844
2846 1 2.400000000000 48.207004807393 22.916155442497 4.629762546319
2847 1 2.400000000000 52.063565191984 22.916155442497 4.629762546319
2848 1 2.400000000000 50.135284999689 22.448478800814 1.322789298948
2849 2 -1.200000000000 50.135284999689 21.980802159130 3.637670572107
2850 2 -1.200000000000 50.135284999689 23.851508725865 5.621854520530
2851 2 -1.200000000000 48.207004807393 23.383832084181 2.314881273159
2852 2 -1.200000000000 48.207004807393 25.254538650916 4.299065221582
2853 2 -1.200000000000 52.063565191984 23.383832084181 2.314881273159
2854 2 -1.200000000000 52.063565191984 25.254538650916 4.299065221582
2855 2 -1.200000000000 50.135284999689 24.786862009232 0.992091974211
2856 2 -1.200000000000 50.135284999689 26.657568575966 2.976275922633
2857 1 2.400000000000 50.135284999689 23.383832084181 7.936735793689
2858 1 2.400000000000 48.207004807393 26.657568575966 8.598130443163
2859 1 2.400000000000 52.063565191984 26.657568575966 8.598130443163
2860 1 2.400000000000 50.135284999689 26.189891934283 5.291157195793
2861 2 -1.200000000000 50.135284999689 25.722215292599 7.606038468952
2862 2 -1.200000000000 50.135284999689 27.592921859334 9.590222417374
2863 2 -1.200000000000 48.207004807393 27.125245217650 6.283249170004
2864 2 -1.200000000000 48.207004807393 28.995951784385 8.267433118426
2865 2 -1.200000000000 52.063565191984 27.125245217650 6.283249170004
2866 2 -1.200000000000 52.063565191984 28.995951784385 8.267433118426
2867 2 -1.200000000000 50.135284999689 28.528275142701 4.960459871056
2868 2 -1.200000000000 50.135284999689 30.398981709435 6.944643819478
2869 1 2.400000000000 50.135284999689 27.125245217650 11.905103690533
2870 1 2.400000000000 48.207004807393 30.398981709435 12.566498340008
2871 1 2.400000000000 52.063565191984 30.398981709435 12.566498340008
2872 1 2.400000000000 50.135284999689 29.931305067752 9.259525092637
2873 2 -1.200000000000 50.135284999689 29.463628426068 11.574406365796
2874 2 -1.200000000000 50.135284999689 31.334334992803 13.558590314219
2875 2 -1.200000000000 48.207004807393 30.866658351119 10.251617066848
2876 2 -1.200000000000 48.207004807393 0.935353283367 12.235801015270
2877 2 -1.200000000000 52.063565191984 30.866658351119 10.251617066848
2878 2 -1.200000000000 52.063565191984 0.935353283367 12.235801015270
2879 2 -1.200000000000 50.135284999689 0.467676641684 8.928827767900
2880 2 -1.200000000000 50.135284999689 2.338383208418 10.913011716322
2881 1 2.400000000000 50.135284999689 30.866658351119 15.873471587378
2882 1 2.400000000000 48.207004807393 2.338383208418 16.534866236852
2883 1 2.400000000000 52.063565191984 2.338383208418 16.534866236852
2884 1 2.400000000000 50.135284999689 1.870706566734 13.227892989482
2885 2 -1.200000000000 50.135284999689 1.403029925051 15.542774262641
2886 2 -1.200000000000 50.135284999689 3.273736491785 17.526958211063
2887 2 -1.200000000000 48.207004807393 2.806059850102 14.219984963693
2888 2 -1.200000000000 48.207004807393 4.676766416836 16.204168912115
2889 2 -1.200000000000 52.063565191984 2.806059850102 14.219984963693
2890 2 -1.200000000000 52.063565191984 4.676766416836 16.204168912115
2891 2 -1.200000000000 50.135284999689 4.209089775153 12.897195664745
2892 2 -1.200000000000 50.135284999689 6.079796341887 14.881379613167
2893 1 2.400000000000 46.278724615097 22.448478800814 1.322789298948
2894 1 2.400000000000 44.350444422801 25.722215292599 1.984183948422
2895 1 2.400000000000 48.207004807393 25.722215292599 1.984183948422
2896 1 2.400000000000 46.278724615097 25.254538650916 21.164628783171
2897 2 -1.200000000000 46.278724615097 24.786862009232 0.992091974211
2898 2 -1.200000000000 46.278724615097 26.657568575966 2.976275922633
2899 2 -1.200000000000 44.350444422801 26.189891934283 22.156720757382
2900 2 -1.200000000000 44.350444422801 28.060598501017 1.653486623685
2901 2 -1.200000000000 48.207004807393 26.189891934283 22.156720757382
2902 2 -1.200000000000 48.207004807393 28.060598501017 1.653486623685
2903 2 -1.200000000000 46.278724615097 27.592921859334 20.833931458434
2904 2 -1.200000000000 46.278724615097 29.463628426068 0.330697324737
2905 1 2.400000000000 46.278724615097 26.189891934283 5.291157195793
2906 1 2.400000000000 44.350444422801 29.463628426068 5.952551845267
2907 1 2.400000000000 48.207004807393 29.463628426068 5.952551845267
2908 1 2.400000000000 46.278724615097 28.995951784385 2.645578597896
2909 2 -1.200000000000 46.278724615097 28.528275142701 4.960459871056
2910 2 -1.200000000000 46.278724615097 30.398981709435 6.944643819478
2911 2 -1.200000000000 44.350444422801 29.931305067752 3.637670572107
2912 2 -1.200000000000 44.350444422801 0.000000000000 5.621854520530
2913 2 -1.200000000000 48.207004807393 29.931305067752 3.637670572107
2914 2 -1.200000000000 48.207004807393 0.000000000000 5.621854520530
2915 2 -1.200000000000 46.278724615097 31.334334992803 2.314881273159
2916 2 -1.200000000000 46.278724615097 1.403029925051 4.299065221582
2917 1 2.400000000000 46.278724615097 29.931305067752 9.259525092637
2918 1 2.400000000000 44.350444422801 1.403029925051 9.920919742111
2919 1 2.400000000000 48.207004807393 1.403029925051 9.920919742111
2920 1 2.400000000000 46.278724615097 0.935353283367 6.613946494741
2921 2 -1.200000000000 46.278724615097 0.467676641684 8.928827767900
2922 2 -1.200000000000 46.278724615097 2.338383208418 10.913011716322
2923 2 -1.200000000000 44.350444422801 1.870706566734 7.606038468952
2924 2 -1.200000000000 44.350444422801 3.741413133469 9.590222417374
2925 2 -1.200000000000 48.207004807393 1.870706566734 7.606038468952
2926 2 -1.200000000000 48.207004807393 3.741413133469 9.590222417374
2927 2 -1.200000000000 46.278724615097 3.273736491785 6.283249170004
2928 2 -1.200000000000 46.278724615097 5.144443058520 8.267433118426
2929 1 2.400000000000 42.422164230506 28.995951784385 2.645578597896
2930 1 2.400000000000 40.493884038210 0.467676641684 3.306973247370
2931 1 2.400000000000 44.350444422801 0.467676641684 3.306973247370
2932 1 2.400000000000 42.422164230506 0.000000000000 0.000000000000
2933 2 -1.200000000000 42.422164230506 31.334334992803 2.314881273159
2934 2 -1.200000000000 42.422164230506 1.403029925051 4.299065221582
2935 2 -1.200000000000 40.493884038210 0.935353283367 0.992091974211
2936 2 -1.200000000000 40.493884038210 2.806059850102 2.976275922633
2937 2 -1.200000000000 44.350444422801 0.935353283367 0.992091974211
2938 2 -1.200000000000 44.350444422801 2.806059850102 2.976275922633
2939 2 -1.200000000000 42.422164230506 2.338383208418 22.156720757382
2940 2 -1.200000000000 42.422164230506 4.209089775153 1.653486623685
2941 1 2.400000000000 57.848405768871 15.901005817243 -0.000000000000
2942 1 2.400000000000 55.920125576576 19.174742309028 0.661394649474
2943 1 2.400000000000 59.776685961167 19.174742309028 0.661394649474
2944 1 2.400000000000 57.848405768871 18.707065667345 19.841839484222
2945 2 -1.200000000000 57.848405768871 18.239389025661 22.156720757382
2946 2 -1.200000000000 57.848405768871 20.110095592396 1.653486623685
2947 2 -1.200000000000 55.920125576576 19.642418950712 20.833931458434
2948 2 -1.200000000000 55.920125576576 21.513125517447 0.330697324737
2949 2 -1.200000000000 59.776685961167 19.642418950712 20.833931458434
2950 2 -1.200000000000 59.776685961167 21.513125517447 0.330697324737
2951 2 -1.200000000000 57.848405768871 21.045448875763 19.511142159485
2952 2 -1.200000000000 57.848405768871 22.916155442497 21.495326107908
2953 1 2.400000000000 57.848405768871 19.642418950712 3.968367896844
2954 1 2.400000000000 55.920125576576 22.916155442497 4.629762546319
2955 1 2.400000000000 59.776685961167 22.916155442497 4.629762546319
2956 1 2.400000000000 57.848405768871 22.448478800814 1.322789298948
2957 2 -1.200000000000 57.848405768871 21.980802159130 3.637670572107
2958 2 -1.200000000000 57.848405768871 23.851508725865 5.621854520530
2959 2 -1.200000000000 55.920125576576 23.383832084181 2.314881273159
2960 2 -1.200000000000 55.920125576576 25.254538650916 4.299065221582
2961 2 -1.200000000000 59.776685961167 23.383832084181 2.314881273159
2962 2 -1.200000000000 59.776685961167 25.254538650916 4.299065221582
2963 2 -1.200000000000 57.848405768871 24.786862009232 0.992091974211
2964 2 -1.200000000000 57.848405768871 26.657568575966 2.976275922633
2965 1 2.400000000000 57.848405768871 23.383832084181 7.936735793689
2966 1 2.400000000000 55.920125576576 26.657568575966 8.598130443163
2967 1 2.400000000000 59.776685961167 26.657568575966 8.598130443163
2968 1 2.400000000000 57.848405768871 26.189891934283 5.291157195793
2969 2 -1.200000000000 57.848405768871 25.722215292599 7.606038468952
2970 2 -1.200000000000 57.848405768871 27.592921859334 9.590222417374
2971 2 -1.200000000000 55.920125576576 27.125245217650 6.283249170004
2972 2 -1.200000000000 55.920125576576 28.995951784385 8.267433118426
2973 2 -1.200000000000 59.776685961167 27.125245217650 6.283249170004
2974 2 -1.200000000000 59.776685961167 28.995951784385 8.267433118426
2975 2 -1.200000000000 57.848405768871 28.528275142701 4.960459871056
2976 2 -1.200000000000 57.848405768871 30.398981709435 6.944643819478
2977 1 2.400000000000 57.848405768871 27.125245217650 11.905103690533
2978 1 2.400000000000 55.920125576576 30.398981709435 12.566498340008
2979 1 2.400000000000 59.776685961167 30.398981709435 12.566498340008
2980 1 2.400000000000 57.848405768871 29.931305067752 9.259525092637
2981 2 -1.200000000000 57.848405768871 29.463628426068 11.574406365796
2982 2 -1.200000000000 57.848405768871 31.334334992803 13.558590314219
2983 2 -1.200000000000 55.920125576576 30.866658351119 10.251617066848
2984 2 -1.200000000000 55.920125576576 0.935353283367 12.235801015270
2985 2 -1.200000000000 59.776685961167 30.866658351119 10.251617066848
2986 2 -1.200000000000 59.776685961167 0.935353283367 12.235801015270
2987 2 -1.200000000000 57.848405768871 0.467676641684 8.928827767900
2988 2 -1.200000000000 57.848405768871 2.338383208418 10.913011716322
2989 1 2.400000000000 57.848405768871 30.866658351119 15.873471587378
2990 1 2.400000000000 55.920125576576 2.338383208418 16.534866236852
2991 1 2.400000000000 59.776685961167 2.338383208418 16.534866236852
2992 1 2.400000000000 57.848405768871 1.870706566734 13.227892989482
2993 2 -1.200000000000 57.848405768871 1.403029925051 15.542774262641
2994 2 -1.200000000000 57.848405768871 3.273736491785 17.526958211063
2995 2 -1.200000000000 55.920125576576 2.806059850102 14.219984963693
2996 2 -1.200000000000 55.920125576576 4.676766416836 16.204168912115
2997 2 -1.200000000000 59.776685961167 2.806059850102 14.219984963693
2998 2 -1.200000000000 59.776685961167 4.676766416836 16.204168912115
2999 2 -1.200000000000 57.848405768871 4.209089775153 12.897195664745
3000 2 -1.200000000000 57.848405768871 6.079796341887 14.881379613167
3001 1 2.400000000000 53.991845384280 22.448478800814 1.322789298948
3002 1 2.400000000000 52.063565191984 25.722215292599 1.984183948422
3003 1 2.400000000000 55.920125576576 25.722215292599 1.984183948422
3004 1 2.400000000000 53.991845384280 25.254538650916 21.164628783171
3005 2 -1.200000000000 53.991845384280 24.786862009232 0.992091974211
3006 2 -1.200000000000 53.991845384280 26.657568575966 2.976275922633
3007 2 -1.200000000000 52.063565191984 26.189891934283 22.156720757382
3008 2 -1.200000000000 52.063565191984 28.060598501017 1.653486623685
3009 2 -1.200000000000 55.920125576576 26.189891934283 22.156720757382
3010 2 -1.200000000000 55.920125576576 28.060598501017 1.653486623685
3011 2 -1.200000000000 53.991845384280 27.592921859334 20.833931458434
3012 2 -1.200000000000 53.991845384280 29.463628426068 0.330697324737
3013 1 2.400000000000 53.991845384280 26.189891934283 5.291157195793
3014 1 2.400000000000 52.063565191984 29.463628426068 5.952551845267
3015 1 2.400000000000 55.920125576576 29.463628426068 5.952551845267
3016 1 2.400000000000 53.991845384280 28.995951784385 2.645578597896
3017 2 -1.200000000000 53.991845384280 28.528275142701 4.960459871056
3018 2 -1.200000000000 53.991845384280 30.398981709435 6.944643819478
3019 2 -1.200000000000 52.063565191984 29.931305067752 3.637670572107
3020 2 -1.200000000000 52.063565191984 0.000000000000 5.621854520530
3021 2 -1.200000000000 55.920125576576 29.931305067752 3.637670572107
3022 2 -1.200000000000 55.920125576576 0.000000000000 5.621854520530
3023 2 -1.200000000000 53.991845384280 31.334334992803 2.314881273159
3024 2 -1.200000000000 53.991845384280 1.403029925051 4.299065221582
3025 1 2.400000000000 53.991845384280 29.931305067752 9.259525092637
3026 1 2.400000000000 52.063565191984 1.403029925051 9.920919742111
3027 1 2.400000000000 55.920125576576 1.403029925051 9.920919742111
3028 1 2.400000000000 53.991845384280 0.935353283367 6.613946494741
3029 2 -1.200000000000 53.991845384280 0.467676641684 8.928827767900
3030 2 -1.200000000000 53.991845384280 2.338383208418 10.913011716322
3031 2 -1.200000000000 52.063565191984 1.870706566734 7.606038468952
3032 2 -1.200000000000 52.063565191984 3.741413133469 9.590222417374
3033 2 -1.200000000000 55.920125576576 1.870706566734 7.606038468952
3034 2 -1.200000000000 55.920125576576 3.741413133469 9.590222417374
3035 2 -1.200000000000 53.991845384280 3.273736491785 6.283249170004
3036 2 -1.200000000000 53.991845384280 5.144443058520 8.267433118426
3037 1 2.400000000000 50.135284999689 28.995951784385 2.645578597896
3038 1 2.400000000000 48.207004807393 0.467676641684 3.306973247370
3039 1 2.400000000000 52.063565191984 0.467676641684 3.306973247370
3040 1 2.400000000000 50.135284999689 0.000000000000 0.000000000000
3041 2 -1.200000000000 50.135284999689 31.334334992803 2.314881273159
3042 2 -1.200000000000 50.135284999689 1.403029925051 4.299065221582
3043 2 -1.200000000000 48.207004807393 0.935353283367 0.992091974211
3044 2 -1.200000000000 48.207004807393 2.806059850102 2.976275922633
3045 2 -1.200000000000 52.063565191984 0.935353283367 0.992091974211
3046 2 -1.200000000000 52.063565191984 2.806059850102 2.976275922633
3047 2 -1.200000000000 50.135284999689 2.338383208418 22.156720757382
3048 2 -1.200000000000 50.135284999689 4.209089775153 1.653486623685
3049 1 2.400000000000 57.848405768871 28.995951784385 2.645578597896
3050 1 2.400000000000 55.920125576576 0.467676641684 3.306973247370
3051 1 2.400000000000 59.776685961167 0.467676641684 3.306973247370
3052 1 2.400000000000 57.848405768871 0.000000000000 0.000000000000
3053 2 -1.200000000000 57.848405768871 31.334334992803 2.314881273159
3054 2 -1.200000000000 57.848405768871 1.403029925051 4.299065221582
3055 2 -1.200000000000 55.920125576576 0.935353283367 0.992091974211
3056 2 -1.200000000000 55.920125576576 2.806059850102 2.976275922633
3057 2 -1.200000000000 59.776685961167 0.935353283367 0.992091974211
3058 2 -1.200000000000 59.776685961167 2.806059850102 2.976275922633
3059 2 -1.200000000000 57.848405768871 2.338383208418 22.156720757382
3060 2 -1.200000000000 57.848405768871 4.209089775153 1.653486623685
3061 1 2.400000000000 69.418086922646 0.000000000000 0.000000000000
3062 1 2.400000000000 67.489806730350 31.334334992803 3.306973247370
3063 1 2.400000000000 71.346367114941 31.334334992803 3.306973247370
3064 1 2.400000000000 69.418086922646 2.806059850102 2.645578597896
3065 2 -1.200000000000 69.418086922646 0.467676641684 2.314881273159
3066 2 -1.200000000000 69.418086922646 30.398981709435 4.299065221582
3067 2 -1.200000000000 67.489806730350 1.870706566734 3.637670572107
3068 2 -1.200000000000 67.489806730350 0.000000000000 5.621854520530
3069 2 -1.200000000000 71.346367114941 1.870706566734 3.637670572107
3070 2 -1.200000000000 71.346367114941 0.000000000000 5.621854520530
3071 2 -1.200000000000 69.418086922646 3.273736491785 4.960459871056
3072 2 -1.200000000000 69.418086922646 1.403029925051 6.944643819478
3073 1 2.400000000000 65.561526538054 2.806059850102 2.645578597896
3074 1 2.400000000000 63.633246345759 2.338383208418 5.952551845267
3075 1 2.400000000000 67.489806730350 2.338383208418 5.952551845267
3076 1 2.400000000000 65.561526538054 5.612119700203 5.291157195793
3077 2 -1.200000000000 65.561526538054 3.273736491785 4.960459871056
3078 2 -1.200000000000 65.561526538054 1.403029925051 6.944643819478
3079 2 -1.200000000000 63.633246345759 4.676766416836 6.283249170004
3080 2 -1.200000000000 63.633246345759 2.806059850102 8.267433118426
3081 2 -1.200000000000 67.489806730350 4.676766416836 6.283249170004
3082 2 -1.200000000000 67.489806730350 2.806059850102 8.267433118426
3083 2 -1.200000000000 65.561526538054 6.079796341887 7.606038468952
3084 2 -1.200000000000 65.561526538054 4.209089775153 9.590222417374
3085 1 2.400000000000 77.131207691829 0.000000000000 0.000000000000
3086 1 2.400000000000 75.202927499533 31.334334992803 3.306973247370
3087 1 2.400000000000 79.059487884124 31.334334992803 3.306973247370
3088 1 2.400000000000 77.131207691829 2.806059850102 2.645578597896
3089 2 -1.200000000000 77.131207691829 0.467676641684 2.314881273159
3090 2 -1.200000000000 77.131207691829 30.398981709435 4.299065221582
3091 2 -1.200000000000 75.202927499533 1.870706566734 3.637670572107
3092 2 -1.200000000000 75.202927499533 0.000000000000 5.621854520530
3093 2 -1.200000000000 79.059487884124 1.870706566734 3.637670572107
3094 2 -1.200000000000 79.059487884124 0.000000000000 5.621854520530
3095 2 -1.200000000000 77.131207691829 3.273736491785 4.960459871056
3096 2 -1.200000000000 77.131207691829 1.403029925051 6.944643819478
3097 1 2.400000000000 73.274647307237 2.806059850102 2.645578597896
3098 1 2.400000000000 71.346367114941 2.338383208418 5.952551845267
3099 1 2.400000000000 75.202927499533 2.338383208418 5.952551845267
3100 1 2.400000000000 73.274647307237 5.612119700203 5.291157195793
3101 2 -1.200000000000 73.274647307237 3.273736491785 4.960459871056
3102 2 -1.200000000000 73.274647307237 1.403029925051 6.944643819478
3103 2 -1.200000000000 71.346367114941 4.676766416836 6.283249170004
3104 2 -1.200000000000 71.346367114941 2.806059850102 8.267433118426
3105 2 -1.200000000000 75.202927499533 4.676766416836 6.283249170004
3106 2 -1.200000000000 75.202927499533 2.806059850102 8.267433118426
3107 2 -1.200000000000 73.274647307237 6.079796341887 7.606038468952
3108 2 -1.200000000000 73.274647307237 4.209089775153 9.590222417374
3109 1 2.400000000000 69.418086922646 9.353532833672 1.322789298948
3110 1 2.400000000000 67.489806730350 8.885856191989 4.629762546319
3111 1 2.400000000000 71.346367114941 8.885856191989 4.629762546319
3112 1 2.400000000000 69.418086922646 12.159592683774 3.968367896844
3113 2 -1.200000000000 69.418086922646 9.821209475356 3.637670572107
3114 2 -1.200000000000 69.418086922646 7.950502908622 5.621854520530
3115 2 -1.200000000000 67.489806730350 11.224239400407 4.960459871056
3116 2 -1.200000000000 67.489806730350 9.353532833672 6.944643819478
3117 2 -1.200000000000 71.346367114941 11.224239400407 4.960459871056
3118 2 -1.200000000000 71.346367114941 9.353532833672 6.944643819478
3119 2 -1.200000000000 69.418086922646 12.627269325458 6.283249170004
3120 2 -1.200000000000 69.418086922646 10.756562758723 8.267433118426
3121 1 2.400000000000 69.418086922646 5.612119700203 5.291157195793
3122 1 2.400000000000 67.489806730350 5.144443058520 8.598130443163
3123 1 2.400000000000 71.346367114941 5.144443058520 8.598130443163
3124 1 2.400000000000 69.418086922646 8.418179550305 7.936735793689
3125 2 -1.200000000000 69.418086922646 6.079796341887 7.606038468952
3126 2 -1.200000000000 69.418086922646 4.209089775153 9.590222417374
3127 2 -1.200000000000 67.489806730350 7.482826266938 8.928827767900
3128 2 -1.200000000000 67.489806730350 5.612119700203 10.913011716322
3129 2 -1.200000000000 71.346367114941 7.482826266938 8.928827767900
3130 2 -1.200000000000 71.346367114941 5.612119700203 10.913011716322
3131 2 -1.200000000000 69.418086922646 8.885856191989 10.251617066848
3132 2 -1.200000000000 69.418086922646 7.015149625254 12.235801015270
3133 1 2.400000000000 69.418086922646 1.870706566734 9.259525092637
3134 1 2.400000000000 67.489806730350 1.403029925051 12.566498340008
3135 1 2.400000000000 71.346367114941 1.403029925051 12.566498340008
3136 1 2.400000000000 69.418086922646 4.676766416836 11.905103690533
3137 2 -1.200000000000 69.418086922646 2.338383208418 11.574406365796
3138 2 -1.200000000000 69.418086922646 0.467676641684 13.558590314219
3139 2 -1.200000000000 67.489806730350 3.741413133469 12.897195664745
3140 2 -1.200000000000 67.489806730350 1.870706566734 14.881379613167
3141 2 -1.200000000000 71.346367114941 3.741413133469 12.897195664745
3142 2 -1.200000000000 71.346367114941 1.870706566734 14.881379613167
3143 2 -1.200000000000 69.418086922646 5.144443058520 14.219984963693
3144 2 -1.200000000000 69.418086922646 3.273736491785 16.204168912115
3145 1 2.400000000000 65.561526538054 15.901005817243 0.000000000000
3146 1 2.400000000000 63.633246345759 15.433329175560 3.306973247370
3147 1 2.400000000000 67.489806730350 15.433329175560 3.306973247370
3148 1 2.400000000000 65.561526538054 18.707065667345 2.645578597896
3149 2 -1.200000000000 65.561526538054 16.368682458927 2.314881273159
3150 2 -1.200000000000 65.561526538054 14.497975892192 4.299065221582
3151 2 -1.200000000000 63.633246345759 17.771712383978 3.637670572107
3152 2 -1.200000000000 63.633246345759 15.901005817243 5.621854520530
3153 2 -1.200000000000 67.489806730350 17.771712383978 3.637670572107
3154 2 -1.200000000000 67.489806730350 15.901005817243 5.621854520530
3155 2 -1.200000000000 65.561526538054 19.174742309028 4.960459871056
3156 2 -1.200000000000 65.561526538054 17.304035742294 6.944643819478
3157 1 2.400000000000 65.561526538054 12.159592683774 3.968367896844
3158 1 2.400000000000 63.633246345759 11.691916042091 7.275341144215
3159 1 2.400000000000 67.489806730350 11.691916042091 7.275341144215
3160 1 2.400000000000 65.561526538054 14.965652533876 6.613946494741
3161 2 -1.200000000000 65.561526538054 12.627269325458 6.283249170004
3162 2 -1.200000000000 65.561526538054 10.756562758723 8.267433118426
3163 2 -1.200000000000 63.633246345759 14.030299250509 7.606038468952
3164 2 -1.200000000000 63.633246345759 12.159592683774 9.590222417374
3165 2 -1.200000000000 67.489806730350 14.030299250509 7.606038468952
3166 2 -1.200000000000 67.489806730350 12.159592683774 9.590222417374
3167 2 -1.200000000000 65.561526538054 15.433329175560 8.928827767900
3168 2 -1.200000000000 65.561526538054 13.562622608825 10.913011716322
3169 1 2.400000000000 65.561526538054 8.418179550305 7.936735793689
3170 1 2.400000000000 63.633246345759 7.950502908622 11.243709041059
3171 1 2.400000000000 67.489806730350 7.950502908622 11.243709041059
3172 1 2.400000000000 65.561526538054 11.224239400407 10.582314391585
3173 2 -1.200000000000 65.561526538054 8.885856191989 10.251617066848
3174 2 -1.200000000000 65.561526538054 7.015149625254 12.235801015270
3175 2 -1.200000000000 63.633246345759 10.288886117040 11.574406365796
3176 2 -1.200000000000 63.633246345759 8.418179550305 13.558590314219
3177 2 -1.200000000000 67.489806730350 10.288886117040 11.574406365796
3178 2 -1.200000000000 67.489806730350 8.418179550305 13.558590314219
3179 2 -1.200000000000 65.561526538054 11.691916042091 12.897195664745
3180 2 -1.200000000000 65.561526538054 9.821209475356 14.881379613167
3181 1 2.400000000000 65.561526538054 4.676766416836 11.905103690533
3182 1 2.400000000000 63.633246345759 4.209089775153 15.212076937904
3183 1 2.400000000000 67.489806730350 4.209089775153 15.212076937904
3184 1 2.400000000000 65.561526538054 7.482826266938 14.550682288430
3185 2 -1.200000000000 65.561526538054 5.144443058520 14.219984963693
3186 2 -1.200000000000 65.561526538054 3.273736491785 16.204168912115
3187 2 -1.200000000000 63.633246345759 6.547472983571 15.542774262641
3188 2 -1.200000000000 63.633246345759 4.676766416836 17.526958211063
3189 2 -1.200000000000 67.489806730350 6.547472983571 15.542774262641
3190 2 -1.200000000000 67.489806730350 4.676766416836 17.526958211063
3191 2 -1.200000000000 65.561526538054 7.950502908622 16.865563561589
3192 2 -1.200000000000 65.561526538054 6.079796341887 18.849747510011
3193 1 2.400000000000 65.561526538054 0.935353283367 15.873471587378
3194 1 2.400000000000 63.633246345759 0.467676641684 19.180444834748
3195 1 2.400000000000 67.489806730350 0.467676641684 19.180444834748
3196 1 2.400000000000 65.561526538054 3.741413133469 18.519050185274
3197 2 -1.200000000000 65.561526538054 1.403029925051 18.188352860537
3198 2 -1.200000000000 65.561526538054 31.334334992803 20.172536808959
3199 2 -1.200000000000 63.633246345759 2.806059850102 19.511142159485
3200 2 -1.200000000000 63.633246345759 0.935353283367 21.495326107908
3201 2 -1.200000000000 67.489806730350 2.806059850102 19.511142159485
3202 2 -1.200000000000 67.489806730350 0.935353283367 21.495326107908
3203 2 -1.200000000000 65.561526538054 4.209089775153 20.833931458434
3204 2 -1.200000000000 65.561526538054 2.338383208418 0.330697324737
3205 1 2.400000000000 84.844328461011 0.000000000000 0.000000000000
3206 1 2.400000000000 82.916048268716 31.334334992803 3.306973247370
3207 1 2.400000000000 86.772608653307 31.334334992803 3.306973247370
3208 1 2.400000000000 84.844328461011 2.806059850102 2.645578597896
3209 2 -1.200000000000 84.844328461011 0.467676641684 2.314881273159
3210 2 -1.200000000000 84.844328461011 30.398981709435 4.299065221582
3211 2 -1.200000000000 82.916048268716 1.870706566734 3.637670572107
3212 2 -1.200000000000 82.916048268716 0.000000000000 5.621854520530
3213 2 -1.200000000000 86.772608653307 1.870706566734 3.637670572107
3214 2 -1.200000000000 86.772608653307 0.000000000000 5.621854520530
3215 2 -1.200000000000 84.844328461011 3.273736491785 4.960459871056
3216 2 -1.200000000000 84.844328461011 1.403029925051 6.944643819478
3217 1 2.400000000000 80.987768076420 2.806059850102 2.645578597896
3218 1 2.400000000000 79.059487884124 2.338383208418 5.952551845267
3219 1 2.400000000000 82.916048268716 2.338383208418 5.952551845267
3220 1 2.400000000000 80.987768076420 5.612119700203 5.291157195793
3221 2 -1.200000000000 80.987768076420 3.273736491785 4.960459871056
3222 2 -1.200000000000 80.987768076420 1.403029925051 6.944643819478
3223 2 -1.200000000000 79.059487884124 4.676766416836 6.283249170004
3224 2 -1.200000000000 79.059487884124 2.806059850102 8.267433118426
3225 2 -1.200000000000 82.916048268716 4.676766416836 6.283249170004
3226 2 -1.200000000000 82.916048268716 2.806059850102 8.267433118426
3227 2 -1.200000000000 80.987768076420 6.079796341887 7.606038468952
3228 2 -1.200000000000 80.987768076420 4.209089775153 9.590222417374
3229 1 2.400000000000 77.131207691829 9.353532833672 1.322789298948
3230 1 2.400000000000 75.202927499533 8.885856191989 4.629762546319
3231 1 2.400000000000 79.059487884124 8.885856191989 4.629762546319
3232 1 2.400000000000 77.131207691829 12.159592683774 3.968367896844
3233 2 -1.200000000000 77.131207691829 9.821209475356 3.637670572107
3234 2 -1.200000000000 77.131207691829 7.950502908622 5.621854520530
3235 2 -1.200000000000 75.202927499533 11.224239400407 4.960459871056
3236 2 -1.200000000000 75.202927499533 9.353532833672 6.944643819478
3237 2 -1.200000000000 79.059487884124 11.224239400407 4.960459871056
3238 2 -1.200000000000 79.059487884124 9.353532833672 6.944643819478
3239 2 -1.200000000000 77.131207691829 12.627269325458 6.283249170004
3240 2 -1.200000000000 77.131207691829 10.756562758723 8.267433118426
3241 1 2.400000000000 77.131207691829 5.612119700203 5.291157195793
3242 1 2.400000000000 75.202927499533 5.144443058520 8.598130443163
3243 1 2.400000000000 79.059487884124 5.144443058520 8.598130443163
3244 1 2.400000000000 77.131207691829 8.418179550305 7.936735793689
3245 2 -1.200000000000 77.131207691829 6.079796341887 7.606038468952
3246 2 -1.200000000000 77.131207691829 4.209089775153 9.590222417374
3247 2 -1.200000000000 75.202927499533 7.482826266938 8.928827767900
3248 2 -1.200000000000 75.202927499533 5.612119700203 10.913011716322
3249 2 -1.200000000000 79.059487884124 7.482826266938 8.928827767900
3250 2 -1.200000000000 79.059487884124 5.612119700203 10.913011716322
3251 2 -1.200000000000 77.131207691829 8.885856191989 10.251617066848
3252 2 -1.200000000000 77.131207691829 7.015149625254 12.235801015270
3253 1 2.400000000000 77.131207691829 1.870706566734 9.259525092637
3254 1 2.400000000000 75.202927499533 1.403029925051 12.566498340008
3255 1 2.400000000000 79.059487884124 1.403029925051 12.566498340008
3256 1 2.400000000000 77.131207691829 4.676766416836 11.905103690533
3257 2 -1.200000000000 77.131207691829 2.338383208418 11.574406365796
3258 2 -1.200000000000 77.131207691829 0.467676641684 13.558590314219
3259 2 -1.200000000000 75.202927499533 3.741413133469 12.897195664745
3260 2 -1.200000000000 75.202927499533 1.870706566734 14.881379613167
3261 2 -1.200000000000 79.059487884124 3.741413133469 12.897195664745
3262 2 -1.200000000000 79.059487884124 1.870706566734 14.881379613167
3263 2 -1.200000000000 77.131207691829 5.144443058520 14.219984963693
3264 2 -1.200000000000 77.131207691829 3.273736491785 16.204168912115
3265 1 2.400000000000 73.274647307237 15.901005817243 0.000000000000
3266 1 2.400000000000 71.346367114941 15.433329175560 3.306973247370
3267 1 2.400000000000 75.202927499533 15.433329175560 3.306973247370
3268 1 2.400000000000 73.274647307237 18.707065667345 2.645578597896
3269 2 -1.200000000000 73.274647307237 16.368682458927 2.314881273159
3270 2 -1.200000000000 73.274647307237 14.497975892192 4.299065221582
3271 2 -1.200000000000 71.346367114941 17.771712383978 3.637670572107
3272 2 -1.200000000000 71.346367114941 15.901005817243 5.621854520530
3273 2 -1.200000000000 75.202927499533 17.771712383978 3.637670572107
3274 2 -1.200000000000 75.202927499533 15.901005817243 5.621854520530
3275 2 -1.200000000000 73.274647307237 19.174742309028 4.960459871056
3276 2 -1.200000000000 73.274647307237 17.304035742294 6.944643819478
3277 1 2.400000000000 73.274647307237 12.159592683774 3.968367896844
3278 1 2.400000000000 71.346367114941 11.691916042091 7.275341144215
3279 1 2.400000000000 75.202927499533 11.691916042091 7.275341144215
3280 1 2.400000000000 73.274647307237 14.965652533876 6.613946494741
3281 2 -1.200000000000 73.274647307237 12.627269325458 6.283249170004
3282 2 -1.200000000000 73.274647307237 10.756562758723 8.267433118426
3283 2 -1.200000000000 71.346367114941 14.030299250509 7.606038468952
3284 2 -1.200000000000 71.346367114941 12.159592683774 9.590222417374
3285 2 -1.200000000000 75.202927499533 14.030299250509 7.606038468952
3286 2 -1.200000000000 75.202927499533 12.159592683774 9.590222417374
3287 2 -1.200000000000 73.274647307237 15.433329175560 8.928827767900
3288 2 -1.200000000000 73.274647307237 13.562622608825 10.913011716322
3289 1 2.400000000000 73.274647307237 8.418179550305 7.936735793689
3290 1 2.400000000000 71.346367114941 7.950502908622 11.243709041059
3291 1 2.400000000000 75.202927499533 7.950502908622 11.243709041059
3292 1 2.400000000000 73.274647307237 11.224239400407 10.582314391585
3293 2 -1.200000000000 73.274647307237 8.885856191989 10.251617066848
3294 2 -1.200000000000 73.274647307237 7.015149625254 12.235801015270
3295 2 -1.200000000000 71.346367114941 10.288886117040 11.574406365796
3296 2 -1.200000000000 71.346367114941 8.418179550305 13.558590314219
3297 2 -1.200000000000 75.202927499533 10.288886117040 11.574406365796
3298 2 -1.200000000000 75.202927499533 8.418179550305 13.558590314219
3299 2 -1.200000000000 73.274647307237 11.691916042091 12.897195664745
3300 2 -1.200000000000 73.274647307237 9.821209475356 14.881379613167
3301 1 2.400000000000 73.274647307237 4.676766416836 11.905103690533
3302 1 2.400000000000 71.346367114941 4.209089775153 15.212076937904
3303 1 2.400000000000 75.202927499533 4.209089775153 15.212076937904
3304 1 2.400000000000 73.274647307237 7.482826266938 14.550682288430
3305 2 -1.200000000000 73.274647307237 5.144443058520 14.219984963693
3306 2 -1.200000000000 73.274647307237 3.273736491785 16.204168912115
3307 2 -1.200000000000 71.346367114941 6.547472983571 15.542774262641
3308 2 -1.200000000000 71.346367114941 4.676766416836 17.526958211063
3309 2 -1.200000000000 75.202927499533 6.547472983571 15.542774262641
3310 2 -1.200000000000 75.202927499533 4.676766416836 17.526958211063
3311 2 -1.200000000000 73.274647307237 7.950502908622 16.865563561589
3312 2 -1.200000000000 73.274647307237 6.079796341887 18.849747510011
3313 1 2.400000000000 73.274647307237 0.935353283367 15.873471587378
3314 1 2.400000000000 71.346367114941 0.467676641684 19.180444834748
3315 1 2.400000000000 75.202927499533 0.467676641684 19.180444834748
3316 1 2.400000000000 73.274647307237 3.741413133469 18.519050185274
3317 2 -1.200000000000 73.274647307237 1.403029925051 18.188352860537
3318 2 -1.200000000000 73.274647307237 31.334334992803 20.172536808959
3319 2 -1.200000000000 71.346367114941 2.806059850102 19.511142159485
3320 2 -1.200000000000 71.346367114941 0.935353283367 21.495326107908
3321 2 -1.200000000000 75.202927499533 2.806059850102 19.511142159485
3322 2 -1.200000000000 75.202927499533 0.935353283367 21.495326107908
3323 2 -1.200000000000 73.274647307237 4.209089775153 20.833931458434
3324 2 -1.200000000000 73.274647307237 2.338383208418 0.330697324737
3325 1 2.400000000000 69.418086922646 18.707065667345 2.645578597896
3326 1 2.400000000000 67.489806730350 18.239389025661 5.952551845267
3327 1 2.400000000000 71.346367114941 18.239389025661 5.952551845267
3328 1 2.400000000000 69.418086922646 21.513125517447 5.291157195793
3329 2 -1.200000000000 69.418086922646 19.174742309028 4.960459871056
3330 2 -1.200000000000 69.418086922646 17.304035742294 6.944643819478
3331 2 -1.200000000000 67.489806730350 20.577772234079 6.283249170004
3332 2 -1.200000000000 67.489806730350 18.707065667345 8.267433118426
3333 2 -1.200000000000 71.346367114941 20.577772234079 6.283249170004
3334 2 -1.200000000000 71.346367114941 18.707065667345 8.267433118426
3335 2 -1.200000000000 69.418086922646 21.980802159130 7.606038468952
3336 2 -1.200000000000 69.418086922646 20.110095592396 9.590222417374
3337 1 2.400000000000 69.418086922646 14.965652533876 6.613946494741
3338 1 2.400000000000 67.489806730350 14.497975892192 9.920919742111
3339 1 2.400000000000 71.346367114941 14.497975892192 9.920919742111
3340 1 2.400000000000 69.418086922646 17.771712383978 9.259525092637
3341 2 -1.200000000000 69.418086922646 15.433329175560 8.928827767900
3342 2 -1.200000000000 69.418086922646 13.562622608825 10.913011716322
3343 2 -1.200000000000 67.489806730350 16.836359100610 10.251617066848
3344 2 -1.200000000000 67.489806730350 14.965652533876 12.235801015270
3345 2 -1.200000000000 71.346367114941 16.836359100610 10.251617066848
3346 2 -1.200000000000 71.346367114941 14.965652533876 12.235801015270
3347 2 -1.200000000000 69.418086922646 18.239389025661 11.574406365796
3348 2 -1.200000000000 69.418086922646 16.368682458927 13.558590314219
3349 1 2.400000000000 69.418086922646 11.224239400407 10.582314391585
3350 1 2.400000000000 67.489806730350 10.756562758723 13.889287638956
3351 1 2.400000000000 71.346367114941 10.756562758723 13.889287638956
3352 1 2.400000000000 69.418086922646 14.030299250509 13.227892989482
3353 2 -1.200000000000 69.418086922646 11.691916042091 12.897195664745
3354 2 -1.200000000000 69.418086922646 9.821209475356 14.881379613167
3355 2 -1.200000000000 67.489806730350 13.094945967141 14.219984963693
3356 2 -1.200000000000 67.489806730350 11.224239400407 16.204168912115
3357 2 -1.200000000000 71.346367114941 13.094945967141 14.219984963693
3358 2 -1.200000000000 71.346367114941 11.224239400407 16.204168912115
3359 2 -1.200000000000 69.418086922646 14.497975892192 15.542774262641
3360 2 -1.200000000000 69.418086922646 12.627269325458 17.526958211063
3361 1 2.400000000000 69.418086922646 7.482826266938 14.550682288430
3362 1 2.400000000000 67.489806730350 7.015149625254 17.857655535800
3363 1 2.400000000000 71.346367114941 7.015149625254 17.857655535800
3364 1 2.400000000000 69.418086922646 10.288886117040 17.196260886326
3365 2 -1.200000000000 69.418086922646 7.950502908622 16.865563561589
3366 2 -1.200000000000 69.418086922646 6.079796341887 18.849747510011
3367 2 -1.200000000000 67.489806730350 9.353532833672 18.188352860537
3368 2 -1.200000000000 67.489806730350 7.482826266938 20.172536808959
3369 2 -1.200000000000 71.346367114941 9.353532833672 18.188352860537
3370 2 -1.200000000000 71.346367114941 7.482826266938 20.172536808959
3371 2 -1.200000000000 69.418086922646 10.756562758723 19.511142159485
3372 2 -1.200000000000 69.418086922646 8.885856191989 21.495326107908
3373 1 2.400000000000 69.418086922646 3.741413133469 18.519050185274
3374 1 2.400000000000 67.489806730350 3.273736491785 21.826023432645
3375 1 2.400000000000 71.346367114941 3.273736491785 21.826023432645
3376 1 2.400000000000 69.418086922646 6.547472983571 21.164628783171
3377 2 -1.200000000000 69.418086922646 4.209089775153 20.833931458434
3378 2 -1.200000000000 69.418086922646 2.338383208418 0.330697324737
3379 2 -1.200000000000 67.489806730350 5.612119700203 22.156720757382
3380 2 -1.200000000000 67.489806730350 3.741413133469 1.653486623685
3381 2 -1.200000000000 71.346367114941 5.612119700203 22.156720757382
3382 2 -1.200000000000 71.346367114941 3.741413133469 1.653486623685
3383 2 -1.200000000000 69.418086922646 7.015149625254 0.992091974211
3384 2 -1.200000000000 69.418086922646 5.144443058520 2.976275922633
3385 1 2.400000000000 65.561526538054 25.254538650916 1.322789298948
3386 1 2.400000000000 63.633246345759 24.786862009232 4.629762546319
3387 1 2.400000000000 67.489806730350 24.786862009232 4.629762546319
3388 1 2.400000000000 65.561526538054 28.060598501017 3.968367896844
3389 2 -1.200000000000 65.561526538054 25.722215292599 3.637670572107
3390 2 -1.200000000000 65.561526538054 23.851508725865 5.621854520530
3391 2 -1.200000000000 63.633246345759 27.125245217650 4.960459871056
3392 2 -1.200000000000 63.633246345759 25.254538650916 6.944643819478
3393 2 -1.200000000000 67.489806730350 27.125245217650 4.960459871056
3394 2 -1.200000000000 67.489806730350 25.254538650916 6.944643819478
3395 2 -1.200000000000 65.561526538054 28.528275142701 6.283249170004
3396 2 -1.200000000000 65.561526538054 26.657568575966 8.267433118426
3397 1 2.400000000000 65.561526538054 21.513125517447 5.291157195793
3398 1 2.400000000000 63.633246345759 21.045448875763 8.598130443163
3399 1 2.400000000000 67.489806730350 21.045448875763 8.598130443163
3400 1 2.400000000000 65.561526538054 24.319185367548 7.936735793689
3401 2 -1.200000000000 65.561526538054 21.980802159130 7.606038468952
3402 2 -1.200000000000 65.561526538054 20.110095592396 9.590222417374
3403 2 -1.200000000000 63.633246345759 23.383832084181 8.928827767900
3404 2 -1.200000000000 63.633246345759 21.513125517447 10.913011716322
3405 2 -1.200000000000 67.489806730350 23.383832084181 8.928827767900
3406 2 -1.200000000000 67.489806730350 21.513125517447 10.913011716322
3407 2 -1.200000000000 65.561526538054 24.786862009232 10.251617066848
3408 2 -1.200000000000 65.561526538054 22.916155442497 12.235801015270
3409 1 2.400000000000 65.561526538054 17.771712383978 9.259525092637
3410 1 2.400000000000 63.633246345759 17.304035742294 12.566498340008
3411 1 2.400000000000 67.489806730350 17.304035742294 12.566498340008
3412 1 2.400000000000 65.561526538054 20.577772234079 11.905103690533
3413 2 -1.200000000000 65.561526538054 18.239389025661 11.574406365796
3414 2 -1.200000000000 65.561526538054 16.368682458927 13.558590314219
3415 2 -1.200000000000 63.633246345759 19.642418950712 12.897195664745
3416 2 -1.200000000000 63.633246345759 17.771712383978 14.881379613167
3417 2 -1.200000000000 67.489806730350 19.642418950712 12.897195664745
3418 2 -1.200000000000 67.489806730350 17.771712383978 14.881379613167
3419 2 -1.200000000000 65.561526538054 21.045448875763 14.219984963693
3420 2 -1.200000000000 65.561526538054 19.174742309028 16.204168912115
3421 1 2.400000000000 65.561526538054 14.030299250509 13.227892989482
3422 1 2.400000000000 63.633246345759 13.562622608825 16.534866236852
3423 1 2.400000000000 67.489806730350 13.562622608825 16.534866236852
3424 1 2.400000000000 65.561526538054 16.836359100610 15.873471587378
3425 2 -1.200000000000 65.561526538054 14.497975892192 15.542774262641
3426 2 -1.200000000000 65.561526538054 12.627269325458 17.526958211063
3427 2 -1.200000000000 63.633246345759 15.901005817243 16.865563561589
3428 2 -1.200000000000 63.633246345759 14.030299250509 18.849747510011
3429 2 -1.200000000000 67.489806730350 15.901005817243 16.865563561589
3430 2 -1.200000000000 67.489806730350 14.030299250509 18.849747510011
3431 2 -1.200000000000 65.561526538054 17.304035742294 18.188352860537
3432 2 -1.200000000000 65.561526538054 15.433329175560 20.172536808959
3433 1 2.400000000000 65.561526538054 10.288886117040 17.196260886326
3434 1 2.400000000000 63.633246345759 9.821209475356 20.503234133696
3435 1 2.400000000000 67.489806730350 9.821209475356 20.503234133696
3436 1 2.400000000000 65.561526538054 13.094945967141 19.841839484222
3437 2 -1.200000000000 65.561526538054 10.756562758723 19.511142159485
3438 2 -1.200000000000 65.561526538054 8.885856191989 21.495326107908
3439 2 -1.200000000000 63.633246345759 12.159592683774 20.833931458434
3440 2 -1.200000000000 63.633246345759 10.288886117040 0.330697324737
3441 2 -1.200000000000 67.489806730350 12.159592683774 20.833931458434
3442 2 -1.200000000000 67.489806730350 10.288886117040 0.330697324737
3443 2 -1.200000000000 65.561526538054 13.562622608825 22.156720757382
3444 2 -1.200000000000 65.561526538054 11.691916042091 1.653486623685
3445 1 2.400000000000 65.561526538054 6.547472983571 21.164628783171
3446 1 2.400000000000 63.633246345759 6.079796341887 1.984183948422
3447 1 2.400000000000 67.489806730350 6.079796341887 1.984183948422
3448 1 2.400000000000 65.561526538054 9.353532833672 1.322789298948
3449 2 -1.200000000000 65.561526538054 7.015149625254 0.992091974211
3450 2 -1.200000000000 65.561526538054 5.144443058520 2.976275922633
3451 2 -1.200000000000 63.633246345759 8.418179550305 2.314881273159
3452 2 -1.200000000000 63.633246345759 6.547472983571 4.299065221582
3453 2 -1.200000000000 67.489806730350 8.418179550305 2.314881273159
3454 2 -1.200000000000 67.489806730350 6.547472983571 4.299065221582
3455 2 -1.200000000000 65.561526538054 9.821209475356 3.637670572107
3456 2 -1.200000000000 65.561526538054 7.950502908622 5.621854520530
3457 1 2.400000000000 92.557449230194 0.000000000000 0.000000000000
3458 1 2.400000000000 90.629169037899 31.334334992803 3.306973247370
3459 1 2.400000000000 94.485729422490 31.334334992803 3.306973247370
3460 1 2.400000000000 92.557449230194 2.806059850102 2.645578597896
3461 2 -1.200000000000 92.557449230194 0.467676641684 2.314881273159
3462 2 -1.200000000000 92.557449230194 30.398981709435 4.299065221582
3463 2 -1.200000000000 90.629169037899 1.870706566734 3.637670572107
3464 2 -1.200000000000 90.629169037899 0.000000000000 5.621854520530
3465 2 -1.200000000000 94.485729422490 1.870706566734 3.637670572107
3466 2 -1.200000000000 94.485729422490 0.000000000000 5.621854520530
3467 2 -1.200000000000 92.557449230194 3.273736491785 4.960459871056
3468 2 -1.200000000000 92.557449230194 1.403029925051 6.944643819478
3469 1 2.400000000000 88.700888845603 2.806059850102 2.645578597896
3470 1 2.400000000000 86.772608653307 2.338383208418 5.952551845267
3471 1 2.400000000000 90.629169037899 2.338383208418 5.952551845267
3472 1 2.400000000000 88.700888845603 5.612119700203 5.291157195793
3473 2 -1.200000000000 88.700888845603 3.273736491785 4.960459871056
3474 2 -1.200000000000 88.700888845603 1.403029925051 6.944643819478
3475 2 -1.200000000000 86.772608653307 4.676766416836 6.283249170004
3476 2 -1.200000000000 86.772608653307 2.806059850102 8.267433118426
3477 2 -1.200000000000 90.629169037899 4.676766416836 6.283249170004
3478 2 -1.200000000000 90.629169037899 2.806059850102 8.267433118426
3479 2 -1.200000000000 88.700888845603 6.079796341887 7.606038468952
3480 2 -1.200000000000 88.700888845603 4.209089775153 9.590222417374
3481 1 2.400000000000 84.844328461011 9.353532833672 1.322789298948
3482 1 2.400000000000 82.916048268716 8.885856191989 4.629762546319
3483 1 2.400000000000 86.772608653307 8.885856191989 4.629762546319
3484 1 2.400000000000 84.844328461011 12.159592683774 3.968367896844
3485 2 -1.200000000000 84.844328461011 9.821209475356 3.637670572107
3486 2 -1.200000000000 84.844328461011 7.950502908622 5.621854520530
3487 2 -1.200000000000 82.916048268716 11.224239400407 4.960459871056
3488 2 -1.200000000000 82.916048268716 9.353532833672 6.944643819478
3489 2 -1.200000000000 86.772608653307 11.224239400407 4.960459871056
3490 2 -1.200000000000 86.772608653307 9.353532833672 6.944643819478
3491 2 -1.200000000000 84.844328461011 12.627269325458 6.283249170004
3492 2 -1.200000000000 84.844328461011 10.756562758723 8.267433118426
3493 1 2.400000000000 84.844328461011 5.612119700203 5.291157195793
3494 1 2.400000000000 82.916048268716 5.144443058520 8.598130443163
3495 1 2.400000000000 86.772608653307 5.144443058520 8.598130443163
3496 1 2.400000000000 84.844328461011 8.418179550305 7.936735793689
3497 2 -1.200000000000 84.844328461011 6.079796341887 7.606038468952
3498 2 -1.200000000000 84.844328461011 4.209089775153 9.590222417374
3499 2 -1.200000000000 82.916048268716 7.482826266938 8.928827767900
3500 2 -1.200000000000 82.916048268716 5.612119700203 10.913011716322
3501 2 -1.200000000000 86.772608653307 7.482826266938 8.928827767900
3502 2 -1.200000000000 86.772608653307 5.612119700203 10.913011716322
3503 2 -1.200000000000 84.844328461011 8.885856191989 10.251617066848
3504 2 -1.200000000000 84.844328461011 7.015149625254 12.235801015270
3505 1 2.400000000000 84.844328461011 1.870706566734 9.259525092637
3506 1 2.400000000000 82.916048268716 1.403029925051 12.566498340008
3507 1 2.400000000000 86.772608653307 1.403029925051 12.566498340008
3508 1 2.400000000000 84.844328461011 4.676766416836 11.905103690533
3509 2 -1.200000000000 84.844328461011 2.338383208418 11.574406365796
3510 2 -1.200000000000 84.844328461011 0.467676641684 13.558590314219
3511 2 -1.200000000000 82.916048268716 3.741413133469 12.897195664745
3512 2 -1.200000000000 82.916048268716 1.870706566734 14.881379613167
3513 2 -1.200000000000 86.772608653307 3.741413133469 12.897195664745
3514 2 -1.200000000000 86.772608653307 1.870706566734 14.881379613167
3515 2 -1.200000000000 84.844328461011 5.144443058520 14.219984963693
3516 2 -1.200000000000 84.844328461011 3.273736491785 16.204168912115
3517 1 2.400000000000 80.987768076420 15.901005817243 0.000000000000
3518 1 2.400000000000 79.059487884124 15.433329175560 3.306973247370
3519 1 2.400000000000 82.916048268716 15.433329175560 3.306973247370
3520 1 2.400000000000 80.987768076420 18.707065667345 2.645578597896
3521 2 -1.200000000000 80.987768076420 16.368682458927 2.314881273159
3522 2 -1.200000000000 80.987768076420 14.497975892192 4.299065221582
3523 2 -1.200000000000 79.059487884124 17.771712383978 3.637670572107
3524 2 -1.200000000000 79.059487884124 15.901005817243 5.621854520530
3525 2 -1.200000000000 82.916048268716 17.771712383978 3.637670572107
3526 2 -1.200000000000 82.916048268716 15.901005817243 5.621854520530
3527 2 -1.200000000000 80.987768076420 19.174742309028 4.960459871056
3528 2 -1.200000000000 80.987768076420 17.304035742294 6.944643819478
3529 1 2.400000000000 80.987768076420 12.159592683774 3.968367896844
3530 1 2.400000000000 79.059487884124 11.691916042091 7.275341144215
3531 1 2.400000000000 82.916048268716 11.691916042091 7.275341144215
3532 1 2.400000000000 80.987768076420 14.965652533876 6.613946494741
3533 2 -1.200000000000 80.987768076420 12.627269325458 6.283249170004
3534 2 -1.200000000000 80.987768076420 10.756562758723 8.267433118426
3535 2 -1.200000000000 79.059487884124 14.030299250509 7.606038468952
3536 2 -1.200000000000 79.059487884124 12.159592683774 9.590222417374
3537 2 -1.200000000000 82.916048268716 14.030299250509 7.606038468952
3538 2 -1.200000000000 82.916048268716 12.159592683774 9.590222417374
3539 2 -1.200000000000 80.987768076420 15.433329175560 8.928827767900
3540 2 -1.200000000000 80.987768076420 13.562622608825 10.913011716322
3541 1 2.400000000000 80.987768076420 8.418179550305 7.936735793689
3542 1 2.400000000000 79.059487884124 7.950502908622 11.243709041059
3543 1 2.400000000000 82.916048268716 7.950502908622 11.243709041059
3544 1 2.400000000000 80.987768076420 11.224239400407 10.582314391585
3545 2 -1.200000000000 80.987768076420 8.885856191989 10.251617066848
3546 2 -1.200000000000 80.987768076420 7.015149625254 12.235801015270
3547 2 -1.200000000000 79.059487884124 10.288886117040 11.574406365796
3548 2 -1.200000000000 79.059487884124 8.418179550305 13.558590314219
3549 2 -1.200000000000 82.916048268716 10.288886117040 11.574406365796
3550 2 -1.200000000000 82.916048268716 8.418179550305 13.558590314219
3551 2 -1.200000000000 80.987768076420 11.691916042091 12.897195664745
3552 2 -1.200000000000 80.987768076420 9.821209475356 14.881379613167
3553 1 2.400000000000 80.987768076420 4.676766416836 11.905103690533
3554 1 2.400000000000 79.059487884124 4.209089775153 15.212076937904
3555 1 2.400000000000 82.916048268716 4.209089775153 15.212076937904
3556 1 2.400000000000 80.987768076420 7.482826266938 14.550682288430
3557 2 -1.200000000000 80.987768076420 5.144443058520 14.219984963693
3558 2 -1.200000000000 80.987768076420 3.273736491785 16.204168912115
3559 2 -1.200000000000 79.059487884124 6.547472983571 15.542774262641
3560 2 -1.200000000000 79.059487884124 4.676766416836 17.526958211063
3561 2 -1.200000000000 82.916048268716 6.547472983571 15.542774262641
3562 2 -1.200000000000 82.916048268716 4.676766416836 17.526958211063
3563 2 -1.200000000000 80.987768076420 7.950502908622 16.865563561589
3564 2 -1.200000000000 80.987768076420 6.079796341887 18.849747510011
3565 1 2.400000000000 80.987768076420 0.935353283367 15.873471587378
3566 1 2.400000000000 79.059487884124 0.467676641684 19.180444834748
3567 1 2.400000000000 82.916048268716 0.467676641684 19.180444834748
3568 1 2.400000000000 80.987768076420 3.741413133469 18.519050185274
3569 2 -1.200000000000 80.987768076420 1.403029925051 18.188352860537
3570 2 -1.200000000000 80.987768076420 31.334334992803 20.172536808959
3571 2 -1.200000000000 79.059487884124 2.806059850102 19.511142159485
3572 2 -1.200000000000 79.059487884124 0.935353283367 21.495326107908
3573 2 -1.200000000000 82.916048268716 2.806059850102 19.511142159485
3574 2 -1.200000000000 82.916048268716 0.935353283367 21.495326107908
3575 2 -1.200000000000 80.987768076420 4.209089775153 20.833931458434
3576 2 -1.200000000000 80.987768076420 2.338383208418 0.330697324737
3577 1 2.400000000000 77.131207691829 18.707065667345 2.645578597896
3578 1 2.400000000000 75.202927499533 18.239389025661 5.952551845267
3579 1 2.400000000000 79.059487884124 18.239389025661 5.952551845267
3580 1 2.400000000000 77.131207691829 21.513125517447 5.291157195793
3581 2 -1.200000000000 77.131207691829 19.174742309028 4.960459871056
3582 2 -1.200000000000 77.131207691829 17.304035742294 6.944643819478
3583 2 -1.200000000000 75.202927499533 20.577772234079 6.283249170004
3584 2 -1.200000000000 75.202927499533 18.707065667345 8.267433118426
3585 2 -1.200000000000 79.059487884124 20.577772234079 6.283249170004
3586 2 -1.200000000000 79.059487884124 18.707065667345 8.267433118426
3587 2 -1.200000000000 77.131207691829 21.980802159130 7.606038468952
3588 2 -1.200000000000 77.131207691829 20.110095592396 9.590222417374
3589 1 2.400000000000 77.131207691829 14.965652533876 6.613946494741
3590 1 2.400000000000 75.202927499533 14.497975892192 9.920919742111
3591 1 2.400000000000 79.059487884124 14.497975892192 9.920919742111
3592 1 2.400000000000 77.131207691829 17.771712383978 9.259525092637
3593 2 -1.200000000000 77.131207691829 15.433329175560 8.928827767900
3594 2 -1.200000000000 77.131207691829 13.562622608825 10.913011716322
3595 2 -1.200000000000 75.202927499533 16.836359100610 10.251617066848
3596 2 -1.200000000000 75.202927499533 14.965652533876 12.235801015270
3597 2 -1.200000000000 79.059487884124 16.836359100610 10.251617066848
3598 2 -1.200000000000 79.059487884124 14.965652533876 12.235801015270
3599 2 -1.200000000000 77.131207691829 18.239389025661 11.574406365796
3600 2 -1.200000000000 77.131207691829 16.368682458927 13.558590314219
3601 1 2.400000000000 77.131207691829 11.224239400407 10.582314391585
3602 1 2.400000000000 75.202927499533 10.756562758723 13.889287638956
3603 1 2.400000000000 79.059487884124 10.756562758723 13.889287638956
3604 1 2.400000000000 77.131207691829 14.030299250509 13.227892989482
3605 2 -1.200000000000 77.131207691829 11.691916042091 12.897195664745
3606 2 -1.200000000000 77.131207691829 9.821209475356 14.881379613167
3607 2 -1.200000000000 75.202927499533 13.094945967141 14.219984963693
3608 2 -1.200000000000 75.202927499533 11.224239400407 16.204168912115
3609 2 -1.200000000000 79.059487884124 13.094945967141 14.219984963693
3610 2 -1.200000000000 79.059487884124 11.224239400407 16.204168912115
3611 2 -1.200000000000 77.131207691829 14.497975892192 15.542774262641
3612 2 -1.200000000000 77.131207691829 12.627269325458 17.526958211063
3613 1 2.400000000000 77.131207691829 7.482826266938 14.550682288430
3614 1 2.400000000000 75.202927499533 7.015149625254 17.857655535800
3615 1 2.400000000000 79.059487884124 7.015149625254 17.857655535800
3616 1 2.400000000000 77.131207691829 10.288886117040 17.196260886326
3617 2 -1.200000000000 77.131207691829 7.950502908622 16.865563561589
3618 2 -1.200000000000 77.131207691829 6.079796341887 18.849747510011
3619 2 -1.200000000000 75.202927499533 9.353532833672 18.188352860537
3620 2 -1.200000000000 75.202927499533 7.482826266938 20.172536808959
3621 2 -1.200000000000 79.059487884124 9.353532833672 18.188352860537
3622 2 -1.200000000000 79.059487884124 7.482826266938 20.172536808959
3623 2 -1.200000000000 77.131207691829 10.756562758723 19.511142159485
3624 2 -1.200000000000 77.131207691829 8.885856191989 21.495326107908
3625 1 2.400000000000 77.131207691829 3.741413133469 18.519050185274
3626 1 2.400000000000 75.202927499533 3.273736491785 21.826023432645
3627 1 2.400000000000 79.059487884124 3.273736491785 21.826023432645
3628 1 2.400000000000 77.131207691829 6.547472983571 21.164628783171
3629 2 -1.200000000000 77.131207691829 4.209089775153 20.833931458434
3630 2 -1.200000000000 77.131207691829 2.338383208418 0.330697324737
3631 2 -1.200000000000 75.202927499533 5.612119700203 22.156720757382
3632 2 -1.200000000000 75.202927499533 3.741413133469 1.653486623685
3633 2 -1.200000000000 79.059487884124 5.612119700203 22.156720757382
3634 2 -1.200000000000 79.059487884124 3.741413133469 1.653486623685
3635 2 -1.200000000000 77.131207691829 7.015149625254 0.992091974211
3636 2 -1.200000000000 77.131207691829 5.144443058520 2.976275922633
3637 1 2.400000000000 73.274647307237 25.254538650916 1.322789298948
3638 1 2.400000000000 71.346367114941 24.786862009232 4.629762546319
3639 1 2.400000000000 75.202927499533 24.786862009232 4.629762546319
3640 1 2.400000000000 73.274647307237 28.060598501017 3.968367896844
3641 2 -1.200000000000 73.274647307237 25.722215292599 3.637670572107
3642 2 -1.200000000000 73.274647307237 23.851508725865 5.621854520530
3643 2 -1.200000000000 71.346367114941 27.125245217650 4.960459871056
3644 2 -1.200000000000 71.346367114941 25.254538650916 6.944643819478
3645 2 -1.200000000000 75.202927499533 27.125245217650 4.960459871056
3646 2 -1.200000000000 75.202927499533 25.254538650916 6.944643819478
3647 2 -1.200000000000 73.274647307237 28.528275142701 6.283249170004
3648 2 -1.200000000000 73.274647307237 26.657568575966 8.267433118426
3649 1 2.400000000000 73.274647307237 21.513125517447 5.291157195793
3650 1 2.400000000000 71.346367114941 21.045448875763 8.598130443163
3651 1 2.400000000000 75.202927499533 21.045448875763 8.598130443163
3652 1 2.400000000000 73.274647307237 24.319185367548 7.936735793689
3653 2 -1.200000000000 73.274647307237 21.980802159130 7.606038468952
3654 2 -1.200000000000 73.274647307237 20.110095592396 9.590222417374
3655 2 -1.200000000000 71.346367114941 23.383832084181 8.928827767900
3656 2 -1.200000000000 71.346367114941 21.513125517447 10.913011716322
3657 2 -1.200000000000 75.202927499533 23.383832084181 8.928827767900
3658 2 -1.200000000000 75.202927499533 21.513125517447 10.913011716322
3659 2 -1.200000000000 73.274647307237 24.786862009232 10.251617066848
3660 2 -1.200000000000 73.274647307237 22.916155442497 12.235801015270
3661 1 2.400000000000 73.274647307237 17.771712383978 9.259525092637
3662 1 2.400000000000 71.346367114941 17.304035742294 12.566498340008
3663 1 2.400000000000 75.202927499533 17.304035742294 12.566498340008
3664 1 2.400000000000 73.274647307237 20.577772234079 11.905103690533
3665 2 -1.200000000000 73.274647307237 18.239389025661 11.574406365796
3666 2 -1.200000000000 73.274647307237 16.368682458927 13.558590314219
3667 2 -1.200000000000 71.346367114941 19.642418950712 12.897195664745
3668 2 -1.200000000000 71.346367114941 17.771712383978 14.881379613167
3669 2 -1.200000000000 75.202927499533 19.642418950712 12.897195664745
3670 2 -1.200000000000 75.202927499533 17.771712383978 14.881379613167
3671 2 -1.200000000000 73.274647307237 21.045448875763 14.219984963693
3672 2 -1.200000000000 73.274647307237 19.174742309028 16.204168912115
3673 1 2.400000000000 73.274647307237 14.030299250509 13.227892989482
3674 1 2.400000000000 71.346367114941 13.562622608825 16.534866236852
3675 1 2.400000000000 75.202927499533 13.562622608825 16.534866236852
3676 1 2.400000000000 73.274647307237 16.836359100610 15.873471587378
3677 2 -1.200000000000 73.274647307237 14.497975892192 15.542774262641
3678 2 -1.200000000000 73.274647307237 12.627269325458 17.526958211063
3679 2 -1.200000000000 71.346367114941 15.901005817243 16.865563561589
3680 2 -1.200000000000 71.346367114941 14.030299250509 18.849747510011
3681 2 -1.200000000000 75.202927499533 15.901005817243 16.865563561589
3682 2 -1.200000000000 75.202927499533 14.030299250509 18.849747510011
3683 2 -1.200000000000 73.274647307237 17.304035742294 18.188352860537
3684 2 -1.200000000000 73.274647307237 15.433329175560 20.172536808959
3685 1 2.400000000000 73.274647307237 10.288886117040 17.196260886326
3686 1 2.400000000000 71.346367114941 9.821209475356 20.503234133696
3687 1 2.400000000000 75.202927499533 9.821209475356 20.503234133696
3688 1 2.400000000000 73.274647307237 13.094945967141 19.841839484222
3689 2 -1.200000000000 73.274647307237 10.756562758723 19.511142159485
3690 2 -1.200000000000 73.274647307237 8.885856191989 21.495326107908
3691 2 -1.200000000000 71.346367114941 12.159592683774 20.833931458434
3692 2 -1.200000000000 71.346367114941 10.288886117040 0.330697324737
3693 2 -1.200000000000 75.202927499533 12.159592683774 20.833931458434
3694 2 -1.200000000000 75.202927499533 10.288886117040 0.330697324737
3695 2 -1.200000000000 73.274647307237 13.562622608825 22.156720757382
3696 2 -1.200000000000 73.274647307237 11.691916042091 1.653486623685
3697 1 2.400000000000 73.274647307237 6.547472983571 21.164628783171
3698 1 2.400000000000 71.346367114941 6.079796341887 1.984183948422
3699 1 2.400000000000 75.202927499533 6.079796341887 1.984183948422
3700 1 2.400000000000 73.274647307237 9.353532833672 1.322789298948
3701 2 -1.200000000000 73.274647307237 7.015149625254 0.992091974211
3702 2 -1.200000000000 73.274647307237 5.144443058520 2.976275922633
3703 2 -1.200000000000 71.346367114941 8.418179550305 2.314881273159
3704 2 -1.200000000000 71.346367114941 6.547472983571 4.299065221582
3705 2 -1.200000000000 75.202927499533 8.418179550305 2.314881273159
3706 2 -1.200000000000 75.202927499533 6.547472983571 4.299065221582
3707 2 -1.200000000000 73.274647307237 9.821209475356 3.637670572107
3708 2 -1.200000000000 73.274647307237 7.950502908622 5.621854520530
3709 1 2.400000000000 69.418086922646 28.060598501017 3.968367896844
3710 1 2.400000000000 67.489806730350 27.592921859334 7.275341144215
3711 1 2.400000000000 71.346367114941 27.592921859334 7.275341144215
3712 1 2.400000000000 69.418086922646 30.866658351119 6.613946494741
3713 2 -1.200000000000 69.418086922646 28.528275142701 6.283249170004
3714 2 -1.200000000000 69.418086922646 26.657568575966 8.267433118426
3715 2 -1.200000000000 67.489806730350 29.931305067752 7.606038468952
3716 2 -1.200000000000 67.489806730350 28.060598501017 9.590222417374
3717 2 -1.200000000000 71.346367114941 29.931305067752 7.606038468952
3718 2 -1.200000000000 71.346367114941 28.060598501017 9.590222417374
3719 2 -1.200000000000 69.418086922646 31.334334992803 8.928827767900
3720 2 -1.200000000000 69.418086922646 29.463628426068 10.913011716322
3721 1 2.400000000000 69.418086922646 24.319185367548 7.936735793689
3722 1 2.400000000000 67.489806730350 23.851508725865 11.243709041059
3723 1 2.400000000000 71.346367114941 23.851508725865 11.243709041059
3724 1 2.400000000000 69.418086922646 27.125245217650 10.582314391585
3725 2 -1.200000000000 69.418086922646 24.786862009232 10.251617066848
3726 2 -1.200000000000 69.418086922646 22.916155442497 12.235801015270
3727 2 -1.200000000000 67.489806730350 26.189891934283 11.574406365796
3728 2 -1.200000000000 67.489806730350 24.319185367548 13.558590314219
3729 2 -1.200000000000 71.346367114941 26.189891934283 11.574406365796
3730 2 -1.200000000000 71.346367114941 24.319185367548 13.558590314219
3731 2 -1.200000000000 69.418086922646 27.592921859334 12.897195664745
3732 2 -1.200000000000 69.418086922646 25.722215292599 14.881379613167
3733 1 2.400000000000 69.418086922646 20.577772234079 11.905103690533
3734 1 2.400000000000 67.489806730350 20.110095592396 15.212076937904
3735 1 2.400000000000 71.346367114941 20.110095592396 15.212076937904
3736 1 2.400000000000 69.418086922646 23.383832084181 14.550682288430
3737 2 -1.200000000000 69.418086922646 21.045448875763 14.219984963693
3738 2 -1.200000000000 69.418086922646 19.174742309028 16.204168912115
3739 2 -1.200000000000 67.489806730350 22.448478800814 15.542774262641
3740 2 -1.200000000000 67.489806730350 20.577772234079 17.526958211063
3741 2 -1.200000000000 71.346367114941 22.448478800814 15.542774262641
3742 2 -1.200000000000 71.346367114941 20.577772234079 17.526958211063
3743 2 -1.200000000000 69.418086922646 23.851508725865 16.865563561589
3744 2 -1.200000000000 69.418086922646 21.980802159130 18.849747510011
3745 1 2.400000000000 69.418086922646 16.836359100610 15.873471587378
3746 1 2.400000000000 67.489806730350 16.368682458927 19.180444834748
3747 1 2.400000000000 71.346367114941 16.368682458927 19.180444834748
3748 1 2.400000000000 69.418086922646 19.642418950712 18.519050185274
3749 2 -1.200000000000 69.418086922646 17.304035742294 18.188352860537
3750 2 -1.200000000000 69.418086922646 15.433329175560 20.172536808959
3751 2 -1.200000000000 67.489806730350 18.707065667345 19.511142159485
3752 2 -1.200000000000 67.489806730350 16.836359100610 21.495326107908
3753 2 -1.200000000000 71.346367114941 18.707065667345 19.511142159485
3754 2 -1.200000000000 71.346367114941 16.836359100610 21.495326107908
3755 2 -1.200000000000 69.418086922646 20.110095592396 20.833931458434
3756 2 -1.200000000000 69.418086922646 18.239389025661 0.330697324737
3757 1 2.400000000000 69.418086922646 13.094945967141 19.841839484222
3758 1 2.400000000000 67.489806730350 12.627269325458 0.661394649474
3759 1 2.400000000000 71.346367114941 12.627269325458 0.661394649474
3760 1 2.400000000000 69.418086922646 15.901005817243 0.000000000000
3761 2 -1.200000000000 69.418086922646 13.562622608825 22.156720757382
3762 2 -1.200000000000 69.418086922646 11.691916042091 1.653486623685
3763 2 -1.200000000000 67.489806730350 14.965652533876 0.992091974211
3764 2 -1.200000000000 67.489806730350 13.094945967141 2.976275922633
3765 2 -1.200000000000 71.346367114941 14.965652533876 0.992091974211
3766 2 -1.200000000000 71.346367114941 13.094945967141 2.976275922633
3767 2 -1.200000000000 69.418086922646 16.368682458927 2.314881273159
3768 2 -1.200000000000 69.418086922646 14.497975892192 4.299065221582
3769 1 2.400000000000 65.561526538054 30.866658351119 6.613946494741
3770 1 2.400000000000 63.633246345759 30.398981709435 9.920919742111
3771 1 2.400000000000 67.489806730350 30.398981709435 9.920919742111
3772 1 2.400000000000 65.561526538054 1.870706566734 9.259525092637
3773 2 -1.200000000000 65.561526538054 31.334334992803 8.928827767900
3774 2 -1.200000000000 65.561526538054 29.463628426068 10.913011716322
3775 2 -1.200000000000 63.633246345759 0.935353283367 10.251617066848
3776 2 -1.200000000000 63.633246345759 30.866658351119 12.235801015270
3777 2 -1.200000000000 67.489806730350 0.935353283367 10.251617066848
3778 2 -1.200000000000 67.489806730350 30.866658351119 12.235801015270
3779 2 -1.200000000000 65.561526538054 2.338383208418 11.574406365796
3780 2 -1.200000000000 65.561526538054 0.467676641684 13.558590314219
3781 1 2.400000000000 65.561526538054 27.125245217650 10.582314391585
3782 1 2.400000000000 63.633246345759 26.657568575966 13.889287638956
3783 1 2.400000000000 67.489806730350 26.657568575966 13.889287638956
3784 1 2.400000000000 65.561526538054 29.931305067752 13.227892989482
3785 2 -1.200000000000 65.561526538054 27.592921859334 12.897195664745
3786 2 -1.200000000000 65.561526538054 25.722215292599 14.881379613167
3787 2 -1.200000000000 63.633246345759 28.995951784385 14.219984963693
3788 2 -1.200000000000 63.633246345759 27.125245217650 16.204168912115
3789 2 -1.200000000000 67.489806730350 28.995951784385 14.219984963693
3790 2 -1.200000000000 67.489806730350 27.125245217650 16.204168912115
3791 2 -1.200000000000 65.561526538054 30.398981709435 15.542774262641
3792 2 -1.200000000000 65.561526538054 28.528275142701 17.526958211063
3793 1 2.400000000000 65.561526538054 23.383832084181 14.550682288430
3794 1 2.400000000000 63.633246345759 22.916155442497 17.857655535800
3795 1 2.400000000000 67.489806730350 22.916155442497 17.857655535800
3796 1 2.400000000000 65.561526538054 26.189891934283 17.196260886326
3797 2 -1.200000000000 65.561526538054 23.851508725865 16.865563561589
3798 2 -1.200000000000 65.561526538054 21.980802159130 18.849747510011
3799 2 -1.200000000000 63.633246345759 25.254538650916 18.188352860537
3800 2 -1.200000000000 63.633246345759 23.383832084181 20.172536808959
3801 2 -1.200000000000 67.489806730350 25.254538650916 18.188352860537
3802 2 -1.200000000000 67.489806730350 23.383832084181 20.172536808959
3803 2 -1.200000000000 65.561526538054 26.657568575966 19.511142159485
3804 2 -1.200000000000 65.561526538054 24.786862009232 21.495326107908
3805 1 2.400000000000 65.561526538054 19.642418950712 18.519050185274
3806 1 2.400000000000 63.633246345759 19.174742309028 21.826023432645
3807 1 2.400000000000 67.489806730350 19.174742309028 21.826023432645
3808 1 2.400000000000 65.561526538054 22.448478800814 21.164628783171
3809 2 -1.200000000000 65.561526538054 20.110095592396 20.833931458434
3810 2 -1.200000000000 65.561526538054 18.239389025661 0.330697324737
3811 2 -1.200000000000 63.633246345759 21.513125517447 22.156720757382
3812 2 -1.200000000000 63.633246345759 19.642418950712 1.653486623685
3813 2 -1.200000000000 67.489806730350 21.513125517447 22.156720757382
3814 2 -1.200000000000 67.489806730350 19.642418950712 1.653486623685
3815 2 -1.200000000000 65.561526538054 22.916155442497 0.992091974211
3816 2 -1.200000000000 65.561526538054 21.045448875763 2.976275922633
3817 1 2.400000000000 100.270569999377 0.000000000000 0.000000000000
3818 1 2.400000000000 98.342289807081 31.334334992803 3.306973247370
3819 1 2.400000000000 102.198850191673 31.334334992803 3.306973247370
3820 1 2.400000000000 100.270569999377 2.806059850102 2.645578597896
3821 2 -1.200000000000 100.270569999377 0.467676641684 2.314881273159
3822 2 -1.200000000000 100.270569999377 30.398981709435 4.299065221582
3823 2 -1.200000000000 98.342289807081 1.870706566734 3.637670572107
3824 2 -1.200000000000 98.342289807081 0.000000000000 5.621854520530
3825 2 -1.200000000000 102.198850191673 1.870706566734 3.637670572107
3826 2 -1.200000000000 102.198850191673 0.000000000000 5.621854520530
3827 2 -1.200000000000 100.270569999377 3.273736491785 4.960459871056
3828 2 -1.200000000000 100.270569999377 1.403029925051 6.944643819478
3829 1 2.400000000000 96.414009614786 2.806059850102 2.645578597896
3830 1 2.400000000000 94.485729422490 2.338383208418 5.952551845267
3831 1 2.400000000000 98.342289807081 2.338383208418 5.952551845267
3832 1 2.400000000000 96.414009614786 5.612119700203 5.291157195793
3833 2 -1.200000000000 96.414009614786 3.273736491785 4.960459871056
3834 2 -1.200000000000 96.414009614786 1.403029925051 6.944643819478
3835 2 -1.200000000000 94.485729422490 4.676766416836 6.283249170004
3836 2 -1.200000000000 94.485729422490 2.806059850102 8.267433118426
3837 2 -1.200000000000 98.342289807081 4.676766416836 6.283249170004
3838 2 -1.200000000000 98.342289807081 2.806059850102 8.267433118426
3839 2 -1.200000000000 96.414009614786 6.079796341887 7.606038468952
3840 2 -1.200000000000 96.414009614786 4.209089775153 9.590222417374
3841 1 2.400000000000 92.557449230194 9.353532833672 1.322789298948
3842 1 2.400000000000 90.629169037899 8.885856191989 4.629762546319
3843 1 2.400000000000 94.485729422490 8.885856191989 4.629762546319
3844 1 2.400000000000 92.557449230194 12.159592683774 3.968367896844
3845 2 -1.200000000000 92.557449230194 9.821209475356 3.637670572107
3846 2 -1.200000000000 92.557449230194 7.950502908622 5.621854520530
3847 2 -1.200000000000 90.629169037899 11.224239400407 4.960459871056
3848 2 -1.200000000000 90.629169037899 9.353532833672 6.944643819478
3849 2 -1.200000000000 94.485729422490 11.224239400407 4.960459871056
3850 2 -1.200000000000 94.485729422490 9.353532833672 6.944643819478
3851 2 -1.200000000000 92.557449230194 12.627269325458 6.283249170004
3852 2 -1.200000000000 92.557449230194 10.756562758723 8.267433118426
3853 1 2.400000000000 92.557449230194 5.612119700203 5.291157195793
3854 1 2.400000000000 90.629169037899 5.144443058520 8.598130443163
3855 1 2.400000000000 94.485729422490 5.144443058520 8.598130443163
3856 1 2.400000000000 92.557449230194 8.418179550305 7.936735793689
3857 2 -1.200000000000 92.557449230194 6.079796341887 7.606038468952
3858 2 -1.200000000000 92.557449230194 4.209089775153 9.590222417374
3859 2 -1.200000000000 90.629169037899 7.482826266938 8.928827767900
3860 2 -1.200000000000 90.629169037899 5.612119700203 10.913011716322
3861 2 -1.200000000000 94.485729422490 7.482826266938 8.928827767900
3862 2 -1.200000000000 94.485729422490 5.612119700203 10.913011716322
3863 2 -1.200000000000 92.557449230194 8.885856191989 10.251617066848
3864 2 -1.200000000000 92.557449230194 7.015149625254 12.235801015270
3865 1 2.400000000000 92.557449230194 1.870706566734 9.259525092637
3866 1 2.400000000000 90.629169037899 1.403029925051 12.566498340008
3867 1 2.400000000000 94.485729422490 1.403029925051 12.566498340008
3868 1 2.400000000000 92.557449230194 4.676766416836 11.905103690533
3869 2 -1.200000000000 92.557449230194 2.338383208418 11.574406365796
3870 2 -1.200000000000 92.557449230194 0.467676641684 13.558590314219
3871 2 -1.200000000000 90.629169037899 3.741413133469 12.897195664745
3872 2 -1.200000000000 90.629169037899 1.870706566734 14.881379613167
3873 2 -1.200000000000 94.485729422490 3.741413133469 12.897195664745
3874 2 -1.200000000000 94.485729422490 1.870706566734 14.881379613167
3875 2 -1.200000000000 92.557449230194 5.144443058520 14.219984963693
3876 2 -1.200000000000 92.557449230194 3.273736491785 16.204168912115
3877 1 2.400000000000 88.700888845603 15.901005817243 0.000000000000
3878 1 2.400000000000 86.772608653307 15.433329175560 3.306973247370
3879 1 2.400000000000 90.629169037899 15.433329175560 3.306973247370
3880 1 2.400000000000 88.700888845603 18.707065667345 2.645578597896
3881 2 -1.200000000000 88.700888845603 16.368682458927 2.314881273159
3882 2 -1.200000000000 88.700888845603 14.497975892192 4.299065221582
3883 2 -1.200000000000 86.772608653307 17.771712383978 3.637670572107
3884 2 -1.200000000000 86.772608653307 15.901005817243 5.621854520530
3885 2 -1.200000000000 90.629169037899 17.771712383978 3.637670572107
3886 2 -1.200000000000 90.629169037899 15.901005817243 5.621854520530
3887 2 -1.200000000000 88.700888845603 19.174742309028 4.960459871056
3888 2 -1.200000000000 88.700888845603 17.304035742294 6.944643819478
3889 1 2.400000000000 88.700888845603 12.159592683774 3.968367896844
3890 1 2.400000000000 86.772608653307 11.691916042091 7.275341144215
3891 1 2.400000000000 90.629169037899 11.691916042091 7.275341144215
3892 1 2.400000000000 88.700888845603 14.965652533876 6.613946494741
3893 2 -1.200000000000 88.700888845603 12.627269325458 6.283249170004
3894 2 -1.200000000000 88.700888845603 10.756562758723 8.267433118426
3895 2 -1.200000000000 86.772608653307 14.030299250509 7.606038468952
3896 2 -1.200000000000 86.772608653307 12.159592683774 9.590222417374
3897 2 -1.200000000000 90.629169037899 14.030299250509 7.606038468952
3898 2 -1.200000000000 90.629169037899 12.159592683774 9.590222417374
3899 2 -1.200000000000 88.700888845603 15.433329175560 8.928827767900
3900 2 -1.200000000000 88.700888845603 13.562622608825 10.913011716322
3901 1 2.400000000000 88.700888845603 8.418179550305 7.936735793689
3902 1 2.400000000000 86.772608653307 7.950502908622 11.243709041059
3903 1 2.400000000000 90.629169037899 7.950502908622 11.243709041059
3904 1 2.400000000000 88.700888845603 11.224239400407 10.582314391585
3905 2 -1.200000000000 88.700888845603 8.885856191989 10.251617066848
3906 2 -1.200000000000 88.700888845603 7.015149625254 12.235801015270
3907 2 -1.200000000000 86.772608653307 10.288886117040 11.574406365796
3908 2 -1.200000000000 86.772608653307 8.418179550305 13.558590314219
3909 2 -1.200000000000 90.629169037899 10.288886117040 11.574406365796
3910 2 -1.200000000000 90.629169037899 8.418179550305 13.558590314219
3911 2 -1.200000000000 88.700888845603 11.691916042091 12.897195664745
3912 2 -1.200000000000 88.700888845603 9.821209475356 14.881379613167
3913 1 2.400000000000 88.700888845603 4.676766416836 11.905103690533
3914 1 2.400000000000 86.772608653307 4.209089775153 15.212076937904
3915 1 2.400000000000 90.629169037899 4.209089775153 15.212076937904
3916 1 2.400000000000 88.700888845603 7.482826266938 14.550682288430
3917 2 -1.200000000000 88.700888845603 5.144443058520 14.219984963693
3918 2 -1.200000000000 88.700888845603 3.273736491785 16.204168912115
3919 2 -1.200000000000 86.772608653307 6.547472983571 15.542774262641
3920 2 -1.200000000000 86.772608653307 4.676766416836 17.526958211063
3921 2 -1.200000000000 90.629169037899 6.547472983571 15.542774262641
3922 2 -1.200000000000 90.629169037899 4.676766416836 17.526958211063
3923 2 -1.200000000000 88.700888845603 7.950502908622 16.865563561589
3924 2 -1.200000000000 88.700888845603 6.079796341887 18.849747510011
3925 1 2.400000000000 88.700888845603 0.935353283367 15.873471587378
3926 1 2.400000000000 86.772608653307 0.467676641684 19.180444834748
3927 1 2.400000000000 90.629169037899 0.467676641684 19.180444834748
3928 1 2.400000000000 88.700888845603 3.741413133469 18.519050185274
3929 2 -1.200000000000 88.700888845603 1.403029925051 18.188352860537
3930 2 -1.200000000000 88.700888845603 31.334334992803 20.172536808959
3931 2 -1.200000000000 86.772608653307 2.806059850102 19.511142159485
3932 2 -1.200000000000 86.772608653307 0.935353283367 21.495326107908
3933 2 -1.200000000000 90.629169037899 2.806059850102 19.511142159485
3934 2 -1.200000000000 90.629169037899 0.935353283367 21.495326107908
3935 2 -1.200000000000 88.700888845603 4.209089775153 20.833931458434
3936 2 -1.200000000000 88.700888845603 2.338383208418 0.330697324737
3937 1 2.400000000000 84.844328461011 18.707065667345 2.645578597896
3938 1 2.400000000000 82.916048268716 18.239389025661 5.952551845267
3939 1 2.400000000000 86.772608653307 18.239389025661 5.952551845267
3940 1 2.400000000000 84.844328461011 21.513125517447 5.291157195793
3941 2 -1.200000000000 84.844328461011 19.174742309028 4.960459871056
3942 2 -1.200000000000 84.844328461011 17.304035742294 6.944643819478
3943 2 -1.200000000000 82.916048268716 20.577772234079 6.283249170004
3944 2 -1.200000000000 82.916048268716 18.707065667345 8.267433118426
3945 2 -1.200000000000 86.772608653307 20.577772234079 6.283249170004
3946 2 -1.200000000000 86.772608653307 18.707065667345 8.267433118426
3947 2 -1.200000000000 84.844328461011 21.980802159130 7.606038468952
3948 2 -1.200000000000 84.844328461011 20.110095592396 9.590222417374
3949 1 2.400000000000 84.844328461011 14.965652533876 6.613946494741
3950 1 2.400000000000 82.916048268716 14.497975892192 9.920919742111
3951 1 2.400000000000 86.772608653307 14.497975892192 9.920919742111
3952 1 2.400000000000 84.844328461011 17.771712383978 9.259525092637
3953 2 -1.200000000000 84.844328461011 15.433329175560 8.928827767900
3954 2 -1.200000000000 84.844328461011 13.562622608825 10.913011716322
3955 2 -1.200000000000 82.916048268716 16.836359100610 10.251617066848
3956 2 -1.200000000000 82.916048268716 14.965652533876 12.235801015270
3957 2 -1.200000000000 86.772608653307 16.836359100610 10.251617066848
3958 2 -1.200000000000 86.772608653307 14.965652533876 12.235801015270
3959 2 -1.200000000000 84.844328461011 18.239389025661 11.574406365796
3960 2 -1.200000000000 84.844328461011 16.368682458927 13.558590314219
3961 1 2.400000000000 84.844328461011 11.224239400407 10.582314391585
3962 1 2.400000000000 82.916048268716 10.756562758723 13.889287638956
3963 1 2.400000000000 86.772608653307 10.756562758723 13.889287638956
3964 1 2.400000000000 84.844328461011 14.030299250509 13.227892989482
3965 2 -1.200000000000 84.844328461011 11.691916042091 12.897195664745
3966 2 -1.200000000000 84.844328461011 9.821209475356 14.881379613167
3967 2 -1.200000000000 82.916048268716 13.094945967141 14.219984963693
3968 2 -1.200000000000 82.916048268716 11.224239400407 16.204168912115
3969 2 -1.200000000000 86.772608653307 13.094945967141 14.219984963693
3970 2 -1.200000000000 86.772608653307 11.224239400407 16.204168912115
3971 2 -1.200000000000 84.844328461011 14.497975892192 15.542774262641
3972 2 -1.200000000000 84.844328461011 12.627269325458 17.526958211063
3973 1 2.400000000000 84.844328461011 7.482826266938 14.550682288430
3974 1 2.400000000000 82.916048268716 7.015149625254 17.857655535800
3975 1 2.400000000000 86.772608653307 7.015149625254 17.857655535800
3976 1 2.400000000000 84.844328461011 10.288886117040 17.196260886326
3977 2 -1.200000000000 84.844328461011 7.950502908622 16.865563561589
3978 2 -1.200000000000 84.844328461011 6.079796341887 18.849747510011
3979 2 -1.200000000000 82.916048268716 9.353532833672 18.188352860537
3980 2 -1.200000000000 82.916048268716 7.482826266938 20.172536808959
3981 2 -1.200000000000 86.772608653307 9.353532833672 18.188352860537
3982 2 -1.200000000000 86.772608653307 7.482826266938 20.172536808959
3983 2 -1.200000000000 84.844328461011 10.756562758723 19.511142159485
3984 2 -1.200000000000 84.844328461011 8.885856191989 21.495326107908
3985 1 2.400000000000 84.844328461011 3.741413133469 18.519050185274
3986 1 2.400000000000 82.916048268716 3.273736491785 21.826023432645
3987 1 2.400000000000 86.772608653307 3.273736491785 21.826023432645
3988 1 2.400000000000 84.844328461011 6.547472983571 21.164628783171
3989 2 -1.200000000000 84.844328461011 4.209089775153 20.833931458434
3990 2 -1.200000000000 84.844328461011 2.338383208418 0.330697324737
3991 2 -1.200000000000 82.916048268716 5.612119700203 22.156720757382
3992 2 -1.200000000000 82.916048268716 3.741413133469 1.653486623685
3993 2 -1.200000000000 86.772608653307 5.612119700203 22.156720757382
3994 2 -1.200000000000 86.772608653307 3.741413133469 1.653486623685
3995 2 -1.200000000000 84.844328461011 7.015149625254 0.992091974211
3996 2 -1.200000000000 84.844328461011 5.144443058520 2.976275922633
3997 1 2.400000000000 80.987768076420 25.254538650916 1.322789298948
3998 1 2.400000000000 79.059487884124 24.786862009232 4.629762546319
3999 1 2.400000000000 82.916048268716 24.786862009232 4.629762546319
4000 1 2.400000000000 80.987768076420 28.060598501017 3.968367896844
4001 2 -1.200000000000 80.987768076420 25.722215292599 3.637670572107
4002 2 -1.200000000000 80.987768076420 23.851508725865 5.621854520530
4003 2 -1.200000000000 79.059487884124 27.125245217650 4.960459871056
4004 2 -1.200000000000 79.059487884124 25.254538650916 6.944643819478
4005 2 -1.200000000000 82.916048268716 27.125245217650 4.960459871056
4006 2 -1.200000000000 82.916048268716 25.254538650916 6.944643819478
4007 2 -1.200000000000 80.987768076420 28.528275142701 6.283249170004
4008 2 -1.200000000000 80.987768076420 26.657568575966 8.267433118426
4009 1 2.400000000000 80.987768076420 21.513125517447 5.291157195793
4010 1 2.400000000000 79.059487884124 21.045448875763 8.598130443163
4011 1 2.400000000000 82.916048268716 21.045448875763 8.598130443163
4012 1 2.400000000000 80.987768076420 24.319185367548 7.936735793689
4013 2 -1.200000000000 80.987768076420 21.980802159130 7.606038468952
4014 2 -1.200000000000 80.987768076420 20.110095592396 9.590222417374
4015 2 -1.200000000000 79.059487884124 23.383832084181 8.928827767900
4016 2 -1.200000000000 79.059487884124 21.513125517447 10.913011716322
4017 2 -1.200000000000 82.916048268716 23.383832084181 8.928827767900
4018 2 -1.200000000000 82.916048268716 21.513125517447 10.913011716322
4019 2 -1.200000000000 80.987768076420 24.786862009232 10.251617066848
4020 2 -1.200000000000 80.987768076420 22.916155442497 12.235801015270
4021 1 2.400000000000 80.987768076420 17.771712383978 9.259525092637
4022 1 2.400000000000 79.059487884124 17.304035742294 12.566498340008
4023 1 2.400000000000 82.916048268716 17.304035742294 12.566498340008
4024 1 2.400000000000 80.987768076420 20.577772234079 11.905103690533
4025 2 -1.200000000000 80.987768076420 18.239389025661 11.574406365796
4026 2 -1.200000000000 80.987768076420 16.368682458927 13.558590314219
4027 2 -1.200000000000 79.059487884124 19.642418950712 12.897195664745
4028 2 -1.200000000000 79.059487884124 17.771712383978 14.881379613167
4029 2 -1.200000000000 82.916048268716 19.642418950712 12.897195664745
4030 2 -1.200000000000 82.916048268716 17.771712383978 14.881379613167
4031 2 -1.200000000000 80.987768076420 21.045448875763 14.219984963693
4032 2 -1.200000000000 80.987768076420 19.174742309028 16.204168912115
4033 1 2.400000000000 80.987768076420 14.030299250509 13.227892989482
4034 1 2.400000000000 79.059487884124 13.562622608825 16.534866236852
4035 1 2.400000000000 82.916048268716 13.562622608825 16.534866236852
4036 1 2.400000000000 80.987768076420 16.836359100610 15.873471587378
4037 2 -1.200000000000 80.987768076420 14.497975892192 15.542774262641
4038 2 -1.200000000000 80.987768076420 12.627269325458 17.526958211063
4039 2 -1.200000000000 79.059487884124 15.901005817243 16.865563561589
4040 2 -1.200000000000 79.059487884124 14.030299250509 18.849747510011
4041 2 -1.200000000000 82.916048268716 15.901005817243 16.865563561589
4042 2 -1.200000000000 82.916048268716 14.030299250509 18.849747510011
4043 2 -1.200000000000 80.987768076420 17.304035742294 18.188352860537
4044 2 -1.200000000000 80.987768076420 15.433329175560 20.172536808959
4045 1 2.400000000000 80.987768076420 10.288886117040 17.196260886326
4046 1 2.400000000000 79.059487884124 9.821209475356 20.503234133696
4047 1 2.400000000000 82.916048268716 9.821209475356 20.503234133696
4048 1 2.400000000000 80.987768076420 13.094945967141 19.841839484222
4049 2 -1.200000000000 80.987768076420 10.756562758723 19.511142159485
4050 2 -1.200000000000 80.987768076420 8.885856191989 21.495326107908
4051 2 -1.200000000000 79.059487884124 12.159592683774 20.833931458434
4052 2 -1.200000000000 79.059487884124 10.288886117040 0.330697324737
4053 2 -1.200000000000 82.916048268716 12.159592683774 20.833931458434
4054 2 -1.200000000000 82.916048268716 10.288886117040 0.330697324737
4055 2 -1.200000000000 80.987768076420 13.562622608825 22.156720757382
4056 2 -1.200000000000 80.987768076420 11.691916042091 1.653486623685
4057 1 2.400000000000 80.987768076420 6.547472983571 21.164628783171
4058 1 2.400000000000 79.059487884124 6.079796341887 1.984183948422
4059 1 2.400000000000 82.916048268716 6.079796341887 1.984183948422
4060 1 2.400000000000 80.987768076420 9.353532833672 1.322789298948
4061 2 -1.200000000000 80.987768076420 7.015149625254 0.992091974211
4062 2 -1.200000000000 80.987768076420 5.144443058520 2.976275922633
4063 2 -1.200000000000 79.059487884124 8.418179550305 2.314881273159
4064 2 -1.200000000000 79.059487884124 6.547472983571 4.299065221582
4065 2 -1.200000000000 82.916048268716 8.418179550305 2.314881273159
4066 2 -1.200000000000 82.916048268716 6.547472983571 4.299065221582
4067 2 -1.200000000000 80.987768076420 9.821209475356 3.637670572107
4068 2 -1.200000000000 80.987768076420 7.950502908622 5.621854520530
4069 1 2.400000000000 77.131207691829 28.060598501017 3.968367896844
4070 1 2.400000000000 75.202927499533 27.592921859334 7.275341144215
4071 1 2.400000000000 79.059487884124 27.592921859334 7.275341144215
4072 1 2.400000000000 77.131207691829 30.866658351119 6.613946494741
4073 2 -1.200000000000 77.131207691829 28.528275142701 6.283249170004
4074 2 -1.200000000000 77.131207691829 26.657568575966 8.267433118426
4075 2 -1.200000000000 75.202927499533 29.931305067752 7.606038468952
4076 2 -1.200000000000 75.202927499533 28.060598501017 9.590222417374
4077 2 -1.200000000000 79.059487884124 29.931305067752 7.606038468952
4078 2 -1.200000000000 79.059487884124 28.060598501017 9.590222417374
4079 2 -1.200000000000 77.131207691829 31.334334992803 8.928827767900
4080 2 -1.200000000000 77.131207691829 29.463628426068 10.913011716322
4081 1 2.400000000000 77.131207691829 24.319185367548 7.936735793689
4082 1 2.400000000000 75.202927499533 23.851508725865 11.243709041059
4083 1 2.400000000000 79.059487884124 23.851508725865 11.243709041059
4084 1 2.400000000000 77.131207691829 27.125245217650 10.582314391585
4085 2 -1.200000000000 77.131207691829 24.786862009232 10.251617066848
4086 2 -1.200000000000 77.131207691829 22.916155442497 12.235801015270
4087 2 -1.200000000000 75.202927499533 26.189891934283 11.574406365796
4088 2 -1.200000000000 75.202927499533 24.319185367548 13.558590314219
4089 2 -1.200000000000 79.059487884124 26.189891934283 11.574406365796
4090 2 -1.200000000000 79.059487884124 24.319185367548 13.558590314219
4091 2 -1.200000000000 77.131207691829 27.592921859334 12.897195664745
4092 2 -1.200000000000 77.131207691829 25.722215292599 14.881379613167
4093 1 2.400000000000 77.131207691829 20.577772234079 11.905103690533
4094 1 2.400000000000 75.202927499533 20.110095592396 15.212076937904
4095 1 2.400000000000 79.059487884124 20.110095592396 15.212076937904
4096 1 2.400000000000 77.131207691829 23.383832084181 14.550682288430
4097 2 -1.200000000000 77.131207691829 21.045448875763 14.219984963693
4098 2 -1.200000000000 77.131207691829 19.174742309028 16.204168912115
4099 2 -1.200000000000 75.202927499533 22.448478800814 15.542774262641
4100 2 -1.200000000000 75.202927499533 20.577772234079 17.526958211063
4101 2 -1.200000000000 79.059487884124 22.448478800814 15.542774262641
4102 2 -1.200000000000 79.059487884124 20.577772234079 17.526958211063
4103 2 -1.200000000000 77.131207691829 23.851508725865 16.865563561589
4104 2 -1.200000000000 77.131207691829 21.980802159130 18.849747510011
4105 1 2.400000000000 77.131207691829 16.836359100610 15.873471587378
4106 1 2.400000000000 75.202927499533 16.368682458927 19.180444834748
4107 1 2.400000000000 79.059487884124 16.368682458927 19.180444834748
4108 1 2.400000000000 77.131207691829 19.642418950712 18.519050185274
4109 2 -1.200000000000 77.131207691829 17.304035742294 18.188352860537
4110 2 -1.200000000000 77.131207691829 15.433329175560 20.172536808959
4111 2 -1.200000000000 75.202927499533 18.707065667345 19.511142159485
4112 2 -1.200000000000 75.202927499533 16.836359100610 21.495326107908
4113 2 -1.200000000000 79.059487884124 18.707065667345 19.511142159485
4114 2 -1.200000000000 79.059487884124 16.836359100610 21.495326107908
4115 2 -1.200000000000 77.131207691829 20.110095592396 20.833931458434
4116 2 -1.200000000000 77.131207691829 18.239389025661 0.330697324737
4117 1 2.400000000000 77.131207691829 13.094945967141 19.841839484222
4118 1 2.400000000000 75.202927499533 12.627269325458 0.661394649474
4119 1 2.400000000000 79.059487884124 12.627269325458 0.661394649474
4120 1 2.400000000000 77.131207691829 15.901005817243 0.000000000000
4121 2 -1.200000000000 77.131207691829 13.562622608825 22.156720757382
4122 2 -1.200000000000 77.131207691829 11.691916042091 1.653486623685
4123 2 -1.200000000000 75.202927499533 14.965652533876 0.992091974211
4124 2 -1.200000000000 75.202927499533 13.094945967141 2.976275922633
4125 2 -1.200000000000 79.059487884124 14.965652533876 0.992091974211
4126 2 -1.200000000000 79.059487884124 13.094945967141 2.976275922633
4127 2 -1.200000000000 77.131207691829 16.368682458927 2.314881273159
4128 2 -1.200000000000 77.131207691829 14.497975892192 4.299065221582
4129 1 2.400000000000 73.274647307237 30.866658351119 6.613946494741
4130 1 2.400000000000 71.346367114941 30.398981709435 9.920919742111
4131 1 2.400000000000 75.202927499533 30.398981709435 9.920919742111
4132 1 2.400000000000 73.274647307237 1.870706566734 9.259525092637
4133 2 -1.200000000000 73.274647307237 31.334334992803 8.928827767900
4134 2 -1.200000000000 73.274647307237 29.463628426068 10.913011716322
4135 2 -1.200000000000 71.346367114941 0.935353283367 10.251617066848
4136 2 -1.200000000000 71.346367114941 30.866658351119 12.235801015270
4137 2 -1.200000000000 75.202927499533 0.935353283367 10.251617066848
4138 2 -1.200000000000 75.202927499533 30.866658351119 12.235801015270
4139 2 -1.200000000000 73.274647307237 2.338383208418 11.574406365796
4140 2 -1.200000000000 73.274647307237 0.467676641684 13.558590314219
4141 1 2.400000000000 73.274647307237 27.125245217650 10.582314391585
4142 1 2.400000000000 71.346367114941 26.657568575966 13.889287638956
4143 1 2.400000000000 75.202927499533 26.657568575966 13.889287638956
4144 1 2.400000000000 73.274647307237 29.931305067752 13.227892989482
4145 2 -1.200000000000 73.274647307237 27.592921859334 12.897195664745
4146 2 -1.200000000000 73.274647307237 25.722215292599 14.881379613167
4147 2 -1.200000000000 71.346367114941 28.995951784385 14.219984963693
4148 2 -1.200000000000 71.346367114941 27.125245217650 16.204168912115
4149 2 -1.200000000000 75.202927499533 28.995951784385 14.219984963693
4150 2 -1.200000000000 75.202927499533 27.125245217650 16.204168912115
4151 2 -1.200000000000 73.274647307237 30.398981709435 15.542774262641
4152 2 -1.200000000000 73.274647307237 28.528275142701 17.526958211063
4153 1 2.400000000000 73.274647307237 23.383832084181 14.550682288430
4154 1 2.400000000000 71.346367114941 22.916155442497 17.857655535800
4155 1 2.400000000000 75.202927499533 22.916155442497 17.857655535800
4156 1 2.400000000000 73.274647307237 26.189891934283 17.196260886326
4157 2 -1.200000000000 73.274647307237 23.851508725865 16.865563561589
4158 2 -1.200000000000 73.274647307237 21.980802159130 18.849747510011
4159 2 -1.200000000000 71.346367114941 25.254538650916 18.188352860537
4160 2 -1.200000000000 71.346367114941 23.383832084181 20.172536808959
4161 2 -1.200000000000 75.202927499533 25.254538650916 18.188352860537
4162 2 -1.200000000000 75.202927499533 23.383832084181 20.172536808959
4163 2 -1.200000000000 73.274647307237 26.657568575966 19.511142159485
4164 2 -1.200000000000 73.274647307237 24.786862009232 21.495326107908
4165 1 2.400000000000 73.274647307237 19.642418950712 18.519050185274
4166 1 2.400000000000 71.346367114941 19.174742309028 21.826023432645
4167 1 2.400000000000 75.202927499533 19.174742309028 21.826023432645
4168 1 2.400000000000 73.274647307237 22.448478800814 21.164628783171
4169 2 -1.200000000000 73.274647307237 20.110095592396 20.833931458434
4170 2 -1.200000000000 73.274647307237 18.239389025661 0.330697324737
4171 2 -1.200000000000 71.346367114941 21.513125517447 22.156720757382
4172 2 -1.200000000000 71.346367114941 19.642418950712 1.653486623685
4173 2 -1.200000000000 75.202927499533 21.513125517447 22.156720757382
4174 2 -1.200000000000 75.202927499533 19.642418950712 1.653486623685
4175 2 -1.200000000000 73.274647307237 22.916155442497 0.992091974211
4176 2 -1.200000000000 73.274647307237 21.045448875763 2.976275922633
4177 1 2.400000000000 69.418086922646 29.931305067752 13.227892989482
4178 1 2.400000000000 67.489806730350 29.463628426068 16.534866236852
4179 1 2.400000000000 71.346367114941 29.463628426068 16.534866236852
4180 1 2.400000000000 69.418086922646 0.935353283367 15.873471587378
4181 2 -1.200000000000 69.418086922646 30.398981709435 15.542774262641
4182 2 -1.200000000000 69.418086922646 28.528275142701 17.526958211063
4183 2 -1.200000000000 67.489806730350 0.000000000000 16.865563561589
4184 2 -1.200000000000 67.489806730350 29.931305067752 18.849747510011
4185 2 -1.200000000000 71.346367114941 0.000000000000 16.865563561589
4186 2 -1.200000000000 71.346367114941 29.931305067752 18.849747510011
4187 2 -1.200000000000 69.418086922646 1.403029925051 18.188352860537
4188 2 -1.200000000000 69.418086922646 31.334334992803 20.172536808959
4189 1 2.400000000000 69.418086922646 26.189891934283 17.196260886326
4190 1 2.400000000000 67.489806730350 25.722215292599 20.503234133696
4191 1 2.400000000000 71.346367114941 25.722215292599 20.503234133696
4192 1 2.400000000000 69.418086922646 28.995951784385 19.841839484222
4193 2 -1.200000000000 69.418086922646 26.657568575966 19.511142159485
4194 2 -1.200000000000 69.418086922646 24.786862009232 21.495326107908
4195 2 -1.200000000000 67.489806730350 28.060598501017 20.833931458434
4196 2 -1.200000000000 67.489806730350 26.189891934283 0.330697324737
4197 2 -1.200000000000 71.346367114941 28.060598501017 20.833931458434
4198 2 -1.200000000000 71.346367114941 26.189891934283 0.330697324737
4199 2 -1.200000000000 69.418086922646 29.463628426068 22.156720757382
4200 2 -1.200000000000 69.418086922646 27.592921859334 1.653486623685
4201 1 2.400000000000 69.418086922646 22.448478800814 21.164628783171
4202 1 2.400000000000 67.489806730350 21.980802159130 1.984183948422
4203 1 2.400000000000 71.346367114941 21.980802159130 1.984183948422
4204 1 2.400000000000 69.418086922646 25.254538650916 1.322789298948
4205 2 -1.200000000000 69.418086922646 22.916155442497 0.992091974211
4206 2 -1.200000000000 69.418086922646 21.045448875763 2.976275922633
4207 2 -1.200000000000 67.489806730350 24.319185367548 2.314881273159
4208 2 -1.200000000000 67.489806730350 22.448478800814 4.299065221582
4209 2 -1.200000000000 71.346367114941 24.319185367548 2.314881273159
4210 2 -1.200000000000 71.346367114941 22.448478800814 4.299065221582
4211 2 -1.200000000000 69.418086922646 25.722215292599 3.637670572107
4212 2 -1.200000000000 69.418086922646 23.851508725865 5.621854520530
4213 1 2.400000000000 65.561526538054 28.995951784385 19.841839484222
4214 1 2.400000000000 63.633246345759 28.528275142701 0.661394649474
4215 1 2.400000000000 67.489806730350 28.528275142701 0.661394649474
4216 1 2.400000000000 65.561526538054 0.000000000000 0.000000000000
4217 2 -1.200000000000 65.561526538054 29.463628426068 22.156720757382
4218 2 -1.200000000000 65.561526538054 27.592921859334 1.653486623685
4219 2 -1.200000000000 63.633246345759 30.866658351119 0.992091974211
4220 2 -1.200000000000 63.633246345759 28.995951784385 2.976275922633
4221 2 -1.200000000000 67.489806730350 30.866658351119 0.992091974211
4222 2 -1.200000000000 67.489806730350 28.995951784385 2.976275922633
4223 2 -1.200000000000 65.561526538054 0.467676641684 2.314881273159
4224 2 -1.200000000000 65.561526538054 30.398981709435 4.299065221582
4225 1 2.400000000000 107.983690768560 0.000000000000 0.000000000000
4226 1 2.400000000000 106.055410576264 31.334334992803 3.306973247370
4227 1 2.400000000000 109.911970960856 31.334334992803 3.306973247370
4228 1 2.400000000000 107.983690768560 2.806059850102 2.645578597896
4229 2 -1.200000000000 107.983690768560 0.467676641684 2.314881273159
4230 2 -1.200000000000 107.983690768560 30.398981709435 4.299065221582
4231 2 -1.200000000000 106.055410576264 1.870706566734 3.637670572107
4232 2 -1.200000000000 106.055410576264 0.000000000000 5.621854520530
4233 2 -1.200000000000 109.911970960856 1.870706566734 3.637670572107
4234 2 -1.200000000000 109.911970960856 0.000000000000 5.621854520530
4235 2 -1.200000000000 107.983690768560 3.273736491785 4.960459871056
4236 2 -1.200000000000 107.983690768560 1.403029925051 6.944643819478
4237 1 2.400000000000 104.127130383969 2.806059850102 2.645578597896
4238 1 2.400000000000 102.198850191673 2.338383208418 5.952551845267
4239 1 2.400000000000 106.055410576264 2.338383208418 5.952551845267
4240 1 2.400000000000 104.127130383969 5.612119700203 5.291157195793
4241 2 -1.200000000000 104.127130383969 3.273736491785 4.960459871056
4242 2 -1.200000000000 104.127130383969 1.403029925051 6.944643819478
4243 2 -1.200000000000 102.198850191673 4.676766416836 6.283249170004
4244 2 -1.200000000000 102.198850191673 2.806059850102 8.267433118426
4245 2 -1.200000000000 106.055410576264 4.676766416836 6.283249170004
4246 2 -1.200000000000 106.055410576264 2.806059850102 8.267433118426
4247 2 -1.200000000000 104.127130383969 6.079796341887 7.606038468952
4248 2 -1.200000000000 104.127130383969 4.209089775153 9.590222417374
4249 1 2.400000000000 100.270569999377 9.353532833672 1.322789298948
4250 1 2.400000000000 98.342289807081 8.885856191989 4.629762546319
4251 1 2.400000000000 102.198850191673 8.885856191989 4.629762546319
4252 1 2.400000000000 100.270569999377 12.159592683774 3.968367896844
4253 2 -1.200000000000 100.270569999377 9.821209475356 3.637670572107
4254 2 -1.200000000000 100.270569999377 7.950502908622 5.621854520530
4255 2 -1.200000000000 98.342289807081 11.224239400407 4.960459871056
4256 2 -1.200000000000 98.342289807081 9.353532833672 6.944643819478
4257 2 -1.200000000000 102.198850191673 11.224239400407 4.960459871056
4258 2 -1.200000000000 102.198850191673 9.353532833672 6.944643819478
4259 2 -1.200000000000 100.270569999377 12.627269325458 6.283249170004
4260 2 -1.200000000000 100.270569999377 10.756562758723 8.267433118426
4261 1 2.400000000000 100.270569999377 5.612119700203 5.291157195793
4262 1 2.400000000000 98.342289807081 5.144443058520 8.598130443163
4263 1 2.400000000000 102.198850191673 5.144443058520 8.598130443163
4264 1 2.400000000000 100.270569999377 8.418179550305 7.936735793689
4265 2 -1.200000000000 100.270569999377 6.079796341887 7.606038468952
4266 2 -1.200000000000 100.270569999377 4.209089775153 9.590222417374
4267 2 -1.200000000000 98.342289807081 7.482826266938 8.928827767900
4268 2 -1.200000000000 98.342289807081 5.612119700203 10.913011716322
4269 2 -1.200000000000 102.198850191673 7.482826266938 8.928827767900
4270 2 -1.200000000000 102.198850191673 5.612119700203 10.913011716322
4271 2 -1.200000000000 100.270569999377 8.885856191989 10.251617066848
4272 2 -1.200000000000 100.270569999377 7.015149625254 12.235801015270
4273 1 2.400000000000 100.270569999377 1.870706566734 9.259525092637
4274 1 2.400000000000 98.342289807081 1.403029925051 12.566498340008
4275 1 2.400000000000 102.198850191673 1.403029925051 12.566498340008
4276 1 2.400000000000 100.270569999377 4.676766416836 11.905103690533
4277 2 -1.200000000000 100.270569999377 2.338383208418 11.574406365796
4278 2 -1.200000000000 100.270569999377 0.467676641684 13.558590314219
4279 2 -1.200000000000 98.342289807081 3.741413133469 12.897195664745
4280 2 -1.200000000000 98.342289807081 1.870706566734 14.881379613167
4281 2 -1.200000000000 102.198850191673 3.741413133469 12.897195664745
4282 2 -1.200000000000 102.198850191673 1.870706566734 14.881379613167
4283 2 -1.200000000000 100.270569999377 5.144443058520 14.219984963693
4284 2 -1.200000000000 100.270569999377 3.273736491785 16.204168912115
4285 1 2.400000000000 96.414009614786 15.901005817243 0.000000000000
4286 1 2.400000000000 94.485729422490 15.433329175560 3.306973247370
4287 1 2.400000000000 98.342289807081 15.433329175560 3.306973247370
4288 1 2.400000000000 96.414009614786 18.707065667345 2.645578597896
4289 2 -1.200000000000 96.414009614786 16.368682458927 2.314881273159
4290 2 -1.200000000000 96.414009614786 14.497975892192 4.299065221582
4291 2 -1.200000000000 94.485729422490 17.771712383978 3.637670572107
4292 2 -1.200000000000 94.485729422490 15.901005817243 5.621854520530
4293 2 -1.200000000000 98.342289807081 17.771712383978 3.637670572107
4294 2 -1.200000000000 98.342289807081 15.901005817243 5.621854520530
4295 2 -1.200000000000 96.414009614786 19.174742309028 4.960459871056
4296 2 -1.200000000000 96.414009614786 17.304035742294 6.944643819478
4297 1 2.400000000000 96.414009614786 12.159592683774 3.968367896844
4298 1 2.400000000000 94.485729422490 11.691916042091 7.275341144215
4299 1 2.400000000000 98.342289807081 11.691916042091 7.275341144215
4300 1 2.400000000000 96.414009614786 14.965652533876 6.613946494741
4301 2 -1.200000000000 96.414009614786 12.627269325458 6.283249170004
4302 2 -1.200000000000 96.414009614786 10.756562758723 8.267433118426
4303 2 -1.200000000000 94.485729422490 14.030299250509 7.606038468952
4304 2 -1.200000000000 94.485729422490 12.159592683774 9.590222417374
4305 2 -1.200000000000 98.342289807081 14.030299250509 7.606038468952
4306 2 -1.200000000000 98.342289807081 12.159592683774 9.590222417374
4307 2 -1.200000000000 96.414009614786 15.433329175560 8.928827767900
4308 2 -1.200000000000 96.414009614786 13.562622608825 10.913011716322
4309 1 2.400000000000 96.414009614786 8.418179550305 7.936735793689
4310 1 2.400000000000 94.485729422490 7.950502908622 11.243709041059
4311 1 2.400000000000 98.342289807081 7.950502908622 11.243709041059
4312 1 2.400000000000 96.414009614786 11.224239400407 10.582314391585
4313 2 -1.200000000000 96.414009614786 8.885856191989 10.251617066848
4314 2 -1.200000000000 96.414009614786 7.015149625254 12.235801015270
4315 2 -1.200000000000 94.485729422490 10.288886117040 11.574406365796
4316 2 -1.200000000000 94.485729422490 8.418179550305 13.558590314219
4317 2 -1.200000000000 98.342289807081 10.288886117040 11.574406365796
4318 2 -1.200000000000 98.342289807081 8.418179550305 13.558590314219
4319 2 -1.200000000000 96.414009614786 11.691916042091 12.897195664745
4320 2 -1.200000000000 96.414009614786 9.821209475356 14.881379613167
4321 1 2.400000000000 96.414009614786 4.676766416836 11.905103690533
4322 1 2.400000000000 94.485729422490 4.209089775153 15.212076937904
4323 1 2.400000000000 98.342289807081 4.209089775153 15.212076937904
4324 1 2.400000000000 96.414009614786 7.482826266938 14.550682288430
4325 2 -1.200000000000 96.414009614786 5.144443058520 14.219984963693
4326 2 -1.200000000000 96.414009614786 3.273736491785 16.204168912115
4327 2 -1.200000000000 94.485729422490 6.547472983571 15.542774262641
4328 2 -1.200000000000 94.485729422490 4.676766416836 17.526958211063
4329 2 -1.200000000000 98.342289807081 6.547472983571 15.542774262641
4330 2 -1.200000000000 98.342289807081 4.676766416836 17.526958211063
4331 2 -1.200000000000 96.414009614786 7.950502908622 16.865563561589
4332 2 -1.200000000000 96.414009614786 6.079796341887 18.849747510011
4333 1 2.400000000000 96.414009614786 0.935353283367 15.873471587378
4334 1 2.400000000000 94.485729422490 0.467676641684 19.180444834748
4335 1 2.400000000000 98.342289807081 0.467676641684 19.180444834748
4336 1 2.400000000000 96.414009614786 3.741413133469 18.519050185274
4337 2 -1.200000000000 96.414009614786 1.403029925051 18.188352860537
4338 2 -1.200000000000 96.414009614786 31.334334992803 20.172536808959
4339 2 -1.200000000000 94.485729422490 2.806059850102 19.511142159485
4340 2 -1.200000000000 94.485729422490 0.935353283367 21.495326107908
4341 2 -1.200000000000 98.342289807081 2.806059850102 19.511142159485
4342 2 -1.200000000000 98.342289807081 0.935353283367 21.495326107908
4343 2 -1.200000000000 96.414009614786 4.209089775153 20.833931458434
4344 2 -1.200000000000 96.414009614786 2.338383208418 0.330697324737
4345 1 2.400000000000 92.557449230194 18.707065667345 2.645578597896
4346 1 2.400000000000 90.629169037899 18.239389025661 5.952551845267
4347 1 2.400000000000 94.485729422490 18.239389025661 5.952551845267
4348 1 2.400000000000 92.557449230194 21.513125517447 5.291157195793
4349 2 -1.200000000000 92.557449230194 19.174742309028 4.960459871056
4350 2 -1.200000000000 92.557449230194 17.304035742294 6.944643819478
4351 2 -1.200000000000 90.629169037899 20.577772234079 6.283249170004
4352 2 -1.200000000000 90.629169037899 18.707065667345 8.267433118426
4353 2 -1.200000000000 94.485729422490 20.577772234079 6.283249170004
4354 2 -1.200000000000 94.485729422490 18.707065667345 8.267433118426
4355 2 -1.200000000000 92.557449230194 21.980802159130 7.606038468952
4356 2 -1.200000000000 92.557449230194 20.110095592396 9.590222417374
4357 1 2.400000000000 92.557449230194 14.965652533876 6.613946494741
4358 1 2.400000000000 90.629169037899 14.497975892192 9.920919742111
4359 1 2.400000000000 94.485729422490 14.497975892192 9.920919742111
4360 1 2.400000000000 92.557449230194 17.771712383978 9.259525092637
4361 2 -1.200000000000 92.557449230194 15.433329175560 8.928827767900
4362 2 -1.200000000000 92.557449230194 13.562622608825 10.913011716322
4363 2 -1.200000000000 90.629169037899 16.836359100610 10.251617066848
4364 2 -1.200000000000 90.629169037899 14.965652533876 12.235801015270
4365 2 -1.200000000000 94.485729422490 16.836359100610 10.251617066848
4366 2 -1.200000000000 94.485729422490 14.965652533876 12.235801015270
4367 2 -1.200000000000 92.557449230194 18.239389025661 11.574406365796
4368 2 -1.200000000000 92.557449230194 16.368682458927 13.558590314219
4369 1 2.400000000000 92.557449230194 11.224239400407 10.582314391585
4370 1 2.400000000000 90.629169037899 10.756562758723 13.889287638956
4371 1 2.400000000000 94.485729422490 10.756562758723 13.889287638956
4372 1 2.400000000000 92.557449230194 14.030299250509 13.227892989482
4373 2 -1.200000000000 92.557449230194 11.691916042091 12.897195664745
4374 2 -1.200000000000 92.557449230194 9.821209475356 14.881379613167
4375 2 -1.200000000000 90.629169037899 13.094945967141 14.219984963693
4376 2 -1.200000000000 90.629169037899 11.224239400407 16.204168912115
4377 2 -1.200000000000 94.485729422490 13.094945967141 14.219984963693
4378 2 -1.200000000000 94.485729422490 11.224239400407 16.204168912115
4379 2 -1.200000000000 92.557449230194 14.497975892192 15.542774262641
4380 2 -1.200000000000 92.557449230194 12.627269325458 17.526958211063
4381 1 2.400000000000 92.557449230194 7.482826266938 14.550682288430
4382 1 2.400000000000 90.629169037899 7.015149625254 17.857655535800
4383 1 2.400000000000 94.485729422490 7.015149625254 17.857655535800
4384 1 2.400000000000 92.557449230194 10.288886117040 17.196260886326
4385 2 -1.200000000000 92.557449230194 7.950502908622 16.865563561589
4386 2 -1.200000000000 92.557449230194 6.079796341887 18.849747510011
4387 2 -1.200000000000 90.629169037899 9.353532833672 18.188352860537
4388 2 -1.200000000000 90.629169037899 7.482826266938 20.172536808959
4389 2 -1.200000000000 94.485729422490 9.353532833672 18.188352860537
4390 2 -1.200000000000 94.485729422490 7.482826266938 20.172536808959
4391 2 -1.200000000000 92.557449230194 10.756562758723 19.511142159485
4392 2 -1.200000000000 92.557449230194 8.885856191989 21.495326107908
4393 1 2.400000000000 92.557449230194 3.741413133469 18.519050185274
4394 1 2.400000000000 90.629169037899 3.273736491785 21.826023432645
4395 1 2.400000000000 94.485729422490 3.273736491785 21.826023432645
4396 1 2.400000000000 92.557449230194 6.547472983571 21.164628783171
4397 2 -1.200000000000 92.557449230194 4.209089775153 20.833931458434
4398 2 -1.200000000000 92.557449230194 2.338383208418 0.330697324737
4399 2 -1.200000000000 90.629169037899 5.612119700203 22.156720757382
4400 2 -1.200000000000 90.629169037899 3.741413133469 1.653486623685
4401 2 -1.200000000000 94.485729422490 5.612119700203 22.156720757382
4402 2 -1.200000000000 94.485729422490 3.741413133469 1.653486623685
4403 2 -1.200000000000 92.557449230194 7.015149625254 0.992091974211
4404 2 -1.200000000000 92.557449230194 5.144443058520 2.976275922633
4405 1 2.400000000000 88.700888845603 25.254538650916 1.322789298948
4406 1 2.400000000000 86.772608653307 24.786862009232 4.629762546319
4407 1 2.400000000000 90.629169037899 24.786862009232 4.629762546319
4408 1 2.400000000000 88.700888845603 28.060598501017 3.968367896844
4409 2 -1.200000000000 88.700888845603 25.722215292599 3.637670572107
4410 2 -1.200000000000 88.700888845603 23.851508725865 5.621854520530
4411 2 -1.200000000000 86.772608653307 27.125245217650 4.960459871056
4412 2 -1.200000000000 86.772608653307 25.254538650916 6.944643819478
4413 2 -1.200000000000 90.629169037899 27.125245217650 4.960459871056
4414 2 -1.200000000000 90.629169037899 25.254538650916 6.944643819478
4415 2 -1.200000000000 88.700888845603 28.528275142701 6.283249170004
4416 2 -1.200000000000 88.700888845603 26.657568575966 8.267433118426
4417 1 2.400000000000 88.700888845603 21.513125517447 5.291157195793
4418 1 2.400000000000 86.772608653307 21.045448875763 8.598130443163
4419 1 2.400000000000 90.629169037899 21.045448875763 8.598130443163
4420 1 2.400000000000 88.700888845603 24.319185367548 7.936735793689
4421 2 -1.200000000000 88.700888845603 21.980802159130 7.606038468952
4422 2 -1.200000000000 88.700888845603 20.110095592396 9.590222417374
4423 2 -1.200000000000 86.772608653307 23.383832084181 8.928827767900
4424 2 -1.200000000000 86.772608653307 21.513125517447 10.913011716322
4425 2 -1.200000000000 90.629169037899 23.383832084181 8.928827767900
4426 2 -1.200000000000 90.629169037899 21.513125517447 10.913011716322
4427 2 -1.200000000000 88.700888845603 24.786862009232 10.251617066848
4428 2 -1.200000000000 88.700888845603 22.916155442497 12.235801015270
4429 1 2.400000000000 88.700888845603 17.771712383978 9.259525092637
4430 1 2.400000000000 86.772608653307 17.304035742294 12.566498340008
4431 1 2.400000000000 90.629169037899 17.304035742294 12.566498340008
4432 1 2.400000000000 88.700888845603 20.577772234079 11.905103690533
4433 2 -1.200000000000 88.700888845603 18.239389025661 11.574406365796
4434 2 -1.200000000000 88.700888845603 16.368682458927 13.558590314219
4435 2 -1.200000000000 86.772608653307 19.642418950712 12.897195664745
4436 2 -1.200000000000 86.772608653307 17.771712383978 14.881379613167
4437 2 -1.200000000000 90.629169037899 19.642418950712 12.897195664745
4438 2 -1.200000000000 90.629169037899 17.771712383978 14.881379613167
4439 2 -1.200000000000 88.700888845603 21.045448875763 14.219984963693
4440 2 -1.200000000000 88.700888845603 19.174742309028 16.204168912115
4441 1 2.400000000000 88.700888845603 14.030299250509 13.227892989482
4442 1 2.400000000000 86.772608653307 13.562622608825 16.534866236852
4443 1 2.400000000000 90.629169037899 13.562622608825 16.534866236852
4444 1 2.400000000000 88.700888845603 16.836359100610 15.873471587378
4445 2 -1.200000000000 88.700888845603 14.497975892192 15.542774262641
4446 2 -1.200000000000 88.700888845603 12.627269325458 17.526958211063
4447 2 -1.200000000000 86.772608653307 15.901005817243 16.865563561589
4448 2 -1.200000000000 86.772608653307 14.030299250509 18.849747510011
4449 2 -1.200000000000 90.629169037899 15.901005817243 16.865563561589
4450 2 -1.200000000000 90.629169037899 14.030299250509 18.849747510011
4451 2 -1.200000000000 88.700888845603 17.304035742294 18.188352860537
4452 2 -1.200000000000 88.700888845603 15.433329175560 20.172536808959
4453 1 2.400000000000 88.700888845603 10.288886117040 17.196260886326
4454 1 2.400000000000 86.772608653307 9.821209475356 20.503234133696
4455 1 2.400000000000 90.629169037899 9.821209475356 20.503234133696
4456 1 2.400000000000 88.700888845603 13.094945967141 19.841839484222
4457 2 -1.200000000000 88.700888845603 10.756562758723 19.511142159485
4458 2 -1.200000000000 88.700888845603 8.885856191989 21.495326107908
4459 2 -1.200000000000 86.772608653307 12.159592683774 20.833931458434
4460 2 -1.200000000000 86.772608653307 10.288886117040 0.330697324737
4461 2 -1.200000000000 90.629169037899 12.159592683774 20.833931458434
4462 2 -1.200000000000 90.629169037899 10.288886117040 0.330697324737
4463 2 -1.200000000000 88.700888845603 13.562622608825 22.156720757382
4464 2 -1.200000000000 88.700888845603 11.691916042091 1.653486623685
4465 1 2.400000000000 88.700888845603 6.547472983571 21.164628783171
4466 1 2.400000000000 86.772608653307 6.079796341887 1.984183948422
4467 1 2.400000000000 90.629169037899 6.079796341887 1.984183948422
4468 1 2.400000000000 88.700888845603 9.353532833672 1.322789298948
4469 2 -1.200000000000 88.700888845603 7.015149625254 0.992091974211
4470 2 -1.200000000000 88.700888845603 5.144443058520 2.976275922633
4471 2 -1.200000000000 86.772608653307 8.418179550305 2.314881273159
4472 2 -1.200000000000 86.772608653307 6.547472983571 4.299065221582
4473 2 -1.200000000000 90.629169037899 8.418179550305 2.314881273159
4474 2 -1.200000000000 90.629169037899 6.547472983571 4.299065221582
4475 2 -1.200000000000 88.700888845603 9.821209475356 3.637670572107
4476 2 -1.200000000000 88.700888845603 7.950502908622 5.621854520530
4477 1 2.400000000000 84.844328461011 28.060598501017 3.968367896844
4478 1 2.400000000000 82.916048268716 27.592921859334 7.275341144215
4479 1 2.400000000000 86.772608653307 27.592921859334 7.275341144215
4480 1 2.400000000000 84.844328461011 30.866658351119 6.613946494741
4481 2 -1.200000000000 84.844328461011 28.528275142701 6.283249170004
4482 2 -1.200000000000 84.844328461011 26.657568575966 8.267433118426
4483 2 -1.200000000000 82.916048268716 29.931305067752 7.606038468952
4484 2 -1.200000000000 82.916048268716 28.060598501017 9.590222417374
4485 2 -1.200000000000 86.772608653307 29.931305067752 7.606038468952
4486 2 -1.200000000000 86.772608653307 28.060598501017 9.590222417374
4487 2 -1.200000000000 84.844328461011 31.334334992803 8.928827767900
4488 2 -1.200000000000 84.844328461011 29.463628426068 10.913011716322
4489 1 2.400000000000 84.844328461011 24.319185367548 7.936735793689
4490 1 2.400000000000 82.916048268716 23.851508725865 11.243709041059
4491 1 2.400000000000 86.772608653307 23.851508725865 11.243709041059
4492 1 2.400000000000 84.844328461011 27.125245217650 10.582314391585
4493 2 -1.200000000000 84.844328461011 24.786862009232 10.251617066848
4494 2 -1.200000000000 84.844328461011 22.916155442497 12.235801015270
4495 2 -1.200000000000 82.916048268716 26.189891934283 11.574406365796
4496 2 -1.200000000000 82.916048268716 24.319185367548 13.558590314219
4497 2 -1.200000000000 86.772608653307 26.189891934283 11.574406365796
4498 2 -1.200000000000 86.772608653307 24.319185367548 13.558590314219
4499 2 -1.200000000000 84.844328461011 27.592921859334 12.897195664745
4500 2 -1.200000000000 84.844328461011 25.722215292599 14.881379613167
4501 1 2.400000000000 84.844328461011 20.577772234079 11.905103690533
4502 1 2.400000000000 82.916048268716 20.110095592396 15.212076937904
4503 1 2.400000000000 86.772608653307 20.110095592396 15.212076937904
4504 1 2.400000000000 84.844328461011 23.383832084181 14.550682288430
4505 2 -1.200000000000 84.844328461011 21.045448875763 14.219984963693
4506 2 -1.200000000000 84.844328461011 19.174742309028 16.204168912115
4507 2 -1.200000000000 82.916048268716 22.448478800814 15.542774262641
4508 2 -1.200000000000 82.916048268716 20.577772234079 17.526958211063
4509 2 -1.200000000000 86.772608653307 22.448478800814 15.542774262641
4510 2 -1.200000000000 86.772608653307 20.577772234079 17.526958211063
4511 2 -1.200000000000 84.844328461011 23.851508725865 16.865563561589
4512 2 -1.200000000000 84.844328461011 21.980802159130 18.849747510011
4513 1 2.400000000000 84.844328461011 16.836359100610 15.873471587378
4514 1 2.400000000000 82.916048268716 16.368682458927 19.180444834748
4515 1 2.400000000000 86.772608653307 16.368682458927 19.180444834748
4516 1 2.400000000000 84.844328461011 19.642418950712 18.519050185274
4517 2 -1.200000000000 84.844328461011 17.304035742294 18.188352860537
4518 2 -1.200000000000 84.844328461011 15.433329175560 20.172536808959
4519 2 -1.200000000000 82.916048268716 18.707065667345 19.511142159485
4520 2 -1.200000000000 82.916048268716 16.836359100610 21.495326107908
4521 2 -1.200000000000 86.772608653307 18.707065667345 19.511142159485
4522 2 -1.200000000000 86.772608653307 16.836359100610 21.495326107908
4523 2 -1.200000000000 84.844328461011 20.110095592396 20.833931458434
4524 2 -1.200000000000 84.844328461011 18.239389025661 0.330697324737
4525 1 2.400000000000 84.844328461011 13.094945967141 19.841839484222
4526 1 2.400000000000 82.916048268716 12.627269325458 0.661394649474
4527 1 2.400000000000 86.772608653307 12.627269325458 0.661394649474
4528 1 2.400000000000 84.844328461011 15.901005817243 0.000000000000
4529 2 -1.200000000000 84.844328461011 13.562622608825 22.156720757382
4530 2 -1.200000000000 84.844328461011 11.691916042091 1.653486623685
4531 2 -1.200000000000 82.916048268716 14.965652533876 0.992091974211
4532 2 -1.200000000000 82.916048268716 13.094945967141 2.976275922633
4533 2 -1.200000000000 86.772608653307 14.965652533876 0.992091974211
4534 2 -1.200000000000 86.772608653307 13.094945967141 2.976275922633
4535 2 -1.200000000000 84.844328461011 16.368682458927 2.314881273159
4536 2 -1.200000000000 84.844328461011 14.497975892192 4.299065221582
4537 1 2.400000000000 80.987768076420 30.866658351119 6.613946494741
4538 1 2.400000000000 79.059487884124 30.398981709435 9.920919742111
4539 1 2.400000000000 82.916048268716 30.398981709435 9.920919742111
4540 1 2.400000000000 80.987768076420 1.870706566734 9.259525092637
4541 2 -1.200000000000 80.987768076420 31.334334992803 8.928827767900
4542 2 -1.200000000000 80.987768076420 29.463628426068 10.913011716322
4543 2 -1.200000000000 79.059487884124 0.935353283367 10.251617066848
4544 2 -1.200000000000 79.059487884124 30.866658351119 12.235801015270
4545 2 -1.200000000000 82.916048268716 0.935353283367 10.251617066848
4546 2 -1.200000000000 82.916048268716 30.866658351119 12.235801015270
4547 2 -1.200000000000 80.987768076420 2.338383208418 11.574406365796
4548 2 -1.200000000000 80.987768076420 0.467676641684 13.558590314219
4549 1 2.400000000000 80.987768076420 27.125245217650 10.582314391585
4550 1 2.400000000000 79.059487884124 26.657568575966 13.889287638956
4551 1 2.400000000000 82.916048268716 26.657568575966 13.889287638956
4552 1 2.400000000000 80.987768076420 29.931305067752 13.227892989482
4553 2 -1.200000000000 80.987768076420 27.592921859334 12.897195664745
4554 2 -1.200000000000 80.987768076420 25.722215292599 14.881379613167
4555 2 -1.200000000000 79.059487884124 28.995951784385 14.219984963693
4556 2 -1.200000000000 79.059487884124 27.125245217650 16.204168912115
4557 2 -1.200000000000 82.916048268716 28.995951784385 14.219984963693
4558 2 -1.200000000000 82.916048268716 27.125245217650 16.204168912115
4559 2 -1.200000000000 80.987768076420 30.398981709435 15.542774262641
4560 2 -1.200000000000 80.987768076420 28.528275142701 17.526958211063
4561 1 2.400000000000 80.987768076420 23.383832084181 14.550682288430
4562 1 2.400000000000 79.059487884124 22.916155442497 17.857655535800
4563 1 2.400000000000 82.916048268716 22.916155442497 17.857655535800
4564 1 2.400000000000 80.987768076420 26.189891934283 17.196260886326
4565 2 -1.200000000000 80.987768076420 23.851508725865 16.865563561589
4566 2 -1.200000000000 80.987768076420 21.980802159130 18.849747510011
4567 2 -1.200000000000 79.059487884124 25.254538650916 18.188352860537
4568 2 -1.200000000000 79.059487884124 23.383832084181 20.172536808959
4569 2 -1.200000000000 82.916048268716 25.254538650916 18.188352860537
4570 2 -1.200000000000 82.916048268716 23.383832084181 20.172536808959
4571 2 -1.200000000000 80.987768076420 26.657568575966 19.511142159485
4572 2 -1.200000000000 80.987768076420 24.786862009232 21.495326107908
4573 1 2.400000000000 80.987768076420 19.642418950712 18.519050185274
4574 1 2.400000000000 79.059487884124 19.174742309028 21.826023432645
4575 1 2.400000000000 82.916048268716 19.174742309028 21.826023432645
4576 1 2.400000000000 80.987768076420 22.448478800814 21.164628783171
4577 2 -1.200000000000 80.987768076420 20.110095592396 20.833931458434
4578 2 -1.200000000000 80.987768076420 18.239389025661 0.330697324737
4579 2 -1.200000000000 79.059487884124 21.513125517447 22.156720757382
4580 2 -1.200000000000 79.059487884124 19.642418950712 1.653486623685
4581 2 -1.200000000000 82.916048268716 21.513125517447 22.156720757382
4582 2 -1.200000000000 82.916048268716 19.642418950712 1.653486623685
4583 2 -1.200000000000 80.987768076420 22.916155442497 0.992091974211
4584 2 -1.200000000000 80.987768076420 21.045448875763 2.976275922633
4585 1 2.400000000000 77.131207691829 29.931305067752 13.227892989482
4586 1 2.400000000000 75.202927499533 29.463628426068 16.534866236852
4587 1 2.400000000000 79.059487884124 29.463628426068 16.534866236852
4588 1 2.400000000000 77.131207691829 0.935353283367 15.873471587378
4589 2 -1.200000000000 77.131207691829 30.398981709435 15.542774262641
4590 2 -1.200000000000 77.131207691829 28.528275142701 17.526958211063
4591 2 -1.200000000000 75.202927499533 0.000000000000 16.865563561589
4592 2 -1.200000000000 75.202927499533 29.931305067752 18.849747510011
4593 2 -1.200000000000 79.059487884124 0.000000000000 16.865563561589
4594 2 -1.200000000000 79.059487884124 29.931305067752 18.849747510011
4595 2 -1.200000000000 77.131207691829 1.403029925051 18.188352860537
4596 2 -1.200000000000 77.131207691829 31.334334992803 20.172536808959
4597 1 2.400000000000 77.131207691829 26.189891934283 17.196260886326
4598 1 2.400000000000 75.202927499533 25.722215292599 20.503234133696
4599 1 2.400000000000 79.059487884124 25.722215292599 20.503234133696
4600 1 2.400000000000 77.131207691829 28.995951784385 19.841839484222
4601 2 -1.200000000000 77.131207691829 26.657568575966 19.511142159485
4602 2 -1.200000000000 77.131207691829 24.786862009232 21.495326107908
4603 2 -1.200000000000 75.202927499533 28.060598501017 20.833931458434
4604 2 -1.200000000000 75.202927499533 26.189891934283 0.330697324737
4605 2 -1.200000000000 79.059487884124 28.060598501017 20.833931458434
4606 2 -1.200000000000 79.059487884124 26.189891934283 0.330697324737
4607 2 -1.200000000000 77.131207691829 29.463628426068 22.156720757382
4608 2 -1.200000000000 77.131207691829 27.592921859334 1.653486623685
4609 1 2.400000000000 77.131207691829 22.448478800814 21.164628783171
4610 1 2.400000000000 75.202927499533 21.980802159130 1.984183948422
4611 1 2.400000000000 79.059487884124 21.980802159130 1.984183948422
4612 1 2.400000000000 77.131207691829 25.254538650916 1.322789298948
4613 2 -1.200000000000 77.131207691829 22.916155442497 0.992091974211
4614 2 -1.200000000000 77.131207691829 21.045448875763 2.976275922633
4615 2 -1.200000000000 75.202927499533 24.319185367548 2.314881273159
4616 2 -1.200000000000 75.202927499533 22.448478800814 4.299065221582
4617 2 -1.200000000000 79.059487884124 24.319185367548 2.314881273159
4618 2 -1.200000000000 79.059487884124 22.448478800814 4.299065221582
4619 2 -1.200000000000 77.131207691829 25.722215292599 3.637670572107
4620 2 -1.200000000000 77.131207691829 23.851508725865 5.621854520530
4621 1 2.400000000000 73.274647307237 28.995951784385 19.841839484222
4622 1 2.400000000000 71.346367114941 28.528275142701 0.661394649474
4623 1 2.400000000000 75.202927499533 28.528275142701 0.661394649474
4624 1 2.400000000000 73.274647307237 0.000000000000 0.000000000000
4625 2 -1.200000000000 73.274647307237 29.463628426068 22.156720757382
4626 2 -1.200000000000 73.274647307237 27.592921859334 1.653486623685
4627 2 -1.200000000000 71.346367114941 30.866658351119 0.992091974211
4628 2 -1.200000000000 71.346367114941 28.995951784385 2.976275922633
4629 2 -1.200000000000 75.202927499533 30.866658351119 0.992091974211
4630 2 -1.200000000000 75.202927499533 28.995951784385 2.976275922633
4631 2 -1.200000000000 73.274647307237 0.467676641684 2.314881273159
4632 2 -1.200000000000 73.274647307237 30.398981709435 4.299065221582
4633 1 2.400000000000 115.696811537743 0.000000000000 0.000000000000
4634 1 2.400000000000 113.768531345447 31.334334992803 3.306973247370
4635 1 2.400000000000 117.625091730039 31.334334992803 3.306973247370
4636 1 2.400000000000 115.696811537743 2.806059850102 2.645578597896
4637 2 -1.200000000000 115.696811537743 0.467676641684 2.314881273159
4638 2 -1.200000000000 115.696811537743 30.398981709435 4.299065221582
4639 2 -1.200000000000 113.768531345447 1.870706566734 3.637670572107
4640 2 -1.200000000000 113.768531345447 0.000000000000 5.621854520530
4641 2 -1.200000000000 117.625091730039 1.870706566734 3.637670572107
4642 2 -1.200000000000 117.625091730039 0.000000000000 5.621854520530
4643 2 -1.200000000000 115.696811537743 3.273736491785 4.960459871056
4644 2 -1.200000000000 115.696811537743 1.403029925051 6.944643819478
4645 1 2.400000000000 111.840251153151 2.806059850102 2.645578597896
4646 1 2.400000000000 109.911970960856 2.338383208418 5.952551845267
4647 1 2.400000000000 113.768531345447 2.338383208418 5.952551845267
4648 1 2.400000000000 111.840251153151 5.612119700203 5.291157195793
4649 2 -1.200000000000 111.840251153151 3.273736491785 4.960459871056
4650 2 -1.200000000000 111.840251153151 1.403029925051 6.944643819478
4651 2 -1.200000000000 109.911970960856 4.676766416836 6.283249170004
4652 2 -1.200000000000 109.911970960856 2.806059850102 8.267433118426
4653 2 -1.200000000000 113.768531345447 4.676766416836 6.283249170004
4654 2 -1.200000000000 113.768531345447 2.806059850102 8.267433118426
4655 2 -1.200000000000 111.840251153151 6.079796341887 7.606038468952
4656 2 -1.200000000000 111.840251153151 4.209089775153 9.590222417374
4657 1 2.400000000000 107.983690768560 9.353532833672 1.322789298948
4658 1 2.400000000000 106.055410576264 8.885856191989 4.629762546319
4659 1 2.400000000000 109.911970960856 8.885856191989 4.629762546319
4660 1 2.400000000000 107.983690768560 12.159592683774 3.968367896844
4661 2 -1.200000000000 107.983690768560 9.821209475356 3.637670572107
4662 2 -1.200000000000 107.983690768560 7.950502908622 5.621854520530
4663 2 -1.200000000000 106.055410576264 11.224239400407 4.960459871056
4664 2 -1.200000000000 106.055410576264 9.353532833672 6.944643819478
4665 2 -1.200000000000 109.911970960856 11.224239400407 4.960459871056
4666 2 -1.200000000000 109.911970960856 9.353532833672 6.944643819478
4667 2 -1.200000000000 107.983690768560 12.627269325458 6.283249170004
4668 2 -1.200000000000 107.983690768560 10.756562758723 8.267433118426
4669 1 2.400000000000 107.983690768560 5.612119700203 5.291157195793
4670 1 2.400000000000 106.055410576264 5.144443058520 8.598130443163
4671 1 2.400000000000 109.911970960856 5.144443058520 8.598130443163
4672 1 2.400000000000 107.983690768560 8.418179550305 7.936735793689
4673 2 -1.200000000000 107.983690768560 6.079796341887 7.606038468952
4674 2 -1.200000000000 107.983690768560 4.209089775153 9.590222417374
4675 2 -1.200000000000 106.055410576264 7.482826266938 8.928827767900
4676 2 -1.200000000000 106.055410576264 5.612119700203 10.913011716322
4677 2 -1.200000000000 109.911970960856 7.482826266938 8.928827767900
4678 2 -1.200000000000 109.911970960856 5.612119700203 10.913011716322
4679 2 -1.200000000000 107.983690768560 8.885856191989 10.251617066848
4680 2 -1.200000000000 107.983690768560 7.015149625254 12.235801015270
4681 1 2.400000000000 107.983690768560 1.870706566734 9.259525092637
4682 1 2.400000000000 106.055410576264 1.403029925051 12.566498340008
4683 1 2.400000000000 109.911970960856 1.403029925051 12.566498340008
4684 1 2.400000000000 107.983690768560 4.676766416836 11.905103690533
4685 2 -1.200000000000 107.983690768560 2.338383208418 11.574406365796
4686 2 -1.200000000000 107.983690768560 0.467676641684 13.558590314219
4687 2 -1.200000000000 106.055410576264 3.741413133469 12.897195664745
4688 2 -1.200000000000 106.055410576264 1.870706566734 14.881379613167
4689 2 -1.200000000000 109.911970960856 3.741413133469 12.897195664745
4690 2 -1.200000000000 109.911970960856 1.870706566734 14.881379613167
4691 2 -1.200000000000 107.983690768560 5.144443058520 14.219984963693
4692 2 -1.200000000000 107.983690768560 3.273736491785 16.204168912115
4693 1 2.400000000000 104.127130383969 15.901005817243 0.000000000000
4694 1 2.400000000000 102.198850191673 15.433329175560 3.306973247370
4695 1 2.400000000000 106.055410576264 15.433329175560 3.306973247370
4696 1 2.400000000000 104.127130383969 18.707065667345 2.645578597896
4697 2 -1.200000000000 104.127130383969 16.368682458927 2.314881273159
4698 2 -1.200000000000 104.127130383969 14.497975892192 4.299065221582
4699 2 -1.200000000000 102.198850191673 17.771712383978 3.637670572107
4700 2 -1.200000000000 102.198850191673 15.901005817243 5.621854520530
4701 2 -1.200000000000 106.055410576264 17.771712383978 3.637670572107
4702 2 -1.200000000000 106.055410576264 15.901005817243 5.621854520530
4703 2 -1.200000000000 104.127130383969 19.174742309028 4.960459871056
4704 2 -1.200000000000 104.127130383969 17.304035742294 6.944643819478
4705 1 2.400000000000 104.127130383969 12.159592683774 3.968367896844
4706 1 2.400000000000 102.198850191673 11.691916042091 7.275341144215
4707 1 2.400000000000 106.055410576264 11.691916042091 7.275341144215
4708 1 2.400000000000 104.127130383969 14.965652533876 6.613946494741
4709 2 -1.200000000000 104.127130383969 12.627269325458 6.283249170004
4710 2 -1.200000000000 104.127130383969 10.756562758723 8.267433118426
4711 2 -1.200000000000 102.198850191673 14.030299250509 7.606038468952
4712 2 -1.200000000000 102.198850191673 12.159592683774 9.590222417374
4713 2 -1.200000000000 106.055410576264 14.030299250509 7.606038468952
4714 2 -1.200000000000 106.055410576264 12.159592683774 9.590222417374
4715 2 -1.200000000000 104.127130383969 15.433329175560 8.928827767900
4716 2 -1.200000000000 104.127130383969 13.562622608825 10.913011716322
4717 1 2.400000000000 104.127130383969 8.418179550305 7.936735793689
4718 1 2.400000000000 102.198850191673 7.950502908622 11.243709041059
4719 1 2.400000000000 106.055410576264 7.950502908622 11.243709041059
4720 1 2.400000000000 104.127130383969 11.224239400407 10.582314391585
4721 2 -1.200000000000 104.127130383969 8.885856191989 10.251617066848
4722 2 -1.200000000000 104.127130383969 7.015149625254 12.235801015270
4723 2 -1.200000000000 102.198850191673 10.288886117040 11.574406365796
4724 2 -1.200000000000 102.198850191673 8.418179550305 13.558590314219
4725 2 -1.200000000000 106.055410576264 10.288886117040 11.574406365796
4726 2 -1.200000000000 106.055410576264 8.418179550305 13.558590314219
4727 2 -1.200000000000 104.127130383969 11.691916042091 12.897195664745
4728 2 -1.200000000000 104.127130383969 9.821209475356 14.881379613167
4729 1 2.400000000000 104.127130383969 4.676766416836 11.905103690533
4730 1 2.400000000000 102.198850191673 4.209089775153 15.212076937904
4731 1 2.400000000000 106.055410576264 4.209089775153 15.212076937904
4732 1 2.400000000000 104.127130383969 7.482826266938 14.550682288430
4733 2 -1.200000000000 104.127130383969 5.144443058520 14.219984963693
4734 2 -1.200000000000 104.127130383969 3.273736491785 16.204168912115
4735 2 -1.200000000000 102.198850191673 6.547472983571 15.542774262641
4736 2 -1.200000000000 102.198850191673 4.676766416836 17.526958211063
4737 2 -1.200000000000 106.055410576264 6.547472983571 15.542774262641
4738 2 -1.200000000000 106.055410576264 4.676766416836 17.526958211063
4739 2 -1.200000000000 104.127130383969 7.950502908622 16.865563561589
4740 2 -1.200000000000 104.127130383969 6.079796341887 18.849747510011
4741 1 2.400000000000 104.127130383969 0.935353283367 15.873471587378
4742 1 2.400000000000 102.198850191673 0.467676641684 19.180444834748
4743 1 2.400000000000 106.055410576264 0.467676641684 19.180444834748
4744 1 2.400000000000 104.127130383969 3.741413133469 18.519050185274
4745 2 -1.200000000000 104.127130383969 1.403029925051 18.188352860537
4746 2 -1.200000000000 104.127130383969 31.334334992803 20.172536808959
4747 2 -1.200000000000 102.198850191673 2.806059850102 19.511142159485
4748 2 -1.200000000000 102.198850191673 0.935353283367 21.495326107908
4749 2 -1.200000000000 106.055410576264 2.806059850102 19.511142159485
4750 2 -1.200000000000 106.055410576264 0.935353283367 21.495326107908
4751 2 -1.200000000000 104.127130383969 4.209089775153 20.833931458434
4752 2 -1.200000000000 104.127130383969 2.338383208418 0.330697324737
4753 1 2.400000000000 100.270569999377 18.707065667345 2.645578597896
4754 1 2.400000000000 98.342289807081 18.239389025661 5.952551845267
4755 1 2.400000000000 102.198850191673 18.239389025661 5.952551845267
4756 1 2.400000000000 100.270569999377 21.513125517447 5.291157195793
4757 2 -1.200000000000 100.270569999377 19.174742309028 4.960459871056
4758 2 -1.200000000000 100.270569999377 17.304035742294 6.944643819478
4759 2 -1.200000000000 98.342289807081 20.577772234079 6.283249170004
4760 2 -1.200000000000 98.342289807081 18.707065667345 8.267433118426
4761 2 -1.200000000000 102.198850191673 20.577772234079 6.283249170004
4762 2 -1.200000000000 102.198850191673 18.707065667345 8.267433118426
4763 2 -1.200000000000 100.270569999377 21.980802159130 7.606038468952
4764 2 -1.200000000000 100.270569999377 20.110095592396 9.590222417374
4765 1 2.400000000000 100.270569999377 14.965652533876 6.613946494741
4766 1 2.400000000000 98.342289807081 14.497975892192 9.920919742111
4767 1 2.400000000000 102.198850191673 14.497975892192 9.920919742111
4768 1 2.400000000000 100.270569999377 17.771712383978 9.259525092637
4769 2 -1.200000000000 100.270569999377 15.433329175560 8.928827767900
4770 2 -1.200000000000 100.270569999377 13.562622608825 10.913011716322
4771 2 -1.200000000000 98.342289807081 16.836359100610 10.251617066848
4772 2 -1.200000000000 98.342289807081 14.965652533876 12.235801015270
4773 2 -1.200000000000 102.198850191673 16.836359100610 10.251617066848
4774 2 -1.200000000000 102.198850191673 14.965652533876 12.235801015270
4775 2 -1.200000000000 100.270569999377 18.239389025661 11.574406365796
4776 2 -1.200000000000 100.270569999377 16.368682458927 13.558590314219
4777 1 2.400000000000 100.270569999377 11.224239400407 10.582314391585
4778 1 2.400000000000 98.342289807081 10.756562758723 13.889287638956
4779 1 2.400000000000 102.198850191673 10.756562758723 13.889287638956
4780 1 2.400000000000 100.270569999377 14.030299250509 13.227892989482
4781 2 -1.200000000000 100.270569999377 11.691916042091 12.897195664745
4782 2 -1.200000000000 100.270569999377 9.821209475356 14.881379613167
4783 2 -1.200000000000 98.342289807081 13.094945967141 14.219984963693
4784 2 -1.200000000000 98.342289807081 11.224239400407 16.204168912115
4785 2 -1.200000000000 102.198850191673 13.094945967141 14.219984963693
4786 2 -1.200000000000 102.198850191673 11.224239400407 16.204168912115
4787 2 -1.200000000000 100.270569999377 14.497975892192 15.542774262641
4788 2 -1.200000000000 100.270569999377 12.627269325458 17.526958211063
4789 1 2.400000000000 100.270569999377 7.482826266938 14.550682288430
4790 1 2.400000000000 98.342289807081 7.015149625254 17.857655535800
4791 1 2.400000000000 102.198850191673 7.015149625254 17.857655535800
4792 1 2.400000000000 100.270569999377 10.288886117040 17.196260886326
4793 2 -1.200000000000 100.270569999377 7.950502908622 16.865563561589
4794 2 -1.200000000000 100.270569999377 6.079796341887 18.849747510011
4795 2 -1.200000000000 98.342289807081 9.353532833672 18.188352860537
4796 2 -1.200000000000 98.342289807081 7.482826266938 20.172536808959
4797 2 -1.200000000000 102.198850191673 9.353532833672 18.188352860537
4798 2 -1.200000000000 102.198850191673 7.482826266938 20.172536808959
4799 2 -1.200000000000 100.270569999377 10.756562758723 19.511142159485
4800 2 -1.200000000000 100.270569999377 8.885856191989 21.495326107908
4801 1 2.400000000000 100.270569999377 3.741413133469 18.519050185274
4802 1 2.400000000000 98.342289807081 3.273736491785 21.826023432645
4803 1 2.400000000000 102.198850191673 3.273736491785 21.826023432645
4804 1 2.400000000000 100.270569999377 6.547472983571 21.164628783171
4805 2 -1.200000000000 100.270569999377 4.209089775153 20.833931458434
4806 2 -1.200000000000 100.270569999377 2.338383208418 0.330697324737
4807 2 -1.200000000000 98.342289807081 5.612119700203 22.156720757382
4808 2 -1.200000000000 98.342289807081 3.741413133469 1.653486623685
4809 2 -1.200000000000 102.198850191673 5.612119700203 22.156720757382
4810 2 -1.200000000000 102.198850191673 3.741413133469 1.653486623685
4811 2 -1.200000000000 100.270569999377 7.015149625254 0.992091974211
4812 2 -1.200000000000 100.270569999377 5.144443058520 2.976275922633
4813 1 2.400000000000 96.414009614786 25.254538650916 1.322789298948
4814 1 2.400000000000 94.485729422490 24.786862009232 4.629762546319
4815 1 2.400000000000 98.342289807081 24.786862009232 4.629762546319
4816 1 2.400000000000 96.414009614786 28.060598501017 3.968367896844
4817 2 -1.200000000000 96.414009614786 25.722215292599 3.637670572107
4818 2 -1.200000000000 96.414009614786 23.851508725865 5.621854520530
4819 2 -1.200000000000 94.485729422490 27.125245217650 4.960459871056
4820 2 -1.200000000000 94.485729422490 25.254538650916 6.944643819478
4821 2 -1.200000000000 98.342289807081 27.125245217650 4.960459871056
4822 2 -1.200000000000 98.342289807081 25.254538650916 6.944643819478
4823 2 -1.200000000000 96.414009614786 28.528275142701 6.283249170004
4824 2 -1.200000000000 96.414009614786 26.657568575966 8.267433118426
4825 1 2.400000000000 96.414009614786 21.513125517447 5.291157195793
4826 1 2.400000000000 94.485729422490 21.045448875763 8.598130443163
4827 1 2.400000000000 98.342289807081 21.045448875763 8.598130443163
4828 1 2.400000000000 96.414009614786 24.319185367548 7.936735793689
4829 2 -1.200000000000 96.414009614786 21.980802159130 7.606038468952
4830 2 -1.200000000000 96.414009614786 20.110095592396 9.590222417374
4831 2 -1.200000000000 94.485729422490 23.383832084181 8.928827767900
4832 2 -1.200000000000 94.485729422490 21.513125517447 10.913011716322
4833 2 -1.200000000000 98.342289807081 23.383832084181 8.928827767900
4834 2 -1.200000000000 98.342289807081 21.513125517447 10.913011716322
4835 2 -1.200000000000 96.414009614786 24.786862009232 10.251617066848
4836 2 -1.200000000000 96.414009614786 22.916155442497 12.235801015270
4837 1 2.400000000000 96.414009614786 17.771712383978 9.259525092637
4838 1 2.400000000000 94.485729422490 17.304035742294 12.566498340008
4839 1 2.400000000000 98.342289807081 17.304035742294 12.566498340008
4840 1 2.400000000000 96.414009614786 20.577772234079 11.905103690533
4841 2 -1.200000000000 96.414009614786 18.239389025661 11.574406365796
4842 2 -1.200000000000 96.414009614786 16.368682458927 13.558590314219
4843 2 -1.200000000000 94.485729422490 19.642418950712 12.897195664745
4844 2 -1.200000000000 94.485729422490 17.771712383978 14.881379613167
4845 2 -1.200000000000 98.342289807081 19.642418950712 12.897195664745
4846 2 -1.200000000000 98.342289807081 17.771712383978 14.881379613167
4847 2 -1.200000000000 96.414009614786 21.045448875763 14.219984963693
4848 2 -1.200000000000 96.414009614786 19.174742309028 16.204168912115
4849 1 2.400000000000 96.414009614786 14.030299250509 13.227892989482
4850 1 2.400000000000 94.485729422490 13.562622608825 16.534866236852
4851 1 2.400000000000 98.342289807081 13.562622608825 16.534866236852
4852 1 2.400000000000 96.414009614786 16.836359100610 15.873471587378
4853 2 -1.200000000000 96.414009614786 14.497975892192 15.542774262641
4854 2 -1.200000000000 96.414009614786 12.627269325458 17.526958211063
4855 2 -1.200000000000 94.485729422490 15.901005817243 16.865563561589
4856 2 -1.200000000000 94.485729422490 14.030299250509 18.849747510011
4857 2 -1.200000000000 98.342289807081 15.901005817243 16.865563561589
4858 2 -1.200000000000 98.342289807081 14.030299250509 18.849747510011
4859 2 -1.200000000000 96.414009614786 17.304035742294 18.188352860537
4860 2 -1.200000000000 96.414009614786 15.433329175560 20.172536808959
4861 1 2.400000000000 96.414009614786 10.288886117040 17.196260886326
4862 1 2.400000000000 94.485729422490 9.821209475356 20.503234133696
4863 1 2.400000000000 98.342289807081 9.821209475356 20.503234133696
4864 1 2.400000000000 96.414009614786 13.094945967141 19.841839484222
4865 2 -1.200000000000 96.414009614786 10.756562758723 19.511142159485
4866 2 -1.200000000000 96.414009614786 8.885856191989 21.495326107908
4867 2 -1.200000000000 94.485729422490 12.159592683774 20.833931458434
4868 2 -1.200000000000 94.485729422490 10.288886117040 0.330697324737
4869 2 -1.200000000000 98.342289807081 12.159592683774 20.833931458434
4870 2 -1.200000000000 98.342289807081 10.288886117040 0.330697324737
4871 2 -1.200000000000 96.414009614786 13.562622608825 22.156720757382
4872 2 -1.200000000000 96.414009614786 11.691916042091 1.653486623685
4873 1 2.400000000000 96.414009614786 6.547472983571 21.164628783171
4874 1 2.400000000000 94.485729422490 6.079796341887 1.984183948422
4875 1 2.400000000000 98.342289807081 6.079796341887 1.984183948422
4876 1 2.400000000000 96.414009614786 9.353532833672 1.322789298948
4877 2 -1.200000000000 96.414009614786 7.015149625254 0.992091974211
4878 2 -1.200000000000 96.414009614786 5.144443058520 2.976275922633
4879 2 -1.200000000000 94.485729422490 8.418179550305 2.314881273159
4880 2 -1.200000000000 94.485729422490 6.547472983571 4.299065221582
4881 2 -1.200000000000 98.342289807081 8.418179550305 2.314881273159
4882 2 -1.200000000000 98.342289807081 6.547472983571 4.299065221582
4883 2 -1.200000000000 96.414009614786 9.821209475356 3.637670572107
4884 2 -1.200000000000 96.414009614786 7.950502908622 5.621854520530
4885 1 2.400000000000 92.557449230194 28.060598501017 3.968367896844
4886 1 2.400000000000 90.629169037899 27.592921859334 7.275341144215
4887 1 2.400000000000 94.485729422490 27.592921859334 7.275341144215
4888 1 2.400000000000 92.557449230194 30.866658351119 6.613946494741
4889 2 -1.200000000000 92.557449230194 28.528275142701 6.283249170004
4890 2 -1.200000000000 92.557449230194 26.657568575966 8.267433118426
4891 2 -1.200000000000 90.629169037899 29.931305067752 7.606038468952
4892 2 -1.200000000000 90.629169037899 28.060598501017 9.590222417374
4893 2 -1.200000000000 94.485729422490 29.931305067752 7.606038468952
4894 2 -1.200000000000 94.485729422490 28.060598501017 9.590222417374
4895 2 -1.200000000000 92.557449230194 31.334334992803 8.928827767900
4896 2 -1.200000000000 92.557449230194 29.463628426068 10.913011716322
4897 1 2.400000000000 92.557449230194 24.319185367548 7.936735793689
4898 1 2.400000000000 90.629169037899 23.851508725865 11.243709041059
4899 1 2.400000000000 94.485729422490 23.851508725865 11.243709041059
4900 1 2.400000000000 92.557449230194 27.125245217650 10.582314391585
4901 2 -1.200000000000 92.557449230194 24.786862009232 10.251617066848
4902 2 -1.200000000000 92.557449230194 22.916155442497 12.235801015270
4903 2 -1.200000000000 90.629169037899 26.189891934283 11.574406365796
4904 2 -1.200000000000 90.629169037899 24.319185367548 13.558590314219
4905 2 -1.200000000000 94.485729422490 26.189891934283 11.574406365796
4906 2 -1.200000000000 94.485729422490 24.319185367548 13.558590314219
4907 2 -1.200000000000 92.557449230194 27.592921859334 12.897195664745
4908 2 -1.200000000000 92.557449230194 25.722215292599 14.881379613167
4909 1 2.400000000000 92.557449230194 20.577772234079 11.905103690533
4910 1 2.400000000000 90.629169037899 20.110095592396 15.212076937904
4911 1 2.400000000000 94.485729422490 20.110095592396 15.212076937904
4912 1 2.400000000000 92.557449230194 23.383832084181 14.550682288430
4913 2 -1.200000000000 92.557449230194 21.045448875763 14.219984963693
4914 2 -1.200000000000 92.557449230194 19.174742309028 16.204168912115
4915 2 -1.200000000000 90.629169037899 22.448478800814 15.542774262641
4916 2 -1.200000000000 90.629169037899 20.577772234079 17.526958211063
4917 2 -1.200000000000 94.485729422490 22.448478800814 15.542774262641
4918 2 -1.200000000000 94.485729422490 20.577772234079 17.526958211063
4919 2 -1.200000000000 92.557449230194 23.851508725865 16.865563561589
4920 2 -1.200000000000 92.557449230194 21.980802159130 18.849747510011
4921 1 2.400000000000 92.557449230194 16.836359100610 15.873471587378
4922 1 2.400000000000 90.629169037899 16.368682458927 19.180444834748
4923 1 2.400000000000 94.485729422490 16.368682458927 19.180444834748
4924 1 2.400000000000 92.557449230194 19.642418950712 18.519050185274
4925 2 -1.200000000000 92.557449230194 17.304035742294 18.188352860537
4926 2 -1.200000000000 92.557449230194 15.433329175560 20.172536808959
4927 2 -1.200000000000 90.629169037899 18.707065667345 19.511142159485
4928 2 -1.200000000000 90.629169037899 16.836359100610 21.495326107908
4929 2 -1.200000000000 94.485729422490 18.707065667345 19.511142159485
4930 2 -1.200000000000 94.485729422490 16.836359100610 21.495326107908
4931 2 -1.200000000000 92.557449230194 20.110095592396 20.833931458434
4932 2 -1.200000000000 92.557449230194 18.239389025661 0.330697324737
4933 1 2.400000000000 92.557449230194 13.094945967141 19.841839484222
4934 1 2.400000000000 90.629169037899 12.627269325458 0.661394649474
4935 1 2.400000000000 94.485729422490 12.627269325458 0.661394649474
4936 1 2.400000000000 92.557449230194 15.901005817243 0.000000000000
4937 2 -1.200000000000 92.557449230194 13.562622608825 22.156720757382
4938 2 -1.200000000000 92.557449230194 11.691916042091 1.653486623685
4939 2 -1.200000000000 90.629169037899 14.965652533876 0.992091974211
4940 2 -1.200000000000 90.629169037899 13.094945967141 2.976275922633
4941 2 -1.200000000000 94.485729422490 14.965652533876 0.992091974211
4942 2 -1.200000000000 94.485729422490 13.094945967141 2.976275922633
4943 2 -1.200000000000 92.557449230194 16.368682458927 2.314881273159
4944 2 -1.200000000000 92.557449230194 14.497975892192 4.299065221582
4945 1 2.400000000000 88.700888845603 30.866658351119 6.613946494741
4946 1 2.400000000000 86.772608653307 30.398981709435 9.920919742111
4947 1 2.400000000000 90.629169037899 30.398981709435 9.920919742111
4948 1 2.400000000000 88.700888845603 1.870706566734 9.259525092637
4949 2 -1.200000000000 88.700888845603 31.334334992803 8.928827767900
4950 2 -1.200000000000 88.700888845603 29.463628426068 10.913011716322
4951 2 -1.200000000000 86.772608653307 0.935353283367 10.251617066848
4952 2 -1.200000000000 86.772608653307 30.866658351119 12.235801015270
4953 2 -1.200000000000 90.629169037899 0.935353283367 10.251617066848
4954 2 -1.200000000000 90.629169037899 30.866658351119 12.235801015270
4955 2 -1.200000000000 88.700888845603 2.338383208418 11.574406365796
4956 2 -1.200000000000 88.700888845603 0.467676641684 13.558590314219
4957 1 2.400000000000 88.700888845603 27.125245217650 10.582314391585
4958 1 2.400000000000 86.772608653307 26.657568575966 13.889287638956
4959 1 2.400000000000 90.629169037899 26.657568575966 13.889287638956
4960 1 2.400000000000 88.700888845603 29.931305067752 13.227892989482
4961 2 -1.200000000000 88.700888845603 27.592921859334 12.897195664745
4962 2 -1.200000000000 88.700888845603 25.722215292599 14.881379613167
4963 2 -1.200000000000 86.772608653307 28.995951784385 14.219984963693
4964 2 -1.200000000000 86.772608653307 27.125245217650 16.204168912115
4965 2 -1.200000000000 90.629169037899 28.995951784385 14.219984963693
4966 2 -1.200000000000 90.629169037899 27.125245217650 16.204168912115
4967 2 -1.200000000000 88.700888845603 30.398981709435 15.542774262641
4968 2 -1.200000000000 88.700888845603 28.528275142701 17.526958211063
4969 1 2.400000000000 88.700888845603 23.383832084181 14.550682288430
4970 1 2.400000000000 86.772608653307 22.916155442497 17.857655535800
4971 1 2.400000000000 90.629169037899 22.916155442497 17.857655535800
4972 1 2.400000000000 88.700888845603 26.189891934283 17.196260886326
4973 2 -1.200000000000 88.700888845603 23.851508725865 16.865563561589
4974 2 -1.200000000000 88.700888845603 21.980802159130 18.849747510011
4975 2 -1.200000000000 86.772608653307 25.254538650916 18.188352860537
4976 2 -1.200000000000 86.772608653307 23.383832084181 20.172536808959
4977 2 -1.200000000000 90.629169037899 25.254538650916 18.188352860537
4978 2 -1.200000000000 90.629169037899 23.383832084181 20.172536808959
4979 2 -1.200000000000 88.700888845603 26.657568575966 19.511142159485
4980 2 -1.200000000000 88.700888845603 24.786862009232 21.495326107908
4981 1 2.400000000000 88.700888845603 19.642418950712 18.519050185274
4982 1 2.400000000000 86.772608653307 19.174742309028 21.826023432645
4983 1 2.400000000000 90.629169037899 19.174742309028 21.826023432645
4984 1 2.400000000000 88.700888845603 22.448478800814 21.164628783171
4985 2 -1.200000000000 88.700888845603 20.110095592396 20.833931458434
4986 2 -1.200000000000 88.700888845603 18.239389025661 0.330697324737
4987 2 -1.200000000000 86.772608653307 21.513125517447 22.156720757382
4988 2 -1.200000000000 86.772608653307 19.642418950712 1.653486623685
4989 2 -1.200000000000 90.629169037899 21.513125517447 22.156720757382
4990 2 -1.200000000000 90.629169037899 19.642418950712 1.653486623685
4991 2 -1.200000000000 88.700888845603 22.916155442497 0.992091974211
4992 2 -1.200000000000 88.700888845603 21.045448875763 2.976275922633
4993 1 2.400000000000 84.844328461011 29.931305067752 13.227892989482
4994 1 2.400000000000 82.916048268716 29.463628426068 16.534866236852
4995 1 2.400000000000 86.772608653307 29.463628426068 16.534866236852
4996 1 2.400000000000 84.844328461011 0.935353283367 15.873471587378
4997 2 -1.200000000000 84.844328461011 30.398981709435 15.542774262641
4998 2 -1.200000000000 84.844328461011 28.528275142701 17.526958211063
4999 2 -1.200000000000 82.916048268716 0.000000000000 16.865563561589
5000 2 -1.200000000000 82.916048268716 29.931305067752 18.849747510011
5001 2 -1.200000000000 86.772608653307 0.000000000000 16.865563561589
5002 2 -1.200000000000 86.772608653307 29.931305067752 18.849747510011
5003 2 -1.200000000000 84.844328461011 1.403029925051 18.188352860537
5004 2 -1.200000000000 84.844328461011 31.334334992803 20.172536808959
5005 1 2.400000000000 84.844328461011 26.189891934283 17.196260886326
5006 1 2.400000000000 82.916048268716 25.722215292599 20.503234133696
5007 1 2.400000000000 86.772608653307 25.722215292599 20.503234133696
5008 1 2.400000000000 84.844328461011 28.995951784385 19.841839484222
5009 2 -1.200000000000 84.844328461011 26.657568575966 19.511142159485
5010 2 -1.200000000000 84.844328461011 24.786862009232 21.495326107908
5011 2 -1.200000000000 82.916048268716 28.060598501017 20.833931458434
5012 2 -1.200000000000 82.916048268716 26.189891934283 0.330697324737
5013 2 -1.200000000000 86.772608653307 28.060598501017 20.833931458434
5014 2 -1.200000000000 86.772608653307 26.189891934283 0.330697324737
5015 2 -1.200000000000 84.844328461011 29.463628426068 22.156720757382
5016 2 -1.200000000000 84.844328461011 27.592921859334 1.653486623685
5017 1 2.400000000000 84.844328461011 22.448478800814 21.164628783171
5018 1 2.400000000000 82.916048268716 21.980802159130 1.984183948422
5019 1 2.400000000000 86.772608653307 21.980802159130 1.984183948422
5020 1 2.400000000000 84.844328461011 25.254538650916 1.322789298948
5021 2 -1.200000000000 84.844328461011 22.916155442497 0.992091974211
5022 2 -1.200000000000 84.844328461011 21.045448875763 2.976275922633
5023 2 -1.200000000000 82.916048268716 24.319185367548 2.314881273159
5024 2 -1.200000000000 82.916048268716 22.448478800814 4.299065221582
5025 2 -1.200000000000 86.772608653307 24.319185367548 2.314881273159
5026 2 -1.200000000000 86.772608653307 22.448478800814 4.299065221582
5027 2 -1.200000000000 84.844328461011 25.722215292599 3.637670572107
5028 2 -1.200000000000 84.844328461011 23.851508725865 5.621854520530
5029 1 2.400000000000 80.987768076420 28.995951784385 19.841839484222
5030 1 2.400000000000 79.059487884124 28.528275142701 0.661394649474
5031 1 2.400000000000 82.916048268716 28.528275142701 0.661394649474
5032 1 2.400000000000 80.987768076420 0.000000000000 0.000000000000
5033 2 -1.200000000000 80.987768076420 29.463628426068 22.156720757382
5034 2 -1.200000000000 80.987768076420 27.592921859334 1.653486623685
5035 2 -1.200000000000 79.059487884124 30.866658351119 0.992091974211
5036 2 -1.200000000000 79.059487884124 28.995951784385 2.976275922633
5037 2 -1.200000000000 82.916048268716 30.866658351119 0.992091974211
5038 2 -1.200000000000 82.916048268716 28.995951784385 2.976275922633
5039 2 -1.200000000000 80.987768076420 0.467676641684 2.314881273159
5040 2 -1.200000000000 80.987768076420 30.398981709435 4.299065221582
5041 1 2.400000000000 119.553371922334 2.806059850102 2.645578597896
5042 1 2.400000000000 117.625091730039 2.338383208418 5.952551845267
5043 1 2.400000000000 121.481652114630 2.338383208418 5.952551845267
5044 1 2.400000000000 119.553371922334 5.612119700203 5.291157195793
5045 2 -1.200000000000 119.553371922334 3.273736491785 4.960459871056
5046 2 -1.200000000000 119.553371922334 1.403029925051 6.944643819478
5047 2 -1.200000000000 117.625091730039 4.676766416836 6.283249170004
5048 2 -1.200000000000 117.625091730039 2.806059850102 8.267433118426
5049 2 -1.200000000000 121.481652114630 4.676766416836 6.283249170004
5050 2 -1.200000000000 121.481652114630 2.806059850102 8.267433118426
5051 2 -1.200000000000 119.553371922334 6.079796341887 7.606038468952
5052 2 -1.200000000000 119.553371922334 4.209089775153 9.590222417374
5053 1 2.400000000000 115.696811537743 9.353532833672 1.322789298948
5054 1 2.400000000000 113.768531345447 8.885856191989 4.629762546319
5055 1 2.400000000000 117.625091730039 8.885856191989 4.629762546319
5056 1 2.400000000000 115.696811537743 12.159592683774 3.968367896844
5057 2 -1.200000000000 115.696811537743 9.821209475356 3.637670572107
5058 2 -1.200000000000 115.696811537743 7.950502908622 5.621854520530
5059 2 -1.200000000000 113.768531345447 11.224239400407 4.960459871056
5060 2 -1.200000000000 113.768531345447 9.353532833672 6.944643819478
5061 2 -1.200000000000 117.625091730039 11.224239400407 4.960459871056
5062 2 -1.200000000000 117.625091730039 9.353532833672 6.944643819478
5063 2 -1.200000000000 115.696811537743 12.627269325458 6.283249170004
5064 2 -1.200000000000 115.696811537743 10.756562758723 8.267433118426
5065 1 2.400000000000 115.696811537743 5.612119700203 5.291157195793
5066 1 2.400000000000 113.768531345447 5.144443058520 8.598130443163
5067 1 2.400000000000 117.625091730039 5.144443058520 8.598130443163
5068 1 2.400000000000 115.696811537743 8.418179550305 7.936735793689
5069 2 -1.200000000000 115.696811537743 6.079796341887 7.606038468952
5070 2 -1.200000000000 115.696811537743 4.209089775153 9.590222417374
5071 2 -1.200000000000 113.768531345447 7.482826266938 8.928827767900
5072 2 -1.200000000000 113.768531345447 5.612119700203 10.913011716322
5073 2 -1.200000000000 117.625091730039 7.482826266938 8.928827767900
5074 2 -1.200000000000 117.625091730039 5.612119700203 10.913011716322
5075 2 -1.200000000000 115.696811537743 8.885856191989 10.251617066848
5076 2 -1.200000000000 115.696811537743 7.015149625254 12.235801015270
5077 1 2.400000000000 115.696811537743 1.870706566734 9.259525092637
5078 1 2.400000000000 113.768531345447 1.403029925051 12.566498340008
5079 1 2.400000000000 117.625091730039 1.403029925051 12.566498340008
5080 1 2.400000000000 115.696811537743 4.676766416836 11.905103690533
5081 2 -1.200000000000 115.696811537743 2.338383208418 11.574406365796
5082 2 -1.200000000000 115.696811537743 0.467676641684 13.558590314219
5083 2 -1.200000000000 113.768531345447 3.741413133469 12.897195664745
5084 2 -1.200000000000 113.768531345447 1.870706566734 14.881379613167
5085 2 -1.200000000000 117.625091730039 3.741413133469 12.897195664745
5086 2 -1.200000000000 117.625091730039 1.870706566734 14.881379613167
5087 2 -1.200000000000 115.696811537743 5.144443058520 14.219984963693
5088 2 -1.200000000000 115.696811537743 3.273736491785 16.204168912115
5089 1 2.400000000000 111.840251153151 15.901005817243 0.000000000000
5090 1 2.400000000000 109.911970960856 15.433329175560 3.306973247370
5091 1 2.400000000000 113.768531345447 15.433329175560 3.306973247370
5092 1 2.400000000000 111.840251153151 18.707065667345 2.645578597896
5093 2 -1.200000000000 111.840251153151 16.368682458927 2.314881273159
5094 2 -1.200000000000 111.840251153151 14.497975892192 4.299065221582
5095 2 -1.200000000000 109.911970960856 17.771712383978 3.637670572107
5096 2 -1.200000000000 109.911970960856 15.901005817243 5.621854520530
5097 2 -1.200000000000 113.768531345447 17.771712383978 3.637670572107
5098 2 -1.200000000000 113.768531345447 15.901005817243 5.621854520530
5099 2 -1.200000000000 111.840251153151 19.174742309028 4.960459871056
5100 2 -1.200000000000 111.840251153151 17.304035742294 6.944643819478
5101 1 2.400000000000 111.840251153151 12.159592683774 3.968367896844
5102 1 2.400000000000 109.911970960856 11.691916042091 7.275341144215
5103 1 2.400000000000 113.768531345447 11.691916042091 7.275341144215
5104 1 2.400000000000 111.840251153151 14.965652533876 6.613946494741
5105 2 -1.200000000000 111.840251153151 12.627269325458 6.283249170004
5106 2 -1.200000000000 111.840251153151 10.756562758723 8.267433118426
5107 2 -1.200000000000 109.911970960856 14.030299250509 7.606038468952
5108 2 -1.200000000000 109.911970960856 12.159592683774 9.590222417374
5109 2 -1.200000000000 113.768531345447 14.030299250509 7.606038468952
5110 2 -1.200000000000 113.768531345447 12.159592683774 9.590222417374
5111 2 -1.200000000000 111.840251153151 15.433329175560 8.928827767900
5112 2 -1.200000000000 111.840251153151 13.562622608825 10.913011716322
5113 1 2.400000000000 111.840251153151 8.418179550305 7.936735793689
5114 1 2.400000000000 109.911970960856 7.950502908622 11.243709041059
5115 1 2.400000000000 113.768531345447 7.950502908622 11.243709041059
5116 1 2.400000000000 111.840251153151 11.224239400407 10.582314391585
5117 2 -1.200000000000 111.840251153151 8.885856191989 10.251617066848
5118 2 -1.200000000000 111.840251153151 7.015149625254 12.235801015270
5119 2 -1.200000000000 109.911970960856 10.288886117040 11.574406365796
5120 2 -1.200000000000 109.911970960856 8.418179550305 13.558590314219
5121 2 -1.200000000000 113.768531345447 10.288886117040 11.574406365796
5122 2 -1.200000000000 113.768531345447 8.418179550305 13.558590314219
5123 2 -1.200000000000 111.840251153151 11.691916042091 12.897195664745
5124 2 -1.200000000000 111.840251153151 9.821209475356 14.881379613167
5125 1 2.400000000000 111.840251153151 4.676766416836 11.905103690533
5126 1 2.400000000000 109.911970960856 4.209089775153 15.212076937904
5127 1 2.400000000000 113.768531345447 4.209089775153 15.212076937904
5128 1 2.400000000000 111.840251153151 7.482826266938 14.550682288430
5129 2 -1.200000000000 111.840251153151 5.144443058520 14.219984963693
5130 2 -1.200000000000 111.840251153151 3.273736491785 16.204168912115
5131 2 -1.200000000000 109.911970960856 6.547472983571 15.542774262641
5132 2 -1.200000000000 109.911970960856 4.676766416836 17.526958211063
5133 2 -1.200000000000 113.768531345447 6.547472983571 15.542774262641
5134 2 -1.200000000000 113.768531345447 4.676766416836 17.526958211063
5135 2 -1.200000000000 111.840251153151 7.950502908622 16.865563561589
5136 2 -1.200000000000 111.840251153151 6.079796341887 18.849747510011
5137 1 2.400000000000 111.840251153151 0.935353283367 15.873471587378
5138 1 2.400000000000 109.911970960856 0.467676641684 19.180444834748
5139 1 2.400000000000 113.768531345447 0.467676641684 19.180444834748
5140 1 2.400000000000 111.840251153151 3.741413133469 18.519050185274
5141 2 -1.200000000000 111.840251153151 1.403029925051 18.188352860537
5142 2 -1.200000000000 111.840251153151 31.334334992803 20.172536808959
5143 2 -1.200000000000 109.911970960856 2.806059850102 19.511142159485
5144 2 -1.200000000000 109.911970960856 0.935353283367 21.495326107908
5145 2 -1.200000000000 113.768531345447 2.806059850102 19.511142159485
5146 2 -1.200000000000 113.768531345447 0.935353283367 21.495326107908
5147 2 -1.200000000000 111.840251153151 4.209089775153 20.833931458434
5148 2 -1.200000000000 111.840251153151 2.338383208418 0.330697324737
5149 1 2.400000000000 107.983690768560 18.707065667345 2.645578597896
5150 1 2.400000000000 106.055410576264 18.239389025661 5.952551845267
5151 1 2.400000000000 109.911970960856 18.239389025661 5.952551845267
5152 1 2.400000000000 107.983690768560 21.513125517447 5.291157195793
5153 2 -1.200000000000 107.983690768560 19.174742309028 4.960459871056
5154 2 -1.200000000000 107.983690768560 17.304035742294 6.944643819478
5155 2 -1.200000000000 106.055410576264 20.577772234079 6.283249170004
5156 2 -1.200000000000 106.055410576264 18.707065667345 8.267433118426
5157 2 -1.200000000000 109.911970960856 20.577772234079 6.283249170004
5158 2 -1.200000000000 109.911970960856 18.707065667345 8.267433118426
5159 2 -1.200000000000 107.983690768560 21.980802159130 7.606038468952
5160 2 -1.200000000000 107.983690768560 20.110095592396 9.590222417374
5161 1 2.400000000000 107.983690768560 14.965652533876 6.613946494741
5162 1 2.400000000000 106.055410576264 14.497975892192 9.920919742111
5163 1 2.400000000000 109.911970960856 14.497975892192 9.920919742111
5164 1 2.400000000000 107.983690768560 17.771712383978 9.259525092637
5165 2 -1.200000000000 107.983690768560 15.433329175560 8.928827767900
5166 2 -1.200000000000 107.983690768560 13.562622608825 10.913011716322
5167 2 -1.200000000000 106.055410576264 16.836359100610 10.251617066848
5168 2 -1.200000000000 106.055410576264 14.965652533876 12.235801015270
5169 2 -1.200000000000 109.911970960856 16.836359100610 10.251617066848
5170 2 -1.200000000000 109.911970960856 14.965652533876 12.235801015270
5171 2 -1.200000000000 107.983690768560 18.239389025661 11.574406365796
5172 2 -1.200000000000 107.983690768560 16.368682458927 13.558590314219
5173 1 2.400000000000 107.983690768560 11.224239400407 10.582314391585
5174 1 2.400000000000 106.055410576264 10.756562758723 13.889287638956
5175 1 2.400000000000 109.911970960856 10.756562758723 13.889287638956
5176 1 2.400000000000 107.983690768560 14.030299250509 13.227892989482
5177 2 -1.200000000000 107.983690768560 11.691916042091 12.897195664745
5178 2 -1.200000000000 107.983690768560 9.821209475356 14.881379613167
5179 2 -1.200000000000 106.055410576264 13.094945967141 14.219984963693
5180 2 -1.200000000000 106.055410576264 11.224239400407 16.204168912115
5181 2 -1.200000000000 109.911970960856 13.094945967141 14.219984963693
5182 2 -1.200000000000 109.911970960856 11.224239400407 16.204168912115
5183 2 -1.200000000000 107.983690768560 14.497975892192 15.542774262641
5184 2 -1.200000000000 107.983690768560 12.627269325458 17.526958211063
5185 1 2.400000000000 107.983690768560 7.482826266938 14.550682288430
5186 1 2.400000000000 106.055410576264 7.015149625254 17.857655535800
5187 1 2.400000000000 109.911970960856 7.015149625254 17.857655535800
5188 1 2.400000000000 107.983690768560 10.288886117040 17.196260886326
5189 2 -1.200000000000 107.983690768560 7.950502908622 16.865563561589
5190 2 -1.200000000000 107.983690768560 6.079796341887 18.849747510011
5191 2 -1.200000000000 106.055410576264 9.353532833672 18.188352860537
5192 2 -1.200000000000 106.055410576264 7.482826266938 20.172536808959
5193 2 -1.200000000000 109.911970960856 9.353532833672 18.188352860537
5194 2 -1.200000000000 109.911970960856 7.482826266938 20.172536808959
5195 2 -1.200000000000 107.983690768560 10.756562758723 19.511142159485
5196 2 -1.200000000000 107.983690768560 8.885856191989 21.495326107908
5197 1 2.400000000000 107.983690768560 3.741413133469 18.519050185274
5198 1 2.400000000000 106.055410576264 3.273736491785 21.826023432645
5199 1 2.400000000000 109.911970960856 3.273736491785 21.826023432645
5200 1 2.400000000000 107.983690768560 6.547472983571 21.164628783171
5201 2 -1.200000000000 107.983690768560 4.209089775153 20.833931458434
5202 2 -1.200000000000 107.983690768560 2.338383208418 0.330697324737
5203 2 -1.200000000000 106.055410576264 5.612119700203 22.156720757382
5204 2 -1.200000000000 106.055410576264 3.741413133469 1.653486623685
5205 2 -1.200000000000 109.911970960856 5.612119700203 22.156720757382
5206 2 -1.200000000000 109.911970960856 3.741413133469 1.653486623685
5207 2 -1.200000000000 107.983690768560 7.015149625254 0.992091974211
5208 2 -1.200000000000 107.983690768560 5.144443058520 2.976275922633
5209 1 2.400000000000 104.127130383969 25.254538650916 1.322789298948
5210 1 2.400000000000 102.198850191673 24.786862009232 4.629762546319
5211 1 2.400000000000 106.055410576264 24.786862009232 4.629762546319
5212 1 2.400000000000 104.127130383969 28.060598501017 3.968367896844
5213 2 -1.200000000000 104.127130383969 25.722215292599 3.637670572107
5214 2 -1.200000000000 104.127130383969 23.851508725865 5.621854520530
5215 2 -1.200000000000 102.198850191673 27.125245217650 4.960459871056
5216 2 -1.200000000000 102.198850191673 25.254538650916 6.944643819478
5217 2 -1.200000000000 106.055410576264 27.125245217650 4.960459871056
5218 2 -1.200000000000 106.055410576264 25.254538650916 6.944643819478
5219 2 -1.200000000000 104.127130383969 28.528275142701 6.283249170004
5220 2 -1.200000000000 104.127130383969 26.657568575966 8.267433118426
5221 1 2.400000000000 104.127130383969 21.513125517447 5.291157195793
5222 1 2.400000000000 102.198850191673 21.045448875763 8.598130443163
5223 1 2.400000000000 106.055410576264 21.045448875763 8.598130443163
5224 1 2.400000000000 104.127130383969 24.319185367548 7.936735793689
5225 2 -1.200000000000 104.127130383969 21.980802159130 7.606038468952
5226 2 -1.200000000000 104.127130383969 20.110095592396 9.590222417374
5227 2 -1.200000000000 102.198850191673 23.383832084181 8.928827767900
5228 2 -1.200000000000 102.198850191673 21.513125517447 10.913011716322
5229 2 -1.200000000000 106.055410576264 23.383832084181 8.928827767900
5230 2 -1.200000000000 106.055410576264 21.513125517447 10.913011716322
5231 2 -1.200000000000 104.127130383969 24.786862009232 10.251617066848
5232 2 -1.200000000000 104.127130383969 22.916155442497 12.235801015270
5233 1 2.400000000000 104.127130383969 17.771712383978 9.259525092637
5234 1 2.400000000000 102.198850191673 17.304035742294 12.566498340008
5235 1 2.400000000000 106.055410576264 17.304035742294 12.566498340008
5236 1 2.400000000000 104.127130383969 20.577772234079 11.905103690533
5237 2 -1.200000000000 104.127130383969 18.239389025661 11.574406365796
5238 2 -1.200000000000 104.127130383969 16.368682458927 13.558590314219
5239 2 -1.200000000000 102.198850191673 19.642418950712 12.897195664745
5240 2 -1.200000000000 102.198850191673 17.771712383978 14.881379613167
5241 2 -1.200000000000 106.055410576264 19.642418950712 12.897195664745
5242 2 -1.200000000000 106.055410576264 17.771712383978 14.881379613167
5243 2 -1.200000000000 104.127130383969 21.045448875763 14.219984963693
5244 2 -1.200000000000 104.127130383969 19.174742309028 16.204168912115
5245 1 2.400000000000 104.127130383969 14.030299250509 13.227892989482
5246 1 2.400000000000 102.198850191673 13.562622608825 16.534866236852
5247 1 2.400000000000 106.055410576264 13.562622608825 16.534866236852
5248 1 2.400000000000 104.127130383969 16.836359100610 15.873471587378
5249 2 -1.200000000000 104.127130383969 14.497975892192 15.542774262641
5250 2 -1.200000000000 104.127130383969 12.627269325458 17.526958211063
5251 2 -1.200000000000 102.198850191673 15.901005817243 16.865563561589
5252 2 -1.200000000000 102.198850191673 14.030299250509 18.849747510011
5253 2 -1.200000000000 106.055410576264 15.901005817243 16.865563561589
5254 2 -1.200000000000 106.055410576264 14.030299250509 18.849747510011
5255 2 -1.200000000000 104.127130383969 17.304035742294 18.188352860537
5256 2 -1.200000000000 104.127130383969 15.433329175560 20.172536808959
5257 1 2.400000000000 104.127130383969 10.288886117040 17.196260886326
5258 1 2.400000000000 102.198850191673 9.821209475356 20.503234133696
5259 1 2.400000000000 106.055410576264 9.821209475356 20.503234133696
5260 1 2.400000000000 104.127130383969 13.094945967141 19.841839484222
5261 2 -1.200000000000 104.127130383969 10.756562758723 19.511142159485
5262 2 -1.200000000000 104.127130383969 8.885856191989 21.495326107908
5263 2 -1.200000000000 102.198850191673 12.159592683774 20.833931458434
5264 2 -1.200000000000 102.198850191673 10.288886117040 0.330697324737
5265 2 -1.200000000000 106.055410576264 12.159592683774 20.833931458434
5266 2 -1.200000000000 106.055410576264 10.288886117040 0.330697324737
5267 2 -1.200000000000 104.127130383969 13.562622608825 22.156720757382
5268 2 -1.200000000000 104.127130383969 11.691916042091 1.653486623685
5269 1 2.400000000000 104.127130383969 6.547472983571 21.164628783171
5270 1 2.400000000000 102.198850191673 6.079796341887 1.984183948422
5271 1 2.400000000000 106.055410576264 6.079796341887 1.984183948422
5272 1 2.400000000000 104.127130383969 9.353532833672 1.322789298948
5273 2 -1.200000000000 104.127130383969 7.015149625254 0.992091974211
5274 2 -1.200000000000 104.127130383969 5.144443058520 2.976275922633
5275 2 -1.200000000000 102.198850191673 8.418179550305 2.314881273159
5276 2 -1.200000000000 102.198850191673 6.547472983571 4.299065221582
5277 2 -1.200000000000 106.055410576264 8.418179550305 2.314881273159
5278 2 -1.200000000000 106.055410576264 6.547472983571 4.299065221582
5279 2 -1.200000000000 104.127130383969 9.821209475356 3.637670572107
5280 2 -1.200000000000 104.127130383969 7.950502908622 5.621854520530
5281 1 2.400000000000 100.270569999377 28.060598501017 3.968367896844
5282 1 2.400000000000 98.342289807081 27.592921859334 7.275341144215
5283 1 2.400000000000 102.198850191673 27.592921859334 7.275341144215
5284 1 2.400000000000 100.270569999377 30.866658351119 6.613946494741
5285 2 -1.200000000000 100.270569999377 28.528275142701 6.283249170004
5286 2 -1.200000000000 100.270569999377 26.657568575966 8.267433118426
5287 2 -1.200000000000 98.342289807081 29.931305067752 7.606038468952
5288 2 -1.200000000000 98.342289807081 28.060598501017 9.590222417374
5289 2 -1.200000000000 102.198850191673 29.931305067752 7.606038468952
5290 2 -1.200000000000 102.198850191673 28.060598501017 9.590222417374
5291 2 -1.200000000000 100.270569999377 31.334334992803 8.928827767900
5292 2 -1.200000000000 100.270569999377 29.463628426068 10.913011716322
5293 1 2.400000000000 100.270569999377 24.319185367548 7.936735793689
5294 1 2.400000000000 98.342289807081 23.851508725865 11.243709041059
5295 1 2.400000000000 102.198850191673 23.851508725865 11.243709041059
5296 1 2.400000000000 100.270569999377 27.125245217650 10.582314391585
5297 2 -1.200000000000 100.270569999377 24.786862009232 10.251617066848
5298 2 -1.200000000000 100.270569999377 22.916155442497 12.235801015270
5299 2 -1.200000000000 98.342289807081 26.189891934283 11.574406365796
5300 2 -1.200000000000 98.342289807081 24.319185367548 13.558590314219
5301 2 -1.200000000000 102.198850191673 26.189891934283 11.574406365796
5302 2 -1.200000000000 102.198850191673 24.319185367548 13.558590314219
5303 2 -1.200000000000 100.270569999377 27.592921859334 12.897195664745
5304 2 -1.200000000000 100.270569999377 25.722215292599 14.881379613167
5305 1 2.400000000000 100.270569999377 20.577772234079 11.905103690533
5306 1 2.400000000000 98.342289807081 20.110095592396 15.212076937904
5307 1 2.400000000000 102.198850191673 20.110095592396 15.212076937904
5308 1 2.400000000000 100.270569999377 23.383832084181 14.550682288430
5309 2 -1.200000000000 100.270569999377 21.045448875763 14.219984963693
5310 2 -1.200000000000 100.270569999377 19.174742309028 16.204168912115
5311 2 -1.200000000000 98.342289807081 22.448478800814 15.542774262641
5312 2 -1.200000000000 98.342289807081 20.577772234079 17.526958211063
5313 2 -1.200000000000 102.198850191673 22.448478800814 15.542774262641
5314 2 -1.200000000000 102.198850191673 20.577772234079 17.526958211063
5315 2 -1.200000000000 100.270569999377 23.851508725865 16.865563561589
5316 2 -1.200000000000 100.270569999377 21.980802159130 18.849747510011
5317 1 2.400000000000 100.270569999377 16.836359100610 15.873471587378
5318 1 2.400000000000 98.342289807081 16.368682458927 19.180444834748
5319 1 2.400000000000 102.198850191673 16.368682458927 19.180444834748
5320 1 2.400000000000 100.270569999377 19.642418950712 18.519050185274
5321 2 -1.200000000000 100.270569999377 17.304035742294 18.188352860537
5322 2 -1.200000000000 100.270569999377 15.433329175560 20.172536808959
5323 2 -1.200000000000 98.342289807081 18.707065667345 19.511142159485
5324 2 -1.200000000000 98.342289807081 16.836359100610 21.495326107908
5325 2 -1.200000000000 102.198850191673 18.707065667345 19.511142159485
5326 2 -1.200000000000 102.198850191673 16.836359100610 21.495326107908
5327 2 -1.200000000000 100.270569999377 20.110095592396 20.833931458434
5328 2 -1.200000000000 100.270569999377 18.239389025661 0.330697324737
5329 1 2.400000000000 100.270569999377 13.094945967141 19.841839484222
5330 1 2.400000000000 98.342289807081 12.627269325458 0.661394649474
5331 1 2.400000000000 102.198850191673 12.627269325458 0.661394649474
5332 1 2.400000000000 100.270569999377 15.901005817243 0.000000000000
5333 2 -1.200000000000 100.270569999377 13.562622608825 22.156720757382
5334 2 -1.200000000000 100.270569999377 11.691916042091 1.653486623685
5335 2 -1.200000000000 98.342289807081 14.965652533876 0.992091974211
5336 2 -1.200000000000 98.342289807081 13.094945967141 2.976275922633
5337 2 -1.200000000000 102.198850191673 14.965652533876 0.992091974211
5338 2 -1.200000000000 102.198850191673 13.094945967141 2.976275922633
5339 2 -1.200000000000 100.270569999377 16.368682458927 2.314881273159
5340 2 -1.200000000000 100.270569999377 14.497975892192 4.299065221582
5341 1 2.400000000000 96.414009614786 30.866658351119 6.613946494741
5342 1 2.400000000000 94.485729422490 30.398981709435 9.920919742111
5343 1 2.400000000000 98.342289807081 30.398981709435 9.920919742111
5344 1 2.400000000000 96.414009614786 1.870706566734 9.259525092637
5345 2 -1.200000000000 96.414009614786 31.334334992803 8.928827767900
5346 2 -1.200000000000 96.414009614786 29.463628426068 10.913011716322
5347 2 -1.200000000000 94.485729422490 0.935353283367 10.251617066848
5348 2 -1.200000000000 94.485729422490 30.866658351119 12.235801015270
5349 2 -1.200000000000 98.342289807081 0.935353283367 10.251617066848
5350 2 -1.200000000000 98.342289807081 30.866658351119 12.235801015270
5351 2 -1.200000000000 96.414009614786 2.338383208418 11.574406365796
5352 2 -1.200000000000 96.414009614786 0.467676641684 13.558590314219
5353 1 2.400000000000 96.414009614786 27.125245217650 10.582314391585
5354 1 2.400000000000 94.485729422490 26.657568575966 13.889287638956
5355 1 2.400000000000 98.342289807081 26.657568575966 13.889287638956
5356 1 2.400000000000 96.414009614786 29.931305067752 13.227892989482
5357 2 -1.200000000000 96.414009614786 27.592921859334 12.897195664745
5358 2 -1.200000000000 96.414009614786 25.722215292599 14.881379613167
5359 2 -1.200000000000 94.485729422490 28.995951784385 14.219984963693
5360 2 -1.200000000000 94.485729422490 27.125245217650 16.204168912115
5361 2 -1.200000000000 98.342289807081 28.995951784385 14.219984963693
5362 2 -1.200000000000 98.342289807081 27.125245217650 16.204168912115
5363 2 -1.200000000000 96.414009614786 30.398981709435 15.542774262641
5364 2 -1.200000000000 96.414009614786 28.528275142701 17.526958211063
5365 1 2.400000000000 96.414009614786 23.383832084181 14.550682288430
5366 1 2.400000000000 94.485729422490 22.916155442497 17.857655535800
5367 1 2.400000000000 98.342289807081 22.916155442497 17.857655535800
5368 1 2.400000000000 96.414009614786 26.189891934283 17.196260886326
5369 2 -1.200000000000 96.414009614786 23.851508725865 16.865563561589
5370 2 -1.200000000000 96.414009614786 21.980802159130 18.849747510011
5371 2 -1.200000000000 94.485729422490 25.254538650916 18.188352860537
5372 2 -1.200000000000 94.485729422490 23.383832084181 20.172536808959
5373 2 -1.200000000000 98.342289807081 25.254538650916 18.188352860537
5374 2 -1.200000000000 98.342289807081 23.383832084181 20.172536808959
5375 2 -1.200000000000 96.414009614786 26.657568575966 19.511142159485
5376 2 -1.200000000000 96.414009614786 24.786862009232 21.495326107908
5377 1 2.400000000000 96.414009614786 19.642418950712 18.519050185274
5378 1 2.400000000000 94.485729422490 19.174742309028 21.826023432645
5379 1 2.400000000000 98.342289807081 19.174742309028 21.826023432645
5380 1 2.400000000000 96.414009614786 22.448478800814 21.164628783171
5381 2 -1.200000000000 96.414009614786 20.110095592396 20.833931458434
5382 2 -1.200000000000 96.414009614786 18.239389025661 0.330697324737
5383 2 -1.200000000000 94.485729422490 21.513125517447 22.156720757382
5384 2 -1.200000000000 94.485729422490 19.642418950712 1.653486623685
5385 2 -1.200000000000 98.342289807081 21.513125517447 22.156720757382
5386 2 -1.200000000000 98.342289807081 19.642418950712 1.653486623685
5387 2 -1.200000000000 96.414009614786 22.916155442497 0.992091974211
5388 2 -1.200000000000 96.414009614786 21.045448875763 2.976275922633
5389 1 2.400000000000 92.557449230194 29.931305067752 13.227892989482
5390 1 2.400000000000 90.629169037899 29.463628426068 16.534866236852
5391 1 2.400000000000 94.485729422490 29.463628426068 16.534866236852
5392 1 2.400000000000 92.557449230194 0.935353283367 15.873471587378
5393 2 -1.200000000000 92.557449230194 30.398981709435 15.542774262641
5394 2 -1.200000000000 92.557449230194 28.528275142701 17.526958211063
5395 2 -1.200000000000 90.629169037899 0.000000000000 16.865563561589
5396 2 -1.200000000000 90.629169037899 29.931305067752 18.849747510011
5397 2 -1.200000000000 94.485729422490 0.000000000000 16.865563561589
5398 2 -1.200000000000 94.485729422490 29.931305067752 18.849747510011
5399 2 -1.200000000000 92.557449230194 1.403029925051 18.188352860537
5400 2 -1.200000000000 92.557449230194 31.334334992803 20.172536808959
5401 1 2.400000000000 92.557449230194 26.189891934283 17.196260886326
5402 1 2.400000000000 90.629169037899 25.722215292599 20.503234133696
5403 1 2.400000000000 94.485729422490 25.722215292599 20.503234133696
5404 1 2.400000000000 92.557449230194 28.995951784385 19.841839484222
5405 2 -1.200000000000 92.557449230194 26.657568575966 19.511142159485
5406 2 -1.200000000000 92.557449230194 24.786862009232 21.495326107908
5407 2 -1.200000000000 90.629169037899 28.060598501017 20.833931458434
5408 2 -1.200000000000 90.629169037899 26.189891934283 0.330697324737
5409 2 -1.200000000000 94.485729422490 28.060598501017 20.833931458434
5410 2 -1.200000000000 94.485729422490 26.189891934283 0.330697324737
5411 2 -1.200000000000 92.557449230194 29.463628426068 22.156720757382
5412 2 -1.200000000000 92.557449230194 27.592921859334 1.653486623685
5413 1 2.400000000000 92.557449230194 22.448478800814 21.164628783171
5414 1 2.400000000000 90.629169037899 21.980802159130 1.984183948422
5415 1 2.400000000000 94.485729422490 21.980802159130 1.984183948422
5416 1 2.400000000000 92.557449230194 25.254538650916 1.322789298948
5417 2 -1.200000000000 92.557449230194 22.916155442497 0.992091974211
5418 2 -1.200000000000 92.557449230194 21.045448875763 2.976275922633
5419 2 -1.200000000000 90.629169037899 24.319185367548 2.314881273159
5420 2 -1.200000000000 90.629169037899 22.448478800814 4.299065221582
5421 2 -1.200000000000 94.485729422490 24.319185367548 2.314881273159
5422 2 -1.200000000000 94.485729422490 22.448478800814 4.299065221582
5423 2 -1.200000000000 92.557449230194 25.722215292599 3.637670572107
5424 2 -1.200000000000 92.557449230194 23.851508725865 5.621854520530
5425 1 2.400000000000 88.700888845603 28.995951784385 19.841839484222
5426 1 2.400000000000 86.772608653307 28.528275142701 0.661394649474
5427 1 2.400000000000 90.629169037899 28.528275142701 0.661394649474
5428 1 2.400000000000 88.700888845603 0.000000000000 0.000000000000
5429 2 -1.200000000000 88.700888845603 29.463628426068 22.156720757382
5430 2 -1.200000000000 88.700888845603 27.592921859334 1.653486623685
5431 2 -1.200000000000 86.772608653307 30.866658351119 0.992091974211
5432 2 -1.200000000000 86.772608653307 28.995951784385 2.976275922633
5433 2 -1.200000000000 90.629169037899 30.866658351119 0.992091974211
5434 2 -1.200000000000 90.629169037899 28.995951784385 2.976275922633
5435 2 -1.200000000000 88.700888845603 0.467676641684 2.314881273159
5436 2 -1.200000000000 88.700888845603 30.398981709435 4.299065221582
5437 1 2.400000000000 119.553371922334 15.901005817243 0.000000000000
5438 1 2.400000000000 117.625091730039 15.433329175560 3.306973247370
5439 1 2.400000000000 121.481652114630 15.433329175560 3.306973247370
5440 1 2.400000000000 119.553371922334 18.707065667345 2.645578597896
5441 2 -1.200000000000 119.553371922334 16.368682458927 2.314881273159
5442 2 -1.200000000000 119.553371922334 14.497975892192 4.299065221582
5443 2 -1.200000000000 117.625091730039 17.771712383978 3.637670572107
5444 2 -1.200000000000 117.625091730039 15.901005817243 5.621854520530
5445 2 -1.200000000000 121.481652114630 17.771712383978 3.637670572107
5446 2 -1.200000000000 121.481652114630 15.901005817243 5.621854520530
5447 2 -1.200000000000 119.553371922334 19.174742309028 4.960459871056
5448 2 -1.200000000000 119.553371922334 17.304035742294 6.944643819478
5449 1 2.400000000000 119.553371922334 12.159592683774 3.968367896844
5450 1 2.400000000000 117.625091730039 11.691916042091 7.275341144215
5451 1 2.400000000000 121.481652114630 11.691916042091 7.275341144215
5452 1 2.400000000000 119.553371922334 14.965652533876 6.613946494741
5453 2 -1.200000000000 119.553371922334 12.627269325458 6.283249170004
5454 2 -1.200000000000 119.553371922334 10.756562758723 8.267433118426
5455 2 -1.200000000000 117.625091730039 14.030299250509 7.606038468952
5456 2 -1.200000000000 117.625091730039 12.159592683774 9.590222417374
5457 2 -1.200000000000 121.481652114630 14.030299250509 7.606038468952
5458 2 -1.200000000000 121.481652114630 12.159592683774 9.590222417374
5459 2 -1.200000000000 119.553371922334 15.433329175560 8.928827767900
5460 2 -1.200000000000 119.553371922334 13.562622608825 10.913011716322
5461 1 2.400000000000 119.553371922334 8.418179550305 7.936735793689
5462 1 2.400000000000 117.625091730039 7.950502908622 11.243709041059
5463 1 2.400000000000 121.481652114630 7.950502908622 11.243709041059
5464 1 2.400000000000 119.553371922334 11.224239400407 10.582314391585
5465 2 -1.200000000000 119.553371922334 8.885856191989 10.251617066848
5466 2 -1.200000000000 119.553371922334 7.015149625254 12.235801015270
5467 2 -1.200000000000 117.625091730039 10.288886117040 11.574406365796
5468 2 -1.200000000000 117.625091730039 8.418179550305 13.558590314219
5469 2 -1.200000000000 121.481652114630 10.288886117040 11.574406365796
5470 2 -1.200000000000 121.481652114630 8.418179550305 13.558590314219
5471 2 -1.200000000000 119.553371922334 11.691916042091 12.897195664745
5472 2 -1.200000000000 119.553371922334 9.821209475356 14.881379613167
5473 1 2.400000000000 119.553371922334 4.676766416836 11.905103690533
5474 1 2.400000000000 117.625091730039 4.209089775153 15.212076937904
5475 1 2.400000000000 121.481652114630 4.209089775153 15.212076937904
5476 1 2.400000000000 119.553371922334 7.482826266938 14.550682288430
5477 2 -1.200000000000 119.553371922334 5.144443058520 14.219984963693
5478 2 -1.200000000000 119.553371922334 3.273736491785 16.204168912115
5479 2 -1.200000000000 117.625091730039 6.547472983571 15.542774262641
5480 2 -1.200000000000 117.625091730039 4.676766416836 17.526958211063
5481 2 -1.200000000000 121.481652114630 6.547472983571 15.542774262641
5482 2 -1.200000000000 121.481652114630 4.676766416836 17.526958211063
5483 2 -1.200000000000 119.553371922334 7.950502908622 16.865563561589
5484 2 -1.200000000000 119.553371922334 6.079796341887 18.849747510011
5485 1 2.400000000000 119.553371922334 0.935353283367 15.873471587378
5486 1 2.400000000000 117.625091730039 0.467676641684 19.180444834748
5487 1 2.400000000000 121.481652114630 0.467676641684 19.180444834748
5488 1 2.400000000000 119.553371922334 3.741413133469 18.519050185274
5489 2 -1.200000000000 119.553371922334 1.403029925051 18.188352860537
5490 2 -1.200000000000 119.553371922334 31.334334992803 20.172536808959
5491 2 -1.200000000000 117.625091730039 2.806059850102 19.511142159485
5492 2 -1.200000000000 117.625091730039 0.935353283367 21.495326107908
5493 2 -1.200000000000 121.481652114630 2.806059850102 19.511142159485
5494 2 -1.200000000000 121.481652114630 0.935353283367 21.495326107908
5495 2 -1.200000000000 119.553371922334 4.209089775153 20.833931458434
5496 2 -1.200000000000 119.553371922334 2.338383208418 0.330697324737
5497 1 2.400000000000 115.696811537743 18.707065667345 2.645578597896
5498 1 2.400000000000 113.768531345447 18.239389025661 5.952551845267
5499 1 2.400000000000 117.625091730039 18.239389025661 5.952551845267
5500 1 2.400000000000 115.696811537743 21.513125517447 5.291157195793
5501 2 -1.200000000000 115.696811537743 19.174742309028 4.960459871056
5502 2 -1.200000000000 115.696811537743 17.304035742294 6.944643819478
5503 2 -1.200000000000 113.768531345447 20.577772234079 6.283249170004
5504 2 -1.200000000000 113.768531345447 18.707065667345 8.267433118426
5505 2 -1.200000000000 117.625091730039 20.577772234079 6.283249170004
5506 2 -1.200000000000 117.625091730039 18.707065667345 8.267433118426
5507 2 -1.200000000000 115.696811537743 21.980802159130 7.606038468952
5508 2 -1.200000000000 115.696811537743 20.110095592396 9.590222417374
5509 1 2.400000000000 115.696811537743 14.965652533876 6.613946494741
5510 1 2.400000000000 113.768531345447 14.497975892192 9.920919742111
5511 1 2.400000000000 117.625091730039 14.497975892192 9.920919742111
5512 1 2.400000000000 115.696811537743 17.771712383978 9.259525092637
5513 2 -1.200000000000 115.696811537743 15.433329175560 8.928827767900
5514 2 -1.200000000000 115.696811537743 13.562622608825 10.913011716322
5515 2 -1.200000000000 113.768531345447 16.836359100610 10.251617066848
5516 2 -1.200000000000 113.768531345447 14.965652533876 12.235801015270
5517 2 -1.200000000000 117.625091730039 16.836359100610 10.251617066848
5518 2 -1.200000000000 117.625091730039 14.965652533876 12.235801015270
5519 2 -1.200000000000 115.696811537743 18.239389025661 11.574406365796
5520 2 -1.200000000000 115.696811537743 16.368682458927 13.558590314219
5521 1 2.400000000000 115.696811537743 11.224239400407 10.582314391585
5522 1 2.400000000000 113.768531345447 10.756562758723 13.889287638956
5523 1 2.400000000000 117.625091730039 10.756562758723 13.889287638956
5524 1 2.400000000000 115.696811537743 14.030299250509 13.227892989482
5525 2 -1.200000000000 115.696811537743 11.691916042091 12.897195664745
5526 2 -1.200000000000 115.696811537743 9.821209475356 14.881379613167
5527 2 -1.200000000000 113.768531345447 13.094945967141 14.219984963693
5528 2 -1.200000000000 113.768531345447 11.224239400407 16.204168912115
5529 2 -1.200000000000 117.625091730039 13.094945967141 14.219984963693
5530 2 -1.200000000000 117.625091730039 11.224239400407 16.204168912115
5531 2 -1.200000000000 115.696811537743 14.497975892192 15.542774262641
5532 2 -1.200000000000 115.696811537743 12.627269325458 17.526958211063
5533 1 2.400000000000 115.696811537743 7.482826266938 14.550682288430
5534 1 2.400000000000 113.768531345447 7.015149625254 17.857655535800
5535 1 2.400000000000 117.625091730039 7.015149625254 17.857655535800
5536 1 2.400000000000 115.696811537743 10.288886117040 17.196260886326
5537 2 -1.200000000000 115.696811537743 7.950502908622 16.865563561589
5538 2 -1.200000000000 115.696811537743 6.079796341887 18.849747510011
5539 2 -1.200000000000 113.768531345447 9.353532833672 18.188352860537
5540 2 -1.200000000000 113.768531345447 7.482826266938 20.172536808959
5541 2 -1.200000000000 117.625091730039 9.353532833672 18.188352860537
5542 2 -1.200000000000 117.625091730039 7.482826266938 20.172536808959
5543 2 -1.200000000000 115.696811537743 10.756562758723 19.511142159485
5544 2 -1.200000000000 115.696811537743 8.885856191989 21.495326107908
5545 1 2.400000000000 115.696811537743 3.741413133469 18.519050185274
5546 1 2.400000000000 113.768531345447 3.273736491785 21.826023432645
5547 1 2.400000000000 117.625091730039 3.273736491785 21.826023432645
5548 1 2.400000000000 115.696811537743 6.547472983571 21.164628783171
5549 2 -1.200000000000 115.696811537743 4.209089775153 20.833931458434
5550 2 -1.200000000000 115.696811537743 2.338383208418 0.330697324737
5551 2 -1.200000000000 113.768531345447 5.612119700203 22.156720757382
5552 2 -1.200000000000 113.768531345447 3.741413133469 1.653486623685
5553 2 -1.200000000000 117.625091730039 5.612119700203 22.156720757382
5554 2 -1.200000000000 117.625091730039 3.741413133469 1.653486623685
5555 2 -1.200000000000 115.696811537743 7.015149625254 0.992091974211
5556 2 -1.200000000000 115.696811537743 5.144443058520 2.976275922633
5557 1 2.400000000000 111.840251153151 25.254538650916 1.322789298948
5558 1 2.400000000000 109.911970960856 24.786862009232 4.629762546319
5559 1 2.400000000000 113.768531345447 24.786862009232 4.629762546319
5560 1 2.400000000000 111.840251153151 28.060598501017 3.968367896844
5561 2 -1.200000000000 111.840251153151 25.722215292599 3.637670572107
5562 2 -1.200000000000 111.840251153151 23.851508725865 5.621854520530
5563 2 -1.200000000000 109.911970960856 27.125245217650 4.960459871056
5564 2 -1.200000000000 109.911970960856 25.254538650916 6.944643819478
5565 2 -1.200000000000 113.768531345447 27.125245217650 4.960459871056
5566 2 -1.200000000000 113.768531345447 25.254538650916 6.944643819478
5567 2 -1.200000000000 111.840251153151 28.528275142701 6.283249170004
5568 2 -1.200000000000 111.840251153151 26.657568575966 8.267433118426
5569 1 2.400000000000 111.840251153151 21.513125517447 5.291157195793
5570 1 2.400000000000 109.911970960856 21.045448875763 8.598130443163
5571 1 2.400000000000 113.768531345447 21.045448875763 8.598130443163
5572 1 2.400000000000 111.840251153151 24.319185367548 7.936735793689
5573 2 -1.200000000000 111.840251153151 21.980802159130 7.606038468952
5574 2 -1.200000000000 111.840251153151 20.110095592396 9.590222417374
5575 2 -1.200000000000 109.911970960856 23.383832084181 8.928827767900
5576 2 -1.200000000000 109.911970960856 21.513125517447 10.913011716322
5577 2 -1.200000000000 113.768531345447 23.383832084181 8.928827767900
5578 2 -1.200000000000 113.768531345447 21.513125517447 10.913011716322
5579 2 -1.200000000000 111.840251153151 24.786862009232 10.251617066848
5580 2 -1.200000000000 111.840251153151 22.916155442497 12.235801015270
5581 1 2.400000000000 111.840251153151 17.771712383978 9.259525092637
5582 1 2.400000000000 109.911970960856 17.304035742294 12.566498340008
5583 1 2.400000000000 113.768531345447 17.304035742294 12.566498340008
5584 1 2.400000000000 111.840251153151 20.577772234079 11.905103690533
5585 2 -1.200000000000 111.840251153151 18.239389025661 11.574406365796
5586 2 -1.200000000000 111.840251153151 16.368682458927 13.558590314219
5587 2 -1.200000000000 109.911970960856 19.642418950712 12.897195664745
5588 2 -1.200000000000 109.911970960856 17.771712383978 14.881379613167
5589 2 -1.200000000000 113.768531345447 19.642418950712 12.897195664745
5590 2 -1.200000000000 113.768531345447 17.771712383978 14.881379613167
5591 2 -1.200000000000 111.840251153151 21.045448875763 14.219984963693
5592 2 -1.200000000000 111.840251153151 19.174742309028 16.204168912115
5593 1 2.400000000000 111.840251153151 14.030299250509 13.227892989482
5594 1 2.400000000000 109.911970960856 13.562622608825 16.534866236852
5595 1 2.400000000000 113.768531345447 13.562622608825 16.534866236852
5596 1 2.400000000000 111.840251153151 16.836359100610 15.873471587378
5597 2 -1.200000000000 111.840251153151 14.497975892192 15.542774262641
5598 2 -1.200000000000 111.840251153151 12.627269325458 17.526958211063
5599 2 -1.200000000000 109.911970960856 15.901005817243 16.865563561589
5600 2 -1.200000000000 109.911970960856 14.030299250509 18.849747510011
5601 2 -1.200000000000 113.768531345447 15.901005817243 16.865563561589
5602 2 -1.200000000000 113.768531345447 14.030299250509 18.849747510011
5603 2 -1.200000000000 111.840251153151 17.304035742294 18.188352860537
5604 2 -1.200000000000 111.840251153151 15.433329175560 20.172536808959
5605 1 2.400000000000 111.840251153151 10.288886117040 17.196260886326
5606 1 2.400000000000 109.911970960856 9.821209475356 20.503234133696
5607 1 2.400000000000 113.768531345447 9.821209475356 20.503234133696
5608 1 2.400000000000 111.840251153151 13.094945967141 19.841839484222
5609 2 -1.200000000000 111.840251153151 10.756562758723 19.511142159485
5610 2 -1.200000000000 111.840251153151 8.885856191989 21.495326107908
5611 2 -1.200000000000 109.911970960856 12.159592683774 20.833931458434
5612 2 -1.200000000000 109.911970960856 10.288886117040 0.330697324737
5613 2 -1.200000000000 113.768531345447 12.159592683774 20.833931458434
5614 2 -1.200000000000 113.768531345447 10.288886117040 0.330697324737
5615 2 -1.200000000000 111.840251153151 13.562622608825 22.156720757382
5616 2 -1.200000000000 111.840251153151 11.691916042091 1.653486623685
5617 1 2.400000000000 111.840251153151 6.547472983571 21.164628783171
5618 1 2.400000000000 109.911970960856 6.079796341887 1.984183948422
5619 1 2.400000000000 113.768531345447 6.079796341887 1.984183948422
5620 1 2.400000000000 111.840251153151 9.353532833672 1.322789298948
5621 2 -1.200000000000 111.840251153151 7.015149625254 0.992091974211
5622 2 -1.200000000000 111.840251153151 5.144443058520 2.976275922633
5623 2 -1.200000000000 109.911970960856 8.418179550305 2.314881273159
5624 2 -1.200000000000 109.911970960856 6.547472983571 4.299065221582
5625 2 -1.200000000000 113.768531345447 8.418179550305 2.314881273159
5626 2 -1.200000000000 113.768531345447 6.547472983571 4.299065221582
5627 2 -1.200000000000 111.840251153151 9.821209475356 3.637670572107
5628 2 -1.200000000000 111.840251153151 7.950502908622 5.621854520530
5629 1 2.400000000000 107.983690768560 28.060598501017 3.968367896844
5630 1 2.400000000000 106.055410576264 27.592921859334 7.275341144215
5631 1 2.400000000000 109.911970960856 27.592921859334 7.275341144215
5632 1 2.400000000000 107.983690768560 30.866658351119 6.613946494741
5633 2 -1.200000000000 107.983690768560 28.528275142701 6.283249170004
5634 2 -1.200000000000 107.983690768560 26.657568575966 8.267433118426
5635 2 -1.200000000000 106.055410576264 29.931305067752 7.606038468952
5636 2 -1.200000000000 106.055410576264 28.060598501017 9.590222417374
5637 2 -1.200000000000 109.911970960856 29.931305067752 7.606038468952
5638 2 -1.200000000000 109.911970960856 28.060598501017 9.590222417374
5639 2 -1.200000000000 107.983690768560 31.334334992803 8.928827767900
5640 2 -1.200000000000 107.983690768560 29.463628426068 10.913011716322
5641 1 2.400000000000 107.983690768560 24.319185367548 7.936735793689
5642 1 2.400000000000 106.055410576264 23.851508725865 11.243709041059
5643 1 2.400000000000 109.911970960856 23.851508725865 11.243709041059
5644 1 2.400000000000 107.983690768560 27.125245217650 10.582314391585
5645 2 -1.200000000000 107.983690768560 24.786862009232 10.251617066848
5646 2 -1.200000000000 107.983690768560 22.916155442497 12.235801015270
5647 2 -1.200000000000 106.055410576264 26.189891934283 11.574406365796
5648 2 -1.200000000000 106.055410576264 24.319185367548 13.558590314219
5649 2 -1.200000000000 109.911970960856 26.189891934283 11.574406365796
5650 2 -1.200000000000 109.911970960856 24.319185367548 13.558590314219
5651 2 -1.200000000000 107.983690768560 27.592921859334 12.897195664745
5652 2 -1.200000000000 107.983690768560 25.722215292599 14.881379613167
5653 1 2.400000000000 107.983690768560 20.577772234079 11.905103690533
5654 1 2.400000000000 106.055410576264 20.110095592396 15.212076937904
5655 1 2.400000000000 109.911970960856 20.110095592396 15.212076937904
5656 1 2.400000000000 107.983690768560 23.383832084181 14.550682288430
5657 2 -1.200000000000 107.983690768560 21.045448875763 14.219984963693
5658 2 -1.200000000000 107.983690768560 19.174742309028 16.204168912115
5659 2 -1.200000000000 106.055410576264 22.448478800814 15.542774262641
5660 2 -1.200000000000 106.055410576264 20.577772234079 17.526958211063
5661 2 -1.200000000000 109.911970960856 22.448478800814 15.542774262641
5662 2 -1.200000000000 109.911970960856 20.577772234079 17.526958211063
5663 2 -1.200000000000 107.983690768560 23.851508725865 16.865563561589
5664 2 -1.200000000000 107.983690768560 21.980802159130 18.849747510011
5665 1 2.400000000000 107.983690768560 16.836359100610 15.873471587378
5666 1 2.400000000000 106.055410576264 16.368682458927 19.180444834748
5667 1 2.400000000000 109.911970960856 16.368682458927 19.180444834748
5668 1 2.400000000000 107.983690768560 19.642418950712 18.519050185274
5669 2 -1.200000000000 107.983690768560 17.304035742294 18.188352860537
5670 2 -1.200000000000 107.983690768560 15.433329175560 20.172536808959
5671 2 -1.200000000000 106.055410576264 18.707065667345 19.511142159485
5672 2 -1.200000000000 106.055410576264 16.836359100610 21.495326107908
5673 2 -1.200000000000 109.911970960856 18.707065667345 19.511142159485
5674 2 -1.200000000000 109.911970960856 16.836359100610 21.495326107908
5675 2 -1.200000000000 107.983690768560 20.110095592396 20.833931458434
5676 2 -1.200000000000 107.983690768560 18.239389025661 0.330697324737
5677 1 2.400000000000 107.983690768560 13.094945967141 19.841839484222
5678 1 2.400000000000 106.055410576264 12.627269325458 0.661394649474
5679 1 2.400000000000 109.911970960856 12.627269325458 0.661394649474
5680 1 2.400000000000 107.983690768560 15.901005817243 0.000000000000
5681 2 -1.200000000000 107.983690768560 13.562622608825 22.156720757382
5682 2 -1.200000000000 107.983690768560 11.691916042091 1.653486623685
5683 2 -1.200000000000 106.055410576264 14.965652533876 0.992091974211
5684 2 -1.200000000000 106.055410576264 13.094945967141 2.976275922633
5685 2 -1.200000000000 109.911970960856 14.965652533876 0.992091974211
5686 2 -1.200000000000 109.911970960856 13.094945967141 2.976275922633
5687 2 -1.200000000000 107.983690768560 16.368682458927 2.314881273159
5688 2 -1.200000000000 107.983690768560 14.497975892192 4.299065221582
5689 1 2.400000000000 104.127130383969 30.866658351119 6.613946494741
5690 1 2.400000000000 102.198850191673 30.398981709435 9.920919742111
5691 1 2.400000000000 106.055410576264 30.398981709435 9.920919742111
5692 1 2.400000000000 104.127130383969 1.870706566734 9.259525092637
5693 2 -1.200000000000 104.127130383969 31.334334992803 8.928827767900
5694 2 -1.200000000000 104.127130383969 29.463628426068 10.913011716322
5695 2 -1.200000000000 102.198850191673 0.935353283367 10.251617066848
5696 2 -1.200000000000 102.198850191673 30.866658351119 12.235801015270
5697 2 -1.200000000000 106.055410576264 0.935353283367 10.251617066848
5698 2 -1.200000000000 106.055410576264 30.866658351119 12.235801015270
5699 2 -1.200000000000 104.127130383969 2.338383208418 11.574406365796
5700 2 -1.200000000000 104.127130383969 0.467676641684 13.558590314219
5701 1 2.400000000000 104.127130383969 27.125245217650 10.582314391585
5702 1 2.400000000000 102.198850191673 26.657568575966 13.889287638956
5703 1 2.400000000000 106.055410576264 26.657568575966 13.889287638956
5704 1 2.400000000000 104.127130383969 29.931305067752 13.227892989482
5705 2 -1.200000000000 104.127130383969 27.592921859334 12.897195664745
5706 2 -1.200000000000 104.127130383969 25.722215292599 14.881379613167
5707 2 -1.200000000000 102.198850191673 28.995951784385 14.219984963693
5708 2 -1.200000000000 102.198850191673 27.125245217650 16.204168912115
5709 2 -1.200000000000 106.055410576264 28.995951784385 14.219984963693
5710 2 -1.200000000000 106.055410576264 27.125245217650 16.204168912115
5711 2 -1.200000000000 104.127130383969 30.398981709435 15.542774262641
5712 2 -1.200000000000 104.127130383969 28.528275142701 17.526958211063
5713 1 2.400000000000 104.127130383969 23.383832084181 14.550682288430
5714 1 2.400000000000 102.198850191673 22.916155442497 17.857655535800
5715 1 2.400000000000 106.055410576264 22.916155442497 17.857655535800
5716 1 2.400000000000 104.127130383969 26.189891934283 17.196260886326
5717 2 -1.200000000000 104.127130383969 23.851508725865 16.865563561589
5718 2 -1.200000000000 104.127130383969 21.980802159130 18.849747510011
5719 2 -1.200000000000 102.198850191673 25.254538650916 18.188352860537
5720 2 -1.200000000000 102.198850191673 23.383832084181 20.172536808959
5721 2 -1.200000000000 106.055410576264 25.254538650916 18.188352860537
5722 2 -1.200000000000 106.055410576264 23.383832084181 20.172536808959
5723 2 -1.200000000000 104.127130383969 26.657568575966 19.511142159485
5724 2 -1.200000000000 104.127130383969 24.786862009232 21.495326107908
5725 1 2.400000000000 104.127130383969 19.642418950712 18.519050185274
5726 1 2.400000000000 102.198850191673 19.174742309028 21.826023432645
5727 1 2.400000000000 106.055410576264 19.174742309028 21.826023432645
5728 1 2.400000000000 104.127130383969 22.448478800814 21.164628783171
5729 2 -1.200000000000 104.127130383969 20.110095592396 20.833931458434
5730 2 -1.200000000000 104.127130383969 18.239389025661 0.330697324737
5731 2 -1.200000000000 102.198850191673 21.513125517447 22.156720757382
5732 2 -1.200000000000 102.198850191673 19.642418950712 1.653486623685
5733 2 -1.200000000000 106.055410576264 21.513125517447 22.156720757382
5734 2 -1.200000000000 106.055410576264 19.642418950712 1.653486623685
5735 2 -1.200000000000 104.127130383969 22.916155442497 0.992091974211
5736 2 -1.200000000000 104.127130383969 21.045448875763 2.976275922633
5737 1 2.400000000000 100.270569999377 29.931305067752 13.227892989482
5738 1 2.400000000000 98.342289807081 29.463628426068 16.534866236852
5739 1 2.400000000000 102.198850191673 29.463628426068 16.534866236852
5740 1 2.400000000000 100.270569999377 0.935353283367 15.873471587378
5741 2 -1.200000000000 100.270569999377 30.398981709435 15.542774262641
5742 2 -1.200000000000 100.270569999377 28.528275142701 17.526958211063
5743 2 -1.200000000000 98.342289807081 0.000000000000 16.865563561589
5744 2 -1.200000000000 98.342289807081 29.931305067752 18.849747510011
5745 2 -1.200000000000 102.198850191673 0.000000000000 16.865563561589
5746 2 -1.200000000000 102.198850191673 29.931305067752 18.849747510011
5747 2 -1.200000000000 100.270569999377 1.403029925051 18.188352860537
5748 2 -1.200000000000 100.270569999377 31.334334992803 20.172536808959
5749 1 2.400000000000 100.270569999377 26.189891934283 17.196260886326
5750 1 2.400000000000 98.342289807081 25.722215292599 20.503234133696
5751 1 2.400000000000 102.198850191673 25.722215292599 20.503234133696
5752 1 2.400000000000 100.270569999377 28.995951784385 19.841839484222
5753 2 -1.200000000000 100.270569999377 26.657568575966 19.511142159485
5754 2 -1.200000000000 100.270569999377 24.786862009232 21.495326107908
5755 2 -1.200000000000 98.342289807081 28.060598501017 20.833931458434
5756 2 -1.200000000000 98.342289807081 26.189891934283 0.330697324737
5757 2 -1.200000000000 102.198850191673 28.060598501017 20.833931458434
5758 2 -1.200000000000 102.198850191673 26.189891934283 0.330697324737
5759 2 -1.200000000000 100.270569999377 29.463628426068 22.156720757382
5760 2 -1.200000000000 100.270569999377 27.592921859334 1.653486623685
5761 1 2.400000000000 100.270569999377 22.448478800814 21.164628783171
5762 1 2.400000000000 98.342289807081 21.980802159130 1.984183948422
5763 1 2.400000000000 102.198850191673 21.980802159130 1.984183948422
5764 1 2.400000000000 100.270569999377 25.254538650916 1.322789298948
5765 2 -1.200000000000 100.270569999377 22.916155442497 0.992091974211
5766 2 -1.200000000000 100.270569999377 21.045448875763 2.976275922633
5767 2 -1.200000000000 98.342289807081 24.319185367548 2.314881273159
5768 2 -1.200000000000 98.342289807081 22.448478800814 4.299065221582
5769 2 -1.200000000000 102.198850191673 24.319185367548 2.314881273159
5770 2 -1.200000000000 102.198850191673 22.448478800814 4.299065221582
5771 2 -1.200000000000 100.270569999377 25.722215292599 3.637670572107
5772 2 -1.200000000000 100.270569999377 23.851508725865 5.621854520530
5773 1 2.400000000000 96.414009614786 28.995951784385 19.841839484222
5774 1 2.400000000000 94.485729422490 28.528275142701 0.661394649474
5775 1 2.400000000000 98.342289807081 28.528275142701 0.661394649474
5776 1 2.400000000000 96.414009614786 0.000000000000 0.000000000000
5777 2 -1.200000000000 96.414009614786 29.463628426068 22.156720757382
5778 2 -1.200000000000 96.414009614786 27.592921859334 1.653486623685
5779 2 -1.200000000000 94.485729422490 30.866658351119 0.992091974211
5780 2 -1.200000000000 94.485729422490 28.995951784385 2.976275922633
5781 2 -1.200000000000 98.342289807081 30.866658351119 0.992091974211
5782 2 -1.200000000000 98.342289807081 28.995951784385 2.976275922633
5783 2 -1.200000000000 96.414009614786 0.467676641684 2.314881273159
5784 2 -1.200000000000 96.414009614786 30.398981709435 4.299065221582
5785 1 2.400000000000 119.553371922334 25.254538650916 1.322789298948
5786 1 2.400000000000 117.625091730039 24.786862009232 4.629762546319
5787 1 2.400000000000 121.481652114630 24.786862009232 4.629762546319
5788 1 2.400000000000 119.553371922334 28.060598501017 3.968367896844
5789 2 -1.200000000000 119.553371922334 25.722215292599 3.637670572107
5790 2 -1.200000000000 119.553371922334 23.851508725865 5.621854520530
5791 2 -1.200000000000 117.625091730039 27.125245217650 4.960459871056
5792 2 -1.200000000000 117.625091730039 25.254538650916 6.944643819478
5793 2 -1.200000000000 121.481652114630 27.125245217650 4.960459871056
5794 2 -1.200000000000 121.481652114630 25.254538650916 6.944643819478
5795 2 -1.200000000000 119.553371922334 28.528275142701 6.283249170004
5796 2 -1.200000000000 119.553371922334 26.657568575966 8.267433118426
5797 1 2.400000000000 119.553371922334 21.513125517447 5.291157195793
5798 1 2.400000000000 117.625091730039 21.045448875763 8.598130443163
5799 1 2.400000000000 121.481652114630 21.045448875763 8.598130443163
5800 1 2.400000000000 119.553371922334 24.319185367548 7.936735793689
5801 2 -1.200000000000 119.553371922334 21.980802159130 7.606038468952
5802 2 -1.200000000000 119.553371922334 20.110095592396 9.590222417374
5803 2 -1.200000000000 117.625091730039 23.383832084181 8.928827767900
5804 2 -1.200000000000 117.625091730039 21.513125517447 10.913011716322
5805 2 -1.200000000000 121.481652114630 23.383832084181 8.928827767900
5806 2 -1.200000000000 121.481652114630 21.513125517447 10.913011716322
5807 2 -1.200000000000 119.553371922334 24.786862009232 10.251617066848
5808 2 -1.200000000000 119.553371922334 22.916155442497 12.235801015270
5809 1 2.400000000000 119.553371922334 17.771712383978 9.259525092637
5810 1 2.400000000000 117.625091730039 17.304035742294 12.566498340008
5811 1 2.400000000000 121.481652114630 17.304035742294 12.566498340008
5812 1 2.400000000000 119.553371922334 20.577772234079 11.905103690533
5813 2 -1.200000000000 119.553371922334 18.239389025661 11.574406365796
5814 2 -1.200000000000 119.553371922334 16.368682458927 13.558590314219
5815 2 -1.200000000000 117.625091730039 19.642418950712 12.897195664745
5816 2 -1.200000000000 117.625091730039 17.771712383978 14.881379613167
5817 2 -1.200000000000 121.481652114630 19.642418950712 12.897195664745
5818 2 -1.200000000000 121.481652114630 17.771712383978 14.881379613167
5819 2 -1.200000000000 119.553371922334 21.045448875763 14.219984963693
5820 2 -1.200000000000 119.553371922334 19.174742309028 16.204168912115
5821 1 2.400000000000 119.553371922334 14.030299250509 13.227892989482
5822 1 2.400000000000 117.625091730039 13.562622608825 16.534866236852
5823 1 2.400000000000 121.481652114630 13.562622608825 16.534866236852
5824 1 2.400000000000 119.553371922334 16.836359100610 15.873471587378
5825 2 -1.200000000000 119.553371922334 14.497975892192 15.542774262641
5826 2 -1.200000000000 119.553371922334 12.627269325458 17.526958211063
5827 2 -1.200000000000 117.625091730039 15.901005817243 16.865563561589
5828 2 -1.200000000000 117.625091730039 14.030299250509 18.849747510011
5829 2 -1.200000000000 121.481652114630 15.901005817243 16.865563561589
5830 2 -1.200000000000 121.481652114630 14.030299250509 18.849747510011
5831 2 -1.200000000000 119.553371922334 17.304035742294 18.188352860537
5832 2 -1.200000000000 119.553371922334 15.433329175560 20.172536808959
5833 1 2.400000000000 119.553371922334 10.288886117040 17.196260886326
5834 1 2.400000000000 117.625091730039 9.821209475356 20.503234133696
5835 1 2.400000000000 121.481652114630 9.821209475356 20.503234133696
5836 1 2.400000000000 119.553371922334 13.094945967141 19.841839484222
5837 2 -1.200000000000 119.553371922334 10.756562758723 19.511142159485
5838 2 -1.200000000000 119.553371922334 8.885856191989 21.495326107908
5839 2 -1.200000000000 117.625091730039 12.159592683774 20.833931458434
5840 2 -1.200000000000 117.625091730039 10.288886117040 0.330697324737
5841 2 -1.200000000000 121.481652114630 12.159592683774 20.833931458434
5842 2 -1.200000000000 121.481652114630 10.288886117040 0.330697324737
5843 2 -1.200000000000 119.553371922334 13.562622608825 22.156720757382
5844 2 -1.200000000000 119.553371922334 11.691916042091 1.653486623685
5845 1 2.400000000000 119.553371922334 6.547472983571 21.164628783171
5846 1 2.400000000000 117.625091730039 6.079796341887 1.984183948422
5847 1 2.400000000000 121.481652114630 6.079796341887 1.984183948422
5848 1 2.400000000000 119.553371922334 9.353532833672 1.322789298948
5849 2 -1.200000000000 119.553371922334 7.015149625254 0.992091974211
5850 2 -1.200000000000 119.553371922334 5.144443058520 2.976275922633
5851 2 -1.200000000000 117.625091730039 8.418179550305 2.314881273159
5852 2 -1.200000000000 117.625091730039 6.547472983571 4.299065221582
5853 2 -1.200000000000 121.481652114630 8.418179550305 2.314881273159
5854 2 -1.200000000000 121.481652114630 6.547472983571 4.299065221582
5855 2 -1.200000000000 119.553371922334 9.821209475356 3.637670572107
5856 2 -1.200000000000 119.553371922334 7.950502908622 5.621854520530
5857 1 2.400000000000 115.696811537743 28.060598501017 3.968367896844
5858 1 2.400000000000 113.768531345447 27.592921859334 7.275341144215
5859 1 2.400000000000 117.625091730039 27.592921859334 7.275341144215
5860 1 2.400000000000 115.696811537743 30.866658351119 6.613946494741
5861 2 -1.200000000000 115.696811537743 28.528275142701 6.283249170004
5862 2 -1.200000000000 115.696811537743 26.657568575966 8.267433118426
5863 2 -1.200000000000 113.768531345447 29.931305067752 7.606038468952
5864 2 -1.200000000000 113.768531345447 28.060598501017 9.590222417374
5865 2 -1.200000000000 117.625091730039 29.931305067752 7.606038468952
5866 2 -1.200000000000 117.625091730039 28.060598501017 9.590222417374
5867 2 -1.200000000000 115.696811537743 31.334334992803 8.928827767900
5868 2 -1.200000000000 115.696811537743 29.463628426068 10.913011716322
5869 1 2.400000000000 115.696811537743 24.319185367548 7.936735793689
5870 1 2.400000000000 113.768531345447 23.851508725865 11.243709041059
5871 1 2.400000000000 117.625091730039 23.851508725865 11.243709041059
5872 1 2.400000000000 115.696811537743 27.125245217650 10.582314391585
5873 2 -1.200000000000 115.696811537743 24.786862009232 10.251617066848
5874 2 -1.200000000000 115.696811537743 22.916155442497 12.235801015270
5875 2 -1.200000000000 113.768531345447 26.189891934283 11.574406365796
5876 2 -1.200000000000 113.768531345447 24.319185367548 13.558590314219
5877 2 -1.200000000000 117.625091730039 26.189891934283 11.574406365796
5878 2 -1.200000000000 117.625091730039 24.319185367548 13.558590314219
5879 2 -1.200000000000 115.696811537743 27.592921859334 12.897195664745
5880 2 -1.200000000000 115.696811537743 25.722215292599 14.881379613167
5881 1 2.400000000000 115.696811537743 20.577772234079 11.905103690533
5882 1 2.400000000000 113.768531345447 20.110095592396 15.212076937904
5883 1 2.400000000000 117.625091730039 20.110095592396 15.212076937904
5884 1 2.400000000000 115.696811537743 23.383832084181 14.550682288430
5885 2 -1.200000000000 115.696811537743 21.045448875763 14.219984963693
5886 2 -1.200000000000 115.696811537743 19.174742309028 16.204168912115
5887 2 -1.200000000000 113.768531345447 22.448478800814 15.542774262641
5888 2 -1.200000000000 113.768531345447 20.577772234079 17.526958211063
5889 2 -1.200000000000 117.625091730039 22.448478800814 15.542774262641
5890 2 -1.200000000000 117.625091730039 20.577772234079 17.526958211063
5891 2 -1.200000000000 115.696811537743 23.851508725865 16.865563561589
5892 2 -1.200000000000 115.696811537743 21.980802159130 18.849747510011
5893 1 2.400000000000 115.696811537743 16.836359100610 15.873471587378
5894 1 2.400000000000 113.768531345447 16.368682458927 19.180444834748
5895 1 2.400000000000 117.625091730039 16.368682458927 19.180444834748
5896 1 2.400000000000 115.696811537743 19.642418950712 18.519050185274
5897 2 -1.200000000000 115.696811537743 17.304035742294 18.188352860537
5898 2 -1.200000000000 115.696811537743 15.433329175560 20.172536808959
5899 2 -1.200000000000 113.768531345447 18.707065667345 19.511142159485
5900 2 -1.200000000000 113.768531345447 16.836359100610 21.495326107908
5901 2 -1.200000000000 117.625091730039 18.707065667345 19.511142159485
5902 2 -1.200000000000 117.625091730039 16.836359100610 21.495326107908
5903 2 -1.200000000000 115.696811537743 20.110095592396 20.833931458434
5904 2 -1.200000000000 115.696811537743 18.239389025661 0.330697324737
5905 1 2.400000000000 115.696811537743 13.094945967141 19.841839484222
5906 1 2.400000000000 113.768531345447 12.627269325458 0.661394649474
5907 1 2.400000000000 117.625091730039 12.627269325458 0.661394649474
5908 1 2.400000000000 115.696811537743 15.901005817243 0.000000000000
5909 2 -1.200000000000 115.696811537743 13.562622608825 22.156720757382
5910 2 -1.200000000000 115.696811537743 11.691916042091 1.653486623685
5911 2 -1.200000000000 113.768531345447 14.965652533876 0.992091974211
5912 2 -1.200000000000 113.768531345447 13.094945967141 2.976275922633
5913 2 -1.200000000000 117.625091730039 14.965652533876 0.992091974211
5914 2 -1.200000000000 117.625091730039 13.094945967141 2.976275922633
5915 2 -1.200000000000 115.696811537743 16.368682458927 2.314881273159
5916 2 -1.200000000000 115.696811537743 14.497975892192 4.299065221582
5917 1 2.400000000000 111.840251153151 30.866658351119 6.613946494741
5918 1 2.400000000000 109.911970960856 30.398981709435 9.920919742111
5919 1 2.400000000000 113.768531345447 30.398981709435 9.920919742111
5920 1 2.400000000000 111.840251153151 1.870706566734 9.259525092637
5921 2 -1.200000000000 111.840251153151 31.334334992803 8.928827767900
5922 2 -1.200000000000 111.840251153151 29.463628426068 10.913011716322
5923 2 -1.200000000000 109.911970960856 0.935353283367 10.251617066848
5924 2 -1.200000000000 109.911970960856 30.866658351119 12.235801015270
5925 2 -1.200000000000 113.768531345447 0.935353283367 10.251617066848
5926 2 -1.200000000000 113.768531345447 30.866658351119 12.235801015270
5927 2 -1.200000000000 111.840251153151 2.338383208418 11.574406365796
5928 2 -1.200000000000 111.840251153151 0.467676641684 13.558590314219
5929 1 2.400000000000 111.840251153151 27.125245217650 10.582314391585
5930 1 2.400000000000 109.911970960856 26.657568575966 13.889287638956
5931 1 2.400000000000 113.768531345447 26.657568575966 13.889287638956
5932 1 2.400000000000 111.840251153151 29.931305067752 13.227892989482
5933 2 -1.200000000000 111.840251153151 27.592921859334 12.897195664745
5934 2 -1.200000000000 111.840251153151 25.722215292599 14.881379613167
5935 2 -1.200000000000 109.911970960856 28.995951784385 14.219984963693
5936 2 -1.200000000000 109.911970960856 27.125245217650 16.204168912115
5937 2 -1.200000000000 113.768531345447 28.995951784385 14.219984963693
5938 2 -1.200000000000 113.768531345447 27.125245217650 16.204168912115
5939 2 -1.200000000000 111.840251153151 30.398981709435 15.542774262641
5940 2 -1.200000000000 111.840251153151 28.528275142701 17.526958211063
5941 1 2.400000000000 111.840251153151 23.383832084181 14.550682288430
5942 1 2.400000000000 109.911970960856 22.916155442497 17.857655535800
5943 1 2.400000000000 113.768531345447 22.916155442497 17.857655535800
5944 1 2.400000000000 111.840251153151 26.189891934283 17.196260886326
5945 2 -1.200000000000 111.840251153151 23.851508725865 16.865563561589
5946 2 -1.200000000000 111.840251153151 21.980802159130 18.849747510011
5947 2 -1.200000000000 109.911970960856 25.254538650916 18.188352860537
5948 2 -1.200000000000 109.911970960856 23.383832084181 20.172536808959
5949 2 -1.200000000000 113.768531345447 25.254538650916 18.188352860537
5950 2 -1.200000000000 113.768531345447 23.383832084181 20.172536808959
5951 2 -1.200000000000 111.840251153151 26.657568575966 19.511142159485
5952 2 -1.200000000000 111.840251153151 24.786862009232 21.495326107908
5953 1 2.400000000000 111.840251153151 19.642418950712 18.519050185274
5954 1 2.400000000000 109.911970960856 19.174742309028 21.826023432645
5955 1 2.400000000000 113.768531345447 19.174742309028 21.826023432645
5956 1 2.400000000000 111.840251153151 22.448478800814 21.164628783171
5957 2 -1.200000000000 111.840251153151 20.110095592396 20.833931458434
5958 2 -1.200000000000 111.840251153151 18.239389025661 0.330697324737
5959 2 -1.200000000000 109.911970960856 21.513125517447 22.156720757382
5960 2 -1.200000000000 109.911970960856 19.642418950712 1.653486623685
5961 2 -1.200000000000 113.768531345447 21.513125517447 22.156720757382
5962 2 -1.200000000000 113.768531345447 19.642418950712 1.653486623685
5963 2 -1.200000000000 111.840251153151 22.916155442497 0.992091974211
5964 2 -1.200000000000 111.840251153151 21.045448875763 2.976275922633
5965 1 2.400000000000 107.983690768560 29.931305067752 13.227892989482
5966 1 2.400000000000 106.055410576264 29.463628426068 16.534866236852
5967 1 2.400000000000 109.911970960856 29.463628426068 16.534866236852
5968 1 2.400000000000 107.983690768560 0.935353283367 15.873471587378
5969 2 -1.200000000000 107.983690768560 30.398981709435 15.542774262641
5970 2 -1.200000000000 107.983690768560 28.528275142701 17.526958211063
5971 2 -1.200000000000 106.055410576264 0.000000000000 16.865563561589
5972 2 -1.200000000000 106.055410576264 29.931305067752 18.849747510011
5973 2 -1.200000000000 109.911970960856 0.000000000000 16.865563561589
5974 2 -1.200000000000 109.911970960856 29.931305067752 18.849747510011
5975 2 -1.200000000000 107.983690768560 1.403029925051 18.188352860537
5976 2 -1.200000000000 107.983690768560 31.334334992803 20.172536808959
5977 1 2.400000000000 107.983690768560 26.189891934283 17.196260886326
5978 1 2.400000000000 106.055410576264 25.722215292599 20.503234133696
5979 1 2.400000000000 109.911970960856 25.722215292599 20.503234133696
5980 1 2.400000000000 107.983690768560 28.995951784385 19.841839484222
5981 2 -1.200000000000 107.983690768560 26.657568575966 19.511142159485
5982 2 -1.200000000000 107.983690768560 24.786862009232 21.495326107908
5983 2 -1.200000000000 106.055410576264 28.060598501017 20.833931458434
5984 2 -1.200000000000 106.055410576264 26.189891934283 0.330697324737
5985 2 -1.200000000000 109.911970960856 28.060598501017 20.833931458434
5986 2 -1.200000000000 109.911970960856 26.189891934283 0.330697324737
5987 2 -1.200000000000 107.983690768560 29.463628426068 22.156720757382
5988 2 -1.200000000000 107.983690768560 27.592921859334 1.653486623685
5989 1 2.400000000000 107.983690768560 22.448478800814 21.164628783171
5990 1 2.400000000000 106.055410576264 21.980802159130 1.984183948422
5991 1 2.400000000000 109.911970960856 21.980802159130 1.984183948422
5992 1 2.400000000000 107.983690768560 25.254538650916 1.322789298948
5993 2 -1.200000000000 107.983690768560 22.916155442497 0.992091974211
5994 2 -1.200000000000 107.983690768560 21.045448875763 2.976275922633
5995 2 -1.200000000000 106.055410576264 24.319185367548 2.314881273159
5996 2 -1.200000000000 106.055410576264 22.448478800814 4.299065221582
5997 2 -1.200000000000 109.911970960856 24.319185367548 2.314881273159
5998 2 -1.200000000000 109.911970960856 22.448478800814 4.299065221582
5999 2 -1.200000000000 107.983690768560 25.722215292599 3.637670572107
6000 2 -1.200000000000 107.983690768560 23.851508725865 5.621854520530
6001 1 2.400000000000 104.127130383969 28.995951784385 19.841839484222
6002 1 2.400000000000 102.198850191673 28.528275142701 0.661394649474
6003 1 2.400000000000 106.055410576264 28.528275142701 0.661394649474
6004 1 2.400000000000 104.127130383969 0.000000000000 0.000000000000
6005 2 -1.200000000000 104.127130383969 29.463628426068 22.156720757382
6006 2 -1.200000000000 104.127130383969 27.592921859334 1.653486623685
6007 2 -1.200000000000 102.198850191673 30.866658351119 0.992091974211
6008 2 -1.200000000000 102.198850191673 28.995951784385 2.976275922633
6009 2 -1.200000000000 106.055410576264 30.866658351119 0.992091974211
6010 2 -1.200000000000 106.055410576264 28.995951784385 2.976275922633
6011 2 -1.200000000000 104.127130383969 0.467676641684 2.314881273159
6012 2 -1.200000000000 104.127130383969 30.398981709435 4.299065221582
6013 1 2.400000000000 119.553371922334 30.866658351119 6.613946494741
6014 1 2.400000000000 117.625091730039 30.398981709435 9.920919742111
6015 1 2.400000000000 121.481652114630 30.398981709435 9.920919742111
6016 1 2.400000000000 119.553371922334 1.870706566734 9.259525092637
6017 2 -1.200000000000 119.553371922334 31.334334992803 8.928827767900
6018 2 -1.200000000000 119.553371922334 29.463628426068 10.913011716322
6019 2 -1.200000000000 117.625091730039 0.935353283367 10.251617066848
6020 2 -1.200000000000 117.625091730039 30.866658351119 12.235801015270
6021 2 -1.200000000000 121.481652114630 0.935353283367 10.251617066848
6022 2 -1.200000000000 121.481652114630 30.866658351119 12.235801015270
6023 2 -1.200000000000 119.553371922334 2.338383208418 11.574406365796
6024 2 -1.200000000000 119.553371922334 0.467676641684 13.558590314219
6025 1 2.400000000000 119.553371922334 27.125245217650 10.582314391585
6026 1 2.400000000000 117.625091730039 26.657568575966 13.889287638956
6027 1 2.400000000000 121.481652114630 26.657568575966 13.889287638956
6028 1 2.400000000000 119.553371922334 29.931305067752 13.227892989482
6029 2 -1.200000000000 119.553371922334 27.592921859334 12.897195664745
6030 2 -1.200000000000 119.553371922334 25.722215292599 14.881379613167
6031 2 -1.200000000000 117.625091730039 28.995951784385 14.219984963693
6032 2 -1.200000000000 117.625091730039 27.125245217650 16.204168912115
6033 2 -1.200000000000 121.481652114630 28.995951784385 14.219984963693
6034 2 -1.200000000000 121.481652114630 27.125245217650 16.204168912115
6035 2 -1.200000000000 119.553371922334 30.398981709435 15.542774262641
6036 2 -1.200000000000 119.553371922334 28.528275142701 17.526958211063
6037 1 2.400000000000 119.553371922334 23.383832084181 14.550682288430
6038 1 2.400000000000 117.625091730039 22.916155442497 17.857655535800
6039 1 2.400000000000 121.481652114630 22.916155442497 17.857655535800
6040 1 2.400000000000 119.553371922334 26.189891934283 17.196260886326
6041 2 -1.200000000000 119.553371922334 23.851508725865 16.865563561589
6042 2 -1.200000000000 119.553371922334 21.980802159130 18.849747510011
6043 2 -1.200000000000 117.625091730039 25.254538650916 18.188352860537
6044 2 -1.200000000000 117.625091730039 23.383832084181 20.172536808959
6045 2 -1.200000000000 121.481652114630 25.254538650916 18.188352860537
6046 2 -1.200000000000 121.481652114630 23.383832084181 20.172536808959
6047 2 -1.200000000000 119.553371922334 26.657568575966 19.511142159485
6048 2 -1.200000000000 119.553371922334 24.786862009232 21.495326107908
6049 1 2.400000000000 119.553371922334 19.642418950712 18.519050185274
6050 1 2.400000000000 117.625091730039 19.174742309028 21.826023432645
6051 1 2.400000000000 121.481652114630 19.174742309028 21.826023432645
6052 1 2.400000000000 119.553371922334 22.448478800814 21.164628783171
6053 2 -1.200000000000 119.553371922334 20.110095592396 20.833931458434
6054 2 -1.200000000000 119.553371922334 18.239389025661 0.330697324737
6055 2 -1.200000000000 117.625091730039 21.513125517447 22.156720757382
6056 2 -1.200000000000 117.625091730039 19.642418950712 1.653486623685
6057 2 -1.200000000000 121.481652114630 21.513125517447 22.156720757382
6058 2 -1.200000000000 121.481652114630 19.642418950712 1.653486623685
6059 2 -1.200000000000 119.553371922334 22.916155442497 0.992091974211
6060 2 -1.200000000000 119.553371922334 21.045448875763 2.976275922633
6061 1 2.400000000000 115.696811537743 29.931305067752 13.227892989482
6062 1 2.400000000000 113.768531345447 29.463628426068 16.534866236852
6063 1 2.400000000000 117.625091730039 29.463628426068 16.534866236852
6064 1 2.400000000000 115.696811537743 0.935353283367 15.873471587378
6065 2 -1.200000000000 115.696811537743 30.398981709435 15.542774262641
6066 2 -1.200000000000 115.696811537743 28.528275142701 17.526958211063
6067 2 -1.200000000000 113.768531345447 0.000000000000 16.865563561589
6068 2 -1.200000000000 113.768531345447 29.931305067752 18.849747510011
6069 2 -1.200000000000 117.625091730039 0.000000000000 16.865563561589
6070 2 -1.200000000000 117.625091730039 29.931305067752 18.849747510011
6071 2 -1.200000000000 115.696811537743 1.403029925051 18.188352860537
6072 2 -1.200000000000 115.696811537743 31.334334992803 20.172536808959
6073 1 2.400000000000 115.696811537743 26.189891934283 17.196260886326
6074 1 2.400000000000 113.768531345447 25.722215292599 20.503234133696
6075 1 2.400000000000 117.625091730039 25.722215292599 20.503234133696
6076 1 2.400000000000 115.696811537743 28.995951784385 19.841839484222
6077 2 -1.200000000000 115.696811537743 26.657568575966 19.511142159485
6078 2 -1.200000000000 115.696811537743 24.786862009232 21.495326107908
6079 2 -1.200000000000 113.768531345447 28.060598501017 20.833931458434
6080 2 -1.200000000000 113.768531345447 26.189891934283 0.330697324737
6081 2 -1.200000000000 117.625091730039 28.060598501017 20.833931458434
6082 2 -1.200000000000 117.625091730039 26.189891934283 0.330697324737
6083 2 -1.200000000000 115.696811537743 29.463628426068 22.156720757382
6084 2 -1.200000000000 115.696811537743 27.592921859334 1.653486623685
6085 1 2.400000000000 115.696811537743 22.448478800814 21.164628783171
6086 1 2.400000000000 113.768531345447 21.980802159130 1.984183948422
6087 1 2.400000000000 117.625091730039 21.980802159130 1.984183948422
6088 1 2.400000000000 115.696811537743 25.254538650916 1.322789298948
6089 2 -1.200000000000 115.696811537743 22.916155442497 0.992091974211
6090 2 -1.200000000000 115.696811537743 21.045448875763 2.976275922633
6091 2 -1.200000000000 113.768531345447 24.319185367548 2.314881273159
6092 2 -1.200000000000 113.768531345447 22.448478800814 4.299065221582
6093 2 -1.200000000000 117.625091730039 24.319185367548 2.314881273159
6094 2 -1.200000000000 117.625091730039 22.448478800814 4.299065221582
6095 2 -1.200000000000 115.696811537743 25.722215292599 3.637670572107
6096 2 -1.200000000000 115.696811537743 23.851508725865 5.621854520530
6097 1 2.400000000000 111.840251153151 28.995951784385 19.841839484222
6098 1 2.400000000000 109.911970960856 28.528275142701 0.661394649474
6099 1 2.400000000000 113.768531345447 28.528275142701 0.661394649474
6100 1 2.400000000000 111.840251153151 0.000000000000 0.000000000000
6101 2 -1.200000000000 111.840251153151 29.463628426068 22.156720757382
6102 2 -1.200000000000 111.840251153151 27.592921859334 1.653486623685
6103 2 -1.200000000000 109.911970960856 30.866658351119 0.992091974211
6104 2 -1.200000000000 109.911970960856 28.995951784385 2.976275922633
6105 2 -1.200000000000 113.768531345447 30.866658351119 0.992091974211
6106 2 -1.200000000000 113.768531345447 28.995951784385 2.976275922633
6107 2 -1.200000000000 111.840251153151 0.467676641684 2.314881273159
6108 2 -1.200000000000 111.840251153151 30.398981709435 4.299065221582
6109 1 2.400000000000 119.553371922334 28.995951784385 19.841839484222
6110 1 2.400000000000 117.625091730039 28.528275142701 0.661394649474
6111 1 2.400000000000 121.481652114630 28.528275142701 0.661394649474
6112 1 2.400000000000 119.553371922334 0.000000000000 0.000000000000
6113 2 -1.200000000000 119.553371922334 29.463628426068 22.156720757382
6114 2 -1.200000000000 119.553371922334 27.592921859334 1.653486623685
6115 2 -1.200000000000 117.625091730039 30.866658351119 0.992091974211
6116 2 -1.200000000000 117.625091730039 28.995951784385 2.976275922633
6117 2 -1.200000000000 121.481652114630 30.866658351119 0.992091974211
6118 2 -1.200000000000 121.481652114630 28.995951784385 2.976275922633
6119 2 -1.200000000000 119.553371922334 0.467676641684 2.314881273159
6120 2 -1.200000000000 119.553371922334 30.398981709435 4.299065221582
