Crystalline OU atoms

7968 atoms
2 atom types
0.000000000000 146.346176991406 xlo xhi
0.000000000000 32.724000000000 ylo yhi
0.000000000000 24.391029498568 zlo zhi

Atoms

1 1 2.400000000000 0.000000000000 0.000000000000 0.000000000000
2 1 2.400000000000 2.439102949857 29.997000000000 23.171478023639
3 1 2.400000000000 2.845620108166 0.909000000000 21.951926548711
4 1 2.400000000000 3.658654424785 0.000000000000 1.219551474928
5 2 -1.200000000000 2.235844370702 32.269500000000 23.781253761104
6 2 -1.200000000000 3.048878687321 31.360500000000 21.342150811247
7 2 -1.200000000000 3.861913003940 30.451500000000 0.609775737464
8 2 -1.200000000000 4.674947320559 29.542500000000 22.561702286175
9 2 -1.200000000000 4.268430162249 1.363500000000 23.781253761104
10 2 -1.200000000000 5.081464478868 0.454500000000 21.342150811247
11 2 -1.200000000000 5.894498795487 32.269500000000 0.609775737464
12 2 -1.200000000000 6.707533112106 31.360500000000 22.561702286175
13 1 2.400000000000 0.000000000000 0.000000000000 12.195514749284
14 1 2.400000000000 2.439102949857 29.997000000000 10.975963274355
15 1 2.400000000000 2.845620108166 0.909000000000 9.756411799427
16 1 2.400000000000 3.658654424785 0.000000000000 13.415066224212
17 2 -1.200000000000 2.235844370702 32.269500000000 11.585739011820
18 2 -1.200000000000 3.048878687321 31.360500000000 9.146636061963
19 2 -1.200000000000 3.861913003940 30.451500000000 12.805290486748
20 2 -1.200000000000 4.674947320559 29.542500000000 10.366187536891
21 2 -1.200000000000 4.268430162249 1.363500000000 11.585739011820
22 2 -1.200000000000 5.081464478868 0.454500000000 9.146636061963
23 2 -1.200000000000 5.894498795487 32.269500000000 12.805290486748
24 2 -1.200000000000 6.707533112106 31.360500000000 10.366187536891
25 1 2.400000000000 0.813034316619 7.272000000000 9.756411799427
26 1 2.400000000000 3.252137266476 4.545000000000 8.536860324499
27 1 2.400000000000 3.658654424785 8.181000000000 7.317308849570
28 1 2.400000000000 4.471688741404 7.272000000000 10.975963274355
29 2 -1.200000000000 3.048878687321 6.817500000000 9.146636061963
30 2 -1.200000000000 3.861913003940 5.908500000000 6.707533112106
31 2 -1.200000000000 4.674947320559 4.999500000000 10.366187536891
32 2 -1.200000000000 5.487981637178 4.090500000000 7.927084587035
33 2 -1.200000000000 5.081464478868 8.635500000000 9.146636061963
34 2 -1.200000000000 5.894498795487 7.726500000000 6.707533112106
35 2 -1.200000000000 6.707533112106 6.817500000000 10.366187536891
36 2 -1.200000000000 7.520567428725 5.908500000000 7.927084587035
37 1 2.400000000000 2.439102949857 5.454000000000 4.878205899714
38 1 2.400000000000 4.878205899714 2.727000000000 3.658654424785
39 1 2.400000000000 5.284723058023 6.363000000000 2.439102949857
40 1 2.400000000000 6.097757374642 5.454000000000 6.097757374642
41 2 -1.200000000000 4.674947320559 4.999500000000 4.268430162249
42 2 -1.200000000000 5.487981637178 4.090500000000 1.829327212393
43 2 -1.200000000000 6.301015953797 3.181500000000 5.487981637178
44 2 -1.200000000000 7.114050270416 2.272500000000 3.048878687321
45 2 -1.200000000000 6.707533112106 6.817500000000 4.268430162249
46 2 -1.200000000000 7.520567428725 5.908500000000 1.829327212393
47 2 -1.200000000000 8.333601745344 4.999500000000 5.487981637178
48 2 -1.200000000000 9.146636061963 4.090500000000 3.048878687321
49 1 2.400000000000 4.065171583095 3.636000000000 0.000000000000
50 1 2.400000000000 6.504274532951 0.909000000000 23.171478023639
51 1 2.400000000000 6.910791691261 4.545000000000 21.951926548711
52 1 2.400000000000 7.723826007880 3.636000000000 1.219551474928
53 2 -1.200000000000 6.301015953797 3.181500000000 23.781253761104
54 2 -1.200000000000 7.114050270416 2.272500000000 21.342150811247
55 2 -1.200000000000 7.927084587035 1.363500000000 0.609775737464
56 2 -1.200000000000 8.740118903653 0.454500000000 22.561702286175
57 2 -1.200000000000 8.333601745344 4.999500000000 23.781253761104
58 2 -1.200000000000 9.146636061963 4.090500000000 21.342150811247
59 2 -1.200000000000 9.959670378582 3.181500000000 0.609775737464
60 2 -1.200000000000 10.772704695201 2.272500000000 22.561702286175
61 1 2.400000000000 0.813034316619 7.272000000000 21.951926548711
62 1 2.400000000000 3.252137266476 4.545000000000 20.732375073783
63 1 2.400000000000 3.658654424785 8.181000000000 19.512823598854
64 1 2.400000000000 4.471688741404 7.272000000000 23.171478023639
65 2 -1.200000000000 3.048878687321 6.817500000000 21.342150811247
66 2 -1.200000000000 3.861913003940 5.908500000000 18.903047861390
67 2 -1.200000000000 4.674947320559 4.999500000000 22.561702286175
68 2 -1.200000000000 5.487981637178 4.090500000000 20.122599336318
69 2 -1.200000000000 5.081464478868 8.635500000000 21.342150811247
70 2 -1.200000000000 5.894498795487 7.726500000000 18.903047861390
71 2 -1.200000000000 6.707533112106 6.817500000000 22.561702286175
72 2 -1.200000000000 7.520567428725 5.908500000000 20.122599336318
73 1 2.400000000000 2.439102949857 5.454000000000 17.073720648997
74 1 2.400000000000 4.878205899714 2.727000000000 15.854169174069
75 1 2.400000000000 5.284723058023 6.363000000000 14.634617699141
76 1 2.400000000000 6.097757374642 5.454000000000 18.293272123926
77 2 -1.200000000000 4.674947320559 4.999500000000 16.463944911533
78 2 -1.200000000000 5.487981637178 4.090500000000 14.024841961676
79 2 -1.200000000000 6.301015953797 3.181500000000 17.683496386462
80 2 -1.200000000000 7.114050270416 2.272500000000 15.244393436605
81 2 -1.200000000000 6.707533112106 6.817500000000 16.463944911533
82 2 -1.200000000000 7.520567428725 5.908500000000 14.024841961676
83 2 -1.200000000000 8.333601745344 4.999500000000 17.683496386462
84 2 -1.200000000000 9.146636061963 4.090500000000 15.244393436605
85 1 2.400000000000 4.065171583095 3.636000000000 12.195514749284
86 1 2.400000000000 6.504274532951 0.909000000000 10.975963274355
87 1 2.400000000000 6.910791691261 4.545000000000 9.756411799427
88 1 2.400000000000 7.723826007880 3.636000000000 13.415066224212
89 2 -1.200000000000 6.301015953797 3.181500000000 11.585739011820
90 2 -1.200000000000 7.114050270416 2.272500000000 9.146636061963
91 2 -1.200000000000 7.927084587035 1.363500000000 12.805290486748
92 2 -1.200000000000 8.740118903653 0.454500000000 10.366187536891
93 2 -1.200000000000 8.333601745344 4.999500000000 11.585739011820
94 2 -1.200000000000 9.146636061963 4.090500000000 9.146636061963
95 2 -1.200000000000 9.959670378582 3.181500000000 12.805290486748
96 2 -1.200000000000 10.772704695201 2.272500000000 10.366187536891
97 1 2.400000000000 5.691240216332 1.818000000000 7.317308849570
98 1 2.400000000000 8.130343166189 31.815000000000 6.097757374642
99 1 2.400000000000 8.536860324499 2.727000000000 4.878205899714
100 1 2.400000000000 9.349894641118 1.818000000000 8.536860324499
101 2 -1.200000000000 7.927084587035 1.363500000000 6.707533112106
102 2 -1.200000000000 8.740118903653 0.454500000000 4.268430162249
103 2 -1.200000000000 9.553153220272 32.269500000000 7.927084587035
104 2 -1.200000000000 10.366187536891 31.360500000000 5.487981637178
105 2 -1.200000000000 9.959670378582 3.181500000000 6.707533112106
106 2 -1.200000000000 10.772704695201 2.272500000000 4.268430162249
107 2 -1.200000000000 11.585739011820 1.363500000000 7.927084587035
108 2 -1.200000000000 12.398773328439 0.454500000000 5.487981637178
109 1 2.400000000000 7.317308849570 0.000000000000 2.439102949857
110 1 2.400000000000 9.756411799427 29.997000000000 1.219551474928
111 1 2.400000000000 10.162928957737 0.909000000000 0.000000000000
112 1 2.400000000000 10.975963274355 0.000000000000 3.658654424785
113 2 -1.200000000000 9.553153220272 32.269500000000 1.829327212393
114 2 -1.200000000000 10.366187536891 31.360500000000 23.781253761104
115 2 -1.200000000000 11.179221853510 30.451500000000 3.048878687321
116 2 -1.200000000000 11.992256170129 29.542500000000 0.609775737464
117 2 -1.200000000000 11.585739011820 1.363500000000 1.829327212393
118 2 -1.200000000000 12.398773328439 0.454500000000 23.781253761104
119 2 -1.200000000000 13.211807645058 32.269500000000 3.048878687321
120 2 -1.200000000000 14.024841961676 31.360500000000 0.609775737464
121 1 2.400000000000 5.691240216332 1.818000000000 19.512823598854
122 1 2.400000000000 8.130343166189 31.815000000000 18.293272123926
123 1 2.400000000000 8.536860324499 2.727000000000 17.073720648997
124 1 2.400000000000 9.349894641118 1.818000000000 20.732375073783
125 2 -1.200000000000 7.927084587035 1.363500000000 18.903047861390
126 2 -1.200000000000 8.740118903653 0.454500000000 16.463944911533
127 2 -1.200000000000 9.553153220272 32.269500000000 20.122599336318
128 2 -1.200000000000 10.366187536891 31.360500000000 17.683496386462
129 2 -1.200000000000 9.959670378582 3.181500000000 18.903047861390
130 2 -1.200000000000 10.772704695201 2.272500000000 16.463944911533
131 2 -1.200000000000 11.585739011820 1.363500000000 20.122599336318
132 2 -1.200000000000 12.398773328439 0.454500000000 17.683496386462
133 1 2.400000000000 7.317308849570 0.000000000000 14.634617699141
134 1 2.400000000000 9.756411799427 29.997000000000 13.415066224212
135 1 2.400000000000 10.162928957737 0.909000000000 12.195514749284
136 1 2.400000000000 10.975963274355 0.000000000000 15.854169174069
137 2 -1.200000000000 9.553153220272 32.269500000000 14.024841961676
138 2 -1.200000000000 10.366187536891 31.360500000000 11.585739011820
139 2 -1.200000000000 11.179221853510 30.451500000000 15.244393436605
140 2 -1.200000000000 11.992256170129 29.542500000000 12.805290486748
141 2 -1.200000000000 11.585739011820 1.363500000000 14.024841961676
142 2 -1.200000000000 12.398773328439 0.454500000000 11.585739011820
143 2 -1.200000000000 13.211807645058 32.269500000000 15.244393436605
144 2 -1.200000000000 14.024841961676 31.360500000000 12.805290486748
145 1 2.400000000000 -0.000000000000 16.362000000000 0.000000000000
146 1 2.400000000000 2.439102949857 13.635000000000 23.171478023639
147 1 2.400000000000 2.845620108166 17.271000000000 21.951926548711
148 1 2.400000000000 3.658654424785 16.362000000000 1.219551474928
149 2 -1.200000000000 2.235844370702 15.907500000000 23.781253761104
150 2 -1.200000000000 3.048878687321 14.998500000000 21.342150811247
151 2 -1.200000000000 3.861913003940 14.089500000000 0.609775737464
152 2 -1.200000000000 4.674947320559 13.180500000000 22.561702286175
153 2 -1.200000000000 4.268430162249 17.725500000000 23.781253761104
154 2 -1.200000000000 5.081464478868 16.816500000000 21.342150811247
155 2 -1.200000000000 5.894498795487 15.907500000000 0.609775737464
156 2 -1.200000000000 6.707533112106 14.998500000000 22.561702286175
157 1 2.400000000000 -0.000000000000 16.362000000000 12.195514749284
158 1 2.400000000000 2.439102949857 13.635000000000 10.975963274355
159 1 2.400000000000 2.845620108166 17.271000000000 9.756411799427
160 1 2.400000000000 3.658654424785 16.362000000000 13.415066224212
161 2 -1.200000000000 2.235844370702 15.907500000000 11.585739011820
162 2 -1.200000000000 3.048878687321 14.998500000000 9.146636061963
163 2 -1.200000000000 3.861913003940 14.089500000000 12.805290486748
164 2 -1.200000000000 4.674947320559 13.180500000000 10.366187536891
165 2 -1.200000000000 4.268430162249 17.725500000000 11.585739011820
166 2 -1.200000000000 5.081464478868 16.816500000000 9.146636061963
167 2 -1.200000000000 5.894498795487 15.907500000000 12.805290486748
168 2 -1.200000000000 6.707533112106 14.998500000000 10.366187536891
169 1 2.400000000000 1.626068633238 14.544000000000 7.317308849570
170 1 2.400000000000 4.065171583095 11.817000000000 6.097757374642
171 1 2.400000000000 4.471688741404 15.453000000000 4.878205899714
172 1 2.400000000000 5.284723058023 14.544000000000 8.536860324499
173 2 -1.200000000000 3.861913003940 14.089500000000 6.707533112106
174 2 -1.200000000000 4.674947320559 13.180500000000 4.268430162249
175 2 -1.200000000000 5.487981637178 12.271500000000 7.927084587035
176 2 -1.200000000000 6.301015953797 11.362500000000 5.487981637178
177 2 -1.200000000000 5.894498795487 15.907500000000 6.707533112106
178 2 -1.200000000000 6.707533112106 14.998500000000 4.268430162249
179 2 -1.200000000000 7.520567428725 14.089500000000 7.927084587035
180 2 -1.200000000000 8.333601745344 13.180500000000 5.487981637178
181 1 2.400000000000 3.252137266476 12.726000000000 2.439102949857
182 1 2.400000000000 5.691240216332 9.999000000000 1.219551474928
183 1 2.400000000000 6.097757374642 13.635000000000 0.000000000000
184 1 2.400000000000 6.910791691261 12.726000000000 3.658654424785
185 2 -1.200000000000 5.487981637178 12.271500000000 1.829327212393
186 2 -1.200000000000 6.301015953797 11.362500000000 23.781253761104
187 2 -1.200000000000 7.114050270416 10.453500000000 3.048878687321
188 2 -1.200000000000 7.927084587035 9.544500000000 0.609775737464
189 2 -1.200000000000 7.520567428725 14.089500000000 1.829327212393
190 2 -1.200000000000 8.333601745344 13.180500000000 23.781253761104
191 2 -1.200000000000 9.146636061963 12.271500000000 3.048878687321
192 2 -1.200000000000 9.959670378582 11.362500000000 0.609775737464
193 1 2.400000000000 1.626068633238 14.544000000000 19.512823598854
194 1 2.400000000000 4.065171583095 11.817000000000 18.293272123926
195 1 2.400000000000 4.471688741404 15.453000000000 17.073720648997
196 1 2.400000000000 5.284723058023 14.544000000000 20.732375073783
197 2 -1.200000000000 3.861913003940 14.089500000000 18.903047861390
198 2 -1.200000000000 4.674947320559 13.180500000000 16.463944911533
199 2 -1.200000000000 5.487981637178 12.271500000000 20.122599336318
200 2 -1.200000000000 6.301015953797 11.362500000000 17.683496386462
201 2 -1.200000000000 5.894498795487 15.907500000000 18.903047861390
202 2 -1.200000000000 6.707533112106 14.998500000000 16.463944911533
203 2 -1.200000000000 7.520567428725 14.089500000000 20.122599336318
204 2 -1.200000000000 8.333601745344 13.180500000000 17.683496386462
205 1 2.400000000000 3.252137266476 12.726000000000 14.634617699141
206 1 2.400000000000 5.691240216332 9.999000000000 13.415066224212
207 1 2.400000000000 6.097757374642 13.635000000000 12.195514749284
208 1 2.400000000000 6.910791691261 12.726000000000 15.854169174069
209 2 -1.200000000000 5.487981637178 12.271500000000 14.024841961676
210 2 -1.200000000000 6.301015953797 11.362500000000 11.585739011820
211 2 -1.200000000000 7.114050270416 10.453500000000 15.244393436605
212 2 -1.200000000000 7.927084587035 9.544500000000 12.805290486748
213 2 -1.200000000000 7.520567428725 14.089500000000 14.024841961676
214 2 -1.200000000000 8.333601745344 13.180500000000 11.585739011820
215 2 -1.200000000000 9.146636061963 12.271500000000 15.244393436605
216 2 -1.200000000000 9.959670378582 11.362500000000 12.805290486748
217 1 2.400000000000 4.878205899714 10.908000000000 9.756411799427
218 1 2.400000000000 7.317308849570 8.181000000000 8.536860324499
219 1 2.400000000000 7.723826007880 11.817000000000 7.317308849570
220 1 2.400000000000 8.536860324499 10.908000000000 10.975963274355
221 2 -1.200000000000 7.114050270416 10.453500000000 9.146636061963
222 2 -1.200000000000 7.927084587035 9.544500000000 6.707533112106
223 2 -1.200000000000 8.740118903653 8.635500000000 10.366187536891
224 2 -1.200000000000 9.553153220272 7.726500000000 7.927084587035
225 2 -1.200000000000 9.146636061963 12.271500000000 9.146636061963
226 2 -1.200000000000 9.959670378582 11.362500000000 6.707533112106
227 2 -1.200000000000 10.772704695201 10.453500000000 10.366187536891
228 2 -1.200000000000 11.585739011820 9.544500000000 7.927084587035
229 1 2.400000000000 6.504274532951 9.090000000000 4.878205899714
230 1 2.400000000000 8.943377482808 6.363000000000 3.658654424785
231 1 2.400000000000 9.349894641118 9.999000000000 2.439102949857
232 1 2.400000000000 10.162928957737 9.090000000000 6.097757374642
233 2 -1.200000000000 8.740118903653 8.635500000000 4.268430162249
234 2 -1.200000000000 9.553153220272 7.726500000000 1.829327212393
235 2 -1.200000000000 10.366187536891 6.817500000000 5.487981637178
236 2 -1.200000000000 11.179221853510 5.908500000000 3.048878687321
237 2 -1.200000000000 10.772704695201 10.453500000000 4.268430162249
238 2 -1.200000000000 11.585739011820 9.544500000000 1.829327212393
239 2 -1.200000000000 12.398773328439 8.635500000000 5.487981637178
240 2 -1.200000000000 13.211807645058 7.726500000000 3.048878687321
241 1 2.400000000000 8.130343166189 7.272000000000 0.000000000000
242 1 2.400000000000 10.569446116046 4.545000000000 23.171478023639
243 1 2.400000000000 10.975963274355 8.181000000000 21.951926548711
244 1 2.400000000000 11.788997590974 7.272000000000 1.219551474928
245 2 -1.200000000000 10.366187536891 6.817500000000 23.781253761104
246 2 -1.200000000000 11.179221853510 5.908500000000 21.342150811247
247 2 -1.200000000000 11.992256170129 4.999500000000 0.609775737464
248 2 -1.200000000000 12.805290486748 4.090500000000 22.561702286175
249 2 -1.200000000000 12.398773328439 8.635500000000 23.781253761104
250 2 -1.200000000000 13.211807645058 7.726500000000 21.342150811247
251 2 -1.200000000000 14.024841961676 6.817500000000 0.609775737464
252 2 -1.200000000000 14.837876278295 5.908500000000 22.561702286175
253 1 2.400000000000 4.878205899714 10.908000000000 21.951926548711
254 1 2.400000000000 7.317308849570 8.181000000000 20.732375073783
255 1 2.400000000000 7.723826007880 11.817000000000 19.512823598854
256 1 2.400000000000 8.536860324499 10.908000000000 23.171478023639
257 2 -1.200000000000 7.114050270416 10.453500000000 21.342150811247
258 2 -1.200000000000 7.927084587035 9.544500000000 18.903047861390
259 2 -1.200000000000 8.740118903653 8.635500000000 22.561702286175
260 2 -1.200000000000 9.553153220272 7.726500000000 20.122599336318
261 2 -1.200000000000 9.146636061963 12.271500000000 21.342150811247
262 2 -1.200000000000 9.959670378582 11.362500000000 18.903047861390
263 2 -1.200000000000 10.772704695201 10.453500000000 22.561702286175
264 2 -1.200000000000 11.585739011820 9.544500000000 20.122599336318
265 1 2.400000000000 6.504274532951 9.090000000000 17.073720648997
266 1 2.400000000000 8.943377482808 6.363000000000 15.854169174069
267 1 2.400000000000 9.349894641118 9.999000000000 14.634617699141
268 1 2.400000000000 10.162928957737 9.090000000000 18.293272123926
269 2 -1.200000000000 8.740118903653 8.635500000000 16.463944911533
270 2 -1.200000000000 9.553153220272 7.726500000000 14.024841961676
271 2 -1.200000000000 10.366187536891 6.817500000000 17.683496386462
272 2 -1.200000000000 11.179221853510 5.908500000000 15.244393436605
273 2 -1.200000000000 10.772704695201 10.453500000000 16.463944911533
274 2 -1.200000000000 11.585739011820 9.544500000000 14.024841961676
275 2 -1.200000000000 12.398773328439 8.635500000000 17.683496386462
276 2 -1.200000000000 13.211807645058 7.726500000000 15.244393436605
277 1 2.400000000000 8.130343166189 7.272000000000 12.195514749284
278 1 2.400000000000 10.569446116046 4.545000000000 10.975963274355
279 1 2.400000000000 10.975963274355 8.181000000000 9.756411799427
280 1 2.400000000000 11.788997590974 7.272000000000 13.415066224212
281 2 -1.200000000000 10.366187536891 6.817500000000 11.585739011820
282 2 -1.200000000000 11.179221853510 5.908500000000 9.146636061963
283 2 -1.200000000000 11.992256170129 4.999500000000 12.805290486748
284 2 -1.200000000000 12.805290486748 4.090500000000 10.366187536891
285 2 -1.200000000000 12.398773328439 8.635500000000 11.585739011820
286 2 -1.200000000000 13.211807645058 7.726500000000 9.146636061963
287 2 -1.200000000000 14.024841961676 6.817500000000 12.805290486748
288 2 -1.200000000000 14.837876278295 5.908500000000 10.366187536891
289 1 2.400000000000 9.756411799427 5.454000000000 7.317308849570
290 1 2.400000000000 12.195514749284 2.727000000000 6.097757374642
291 1 2.400000000000 12.602031907593 6.363000000000 4.878205899714
292 1 2.400000000000 13.415066224212 5.454000000000 8.536860324499
293 2 -1.200000000000 11.992256170129 4.999500000000 6.707533112106
294 2 -1.200000000000 12.805290486748 4.090500000000 4.268430162249
295 2 -1.200000000000 13.618324803367 3.181500000000 7.927084587035
296 2 -1.200000000000 14.431359119986 2.272500000000 5.487981637178
297 2 -1.200000000000 14.024841961676 6.817500000000 6.707533112106
298 2 -1.200000000000 14.837876278295 5.908500000000 4.268430162249
299 2 -1.200000000000 15.650910594914 4.999500000000 7.927084587035
300 2 -1.200000000000 16.463944911533 4.090500000000 5.487981637178
301 1 2.400000000000 11.382480432665 3.636000000000 2.439102949857
302 1 2.400000000000 13.821583382522 0.909000000000 1.219551474928
303 1 2.400000000000 14.228100540831 4.545000000000 0.000000000000
304 1 2.400000000000 15.041134857450 3.636000000000 3.658654424785
305 2 -1.200000000000 13.618324803367 3.181500000000 1.829327212393
306 2 -1.200000000000 14.431359119986 2.272500000000 23.781253761104
307 2 -1.200000000000 15.244393436605 1.363500000000 3.048878687321
308 2 -1.200000000000 16.057427753224 0.454500000000 0.609775737464
309 2 -1.200000000000 15.650910594914 4.999500000000 1.829327212393
310 2 -1.200000000000 16.463944911533 4.090500000000 23.781253761104
311 2 -1.200000000000 17.276979228152 3.181500000000 3.048878687321
312 2 -1.200000000000 18.090013544771 2.272500000000 0.609775737464
313 1 2.400000000000 9.756411799427 5.454000000000 19.512823598854
314 1 2.400000000000 12.195514749284 2.727000000000 18.293272123926
315 1 2.400000000000 12.602031907593 6.363000000000 17.073720648997
316 1 2.400000000000 13.415066224212 5.454000000000 20.732375073783
317 2 -1.200000000000 11.992256170129 4.999500000000 18.903047861390
318 2 -1.200000000000 12.805290486748 4.090500000000 16.463944911533
319 2 -1.200000000000 13.618324803367 3.181500000000 20.122599336318
320 2 -1.200000000000 14.431359119986 2.272500000000 17.683496386462
321 2 -1.200000000000 14.024841961676 6.817500000000 18.903047861390
322 2 -1.200000000000 14.837876278295 5.908500000000 16.463944911533
323 2 -1.200000000000 15.650910594914 4.999500000000 20.122599336318
324 2 -1.200000000000 16.463944911533 4.090500000000 17.683496386462
325 1 2.400000000000 11.382480432665 3.636000000000 14.634617699141
326 1 2.400000000000 13.821583382522 0.909000000000 13.415066224212
327 1 2.400000000000 14.228100540831 4.545000000000 12.195514749284
328 1 2.400000000000 15.041134857450 3.636000000000 15.854169174069
329 2 -1.200000000000 13.618324803367 3.181500000000 14.024841961676
330 2 -1.200000000000 14.431359119986 2.272500000000 11.585739011820
331 2 -1.200000000000 15.244393436605 1.363500000000 15.244393436605
332 2 -1.200000000000 16.057427753224 0.454500000000 12.805290486748
333 2 -1.200000000000 15.650910594914 4.999500000000 14.024841961676
334 2 -1.200000000000 16.463944911533 4.090500000000 11.585739011820
335 2 -1.200000000000 17.276979228152 3.181500000000 15.244393436605
336 2 -1.200000000000 18.090013544771 2.272500000000 12.805290486748
337 1 2.400000000000 13.008549065903 1.818000000000 9.756411799427
338 1 2.400000000000 15.447652015760 31.815000000000 8.536860324499
339 1 2.400000000000 15.854169174069 2.727000000000 7.317308849570
340 1 2.400000000000 16.667203490688 1.818000000000 10.975963274355
341 2 -1.200000000000 15.244393436605 1.363500000000 9.146636061963
342 2 -1.200000000000 16.057427753224 0.454500000000 6.707533112106
343 2 -1.200000000000 16.870462069843 32.269500000000 10.366187536891
344 2 -1.200000000000 17.683496386462 31.360500000000 7.927084587035
345 2 -1.200000000000 17.276979228152 3.181500000000 9.146636061963
346 2 -1.200000000000 18.090013544771 2.272500000000 6.707533112106
347 2 -1.200000000000 18.903047861390 1.363500000000 10.366187536891
348 2 -1.200000000000 19.716082178009 0.454500000000 7.927084587035
349 1 2.400000000000 14.634617699141 0.000000000000 4.878205899714
350 1 2.400000000000 17.073720648997 29.997000000000 3.658654424785
351 1 2.400000000000 17.480237807307 0.909000000000 2.439102949857
352 1 2.400000000000 18.293272123926 0.000000000000 6.097757374642
353 2 -1.200000000000 16.870462069843 32.269500000000 4.268430162249
354 2 -1.200000000000 17.683496386462 31.360500000000 1.829327212393
355 2 -1.200000000000 18.496530703081 30.451500000000 5.487981637178
356 2 -1.200000000000 19.309565019699 29.542500000000 3.048878687321
357 2 -1.200000000000 18.903047861390 1.363500000000 4.268430162249
358 2 -1.200000000000 19.716082178009 0.454500000000 1.829327212393
359 2 -1.200000000000 20.529116494628 32.269500000000 5.487981637178
360 2 -1.200000000000 21.342150811247 31.360500000000 3.048878687321
361 1 2.400000000000 13.008549065903 1.818000000000 21.951926548711
362 1 2.400000000000 15.447652015760 31.815000000000 20.732375073783
363 1 2.400000000000 15.854169174069 2.727000000000 19.512823598854
364 1 2.400000000000 16.667203490688 1.818000000000 23.171478023639
365 2 -1.200000000000 15.244393436605 1.363500000000 21.342150811247
366 2 -1.200000000000 16.057427753224 0.454500000000 18.903047861390
367 2 -1.200000000000 16.870462069843 32.269500000000 22.561702286175
368 2 -1.200000000000 17.683496386462 31.360500000000 20.122599336318
369 2 -1.200000000000 17.276979228152 3.181500000000 21.342150811247
370 2 -1.200000000000 18.090013544771 2.272500000000 18.903047861390
371 2 -1.200000000000 18.903047861390 1.363500000000 22.561702286175
372 2 -1.200000000000 19.716082178009 0.454500000000 20.122599336318
373 1 2.400000000000 14.634617699141 0.000000000000 17.073720648997
374 1 2.400000000000 17.073720648997 29.997000000000 15.854169174069
375 1 2.400000000000 17.480237807307 0.909000000000 14.634617699141
376 1 2.400000000000 18.293272123926 0.000000000000 18.293272123926
377 2 -1.200000000000 16.870462069843 32.269500000000 16.463944911533
378 2 -1.200000000000 17.683496386462 31.360500000000 14.024841961676
379 2 -1.200000000000 18.496530703081 30.451500000000 17.683496386462
380 2 -1.200000000000 19.309565019699 29.542500000000 15.244393436605
381 2 -1.200000000000 18.903047861390 1.363500000000 16.463944911533
382 2 -1.200000000000 19.716082178009 0.454500000000 14.024841961676
383 2 -1.200000000000 20.529116494628 32.269500000000 17.683496386462
384 2 -1.200000000000 21.342150811247 31.360500000000 15.244393436605
385 1 2.400000000000 0.813034316619 23.634000000000 9.756411799427
386 1 2.400000000000 3.252137266476 20.907000000000 8.536860324499
387 1 2.400000000000 3.658654424785 24.543000000000 7.317308849570
388 1 2.400000000000 4.471688741404 23.634000000000 10.975963274355
389 2 -1.200000000000 3.048878687321 23.179500000000 9.146636061963
390 2 -1.200000000000 3.861913003940 22.270500000000 6.707533112106
391 2 -1.200000000000 4.674947320559 21.361500000000 10.366187536891
392 2 -1.200000000000 5.487981637178 20.452500000000 7.927084587035
393 2 -1.200000000000 5.081464478868 24.997500000000 9.146636061963
394 2 -1.200000000000 5.894498795487 24.088500000000 6.707533112106
395 2 -1.200000000000 6.707533112106 23.179500000000 10.366187536891
396 2 -1.200000000000 7.520567428725 22.270500000000 7.927084587035
397 1 2.400000000000 2.439102949857 21.816000000000 4.878205899714
398 1 2.400000000000 4.878205899714 19.089000000000 3.658654424785
399 1 2.400000000000 5.284723058023 22.725000000000 2.439102949857
400 1 2.400000000000 6.097757374642 21.816000000000 6.097757374642
401 2 -1.200000000000 4.674947320559 21.361500000000 4.268430162249
402 2 -1.200000000000 5.487981637178 20.452500000000 1.829327212393
403 2 -1.200000000000 6.301015953797 19.543500000000 5.487981637178
404 2 -1.200000000000 7.114050270416 18.634500000000 3.048878687321
405 2 -1.200000000000 6.707533112106 23.179500000000 4.268430162249
406 2 -1.200000000000 7.520567428725 22.270500000000 1.829327212393
407 2 -1.200000000000 8.333601745344 21.361500000000 5.487981637178
408 2 -1.200000000000 9.146636061963 20.452500000000 3.048878687321
409 1 2.400000000000 4.065171583095 19.998000000000 0.000000000000
410 1 2.400000000000 6.504274532951 17.271000000000 23.171478023639
411 1 2.400000000000 6.910791691261 20.907000000000 21.951926548711
412 1 2.400000000000 7.723826007880 19.998000000000 1.219551474928
413 2 -1.200000000000 6.301015953797 19.543500000000 23.781253761104
414 2 -1.200000000000 7.114050270416 18.634500000000 21.342150811247
415 2 -1.200000000000 7.927084587035 17.725500000000 0.609775737464
416 2 -1.200000000000 8.740118903653 16.816500000000 22.561702286175
417 2 -1.200000000000 8.333601745344 21.361500000000 23.781253761104
418 2 -1.200000000000 9.146636061963 20.452500000000 21.342150811247
419 2 -1.200000000000 9.959670378582 19.543500000000 0.609775737464
420 2 -1.200000000000 10.772704695201 18.634500000000 22.561702286175
421 1 2.400000000000 0.813034316619 23.634000000000 21.951926548711
422 1 2.400000000000 3.252137266476 20.907000000000 20.732375073783
423 1 2.400000000000 3.658654424785 24.543000000000 19.512823598854
424 1 2.400000000000 4.471688741404 23.634000000000 23.171478023639
425 2 -1.200000000000 3.048878687321 23.179500000000 21.342150811247
426 2 -1.200000000000 3.861913003940 22.270500000000 18.903047861390
427 2 -1.200000000000 4.674947320559 21.361500000000 22.561702286175
428 2 -1.200000000000 5.487981637178 20.452500000000 20.122599336318
429 2 -1.200000000000 5.081464478868 24.997500000000 21.342150811247
430 2 -1.200000000000 5.894498795487 24.088500000000 18.903047861390
431 2 -1.200000000000 6.707533112106 23.179500000000 22.561702286175
432 2 -1.200000000000 7.520567428725 22.270500000000 20.122599336318
433 1 2.400000000000 2.439102949857 21.816000000000 17.073720648997
434 1 2.400000000000 4.878205899714 19.089000000000 15.854169174069
435 1 2.400000000000 5.284723058023 22.725000000000 14.634617699141
436 1 2.400000000000 6.097757374642 21.816000000000 18.293272123926
437 2 -1.200000000000 4.674947320559 21.361500000000 16.463944911533
438 2 -1.200000000000 5.487981637178 20.452500000000 14.024841961676
439 2 -1.200000000000 6.301015953797 19.543500000000 17.683496386462
440 2 -1.200000000000 7.114050270416 18.634500000000 15.244393436605
441 2 -1.200000000000 6.707533112106 23.179500000000 16.463944911533
442 2 -1.200000000000 7.520567428725 22.270500000000 14.024841961676
443 2 -1.200000000000 8.333601745344 21.361500000000 17.683496386462
444 2 -1.200000000000 9.146636061963 20.452500000000 15.244393436605
445 1 2.400000000000 4.065171583095 19.998000000000 12.195514749284
446 1 2.400000000000 6.504274532951 17.271000000000 10.975963274355
447 1 2.400000000000 6.910791691261 20.907000000000 9.756411799427
448 1 2.400000000000 7.723826007880 19.998000000000 13.415066224212
449 2 -1.200000000000 6.301015953797 19.543500000000 11.585739011820
450 2 -1.200000000000 7.114050270416 18.634500000000 9.146636061963
451 2 -1.200000000000 7.927084587035 17.725500000000 12.805290486748
452 2 -1.200000000000 8.740118903653 16.816500000000 10.366187536891
453 2 -1.200000000000 8.333601745344 21.361500000000 11.585739011820
454 2 -1.200000000000 9.146636061963 20.452500000000 9.146636061963
455 2 -1.200000000000 9.959670378582 19.543500000000 12.805290486748
456 2 -1.200000000000 10.772704695201 18.634500000000 10.366187536891
457 1 2.400000000000 5.691240216332 18.180000000000 7.317308849570
458 1 2.400000000000 8.130343166189 15.453000000000 6.097757374642
459 1 2.400000000000 8.536860324499 19.089000000000 4.878205899714
460 1 2.400000000000 9.349894641118 18.180000000000 8.536860324499
461 2 -1.200000000000 7.927084587035 17.725500000000 6.707533112106
462 2 -1.200000000000 8.740118903653 16.816500000000 4.268430162249
463 2 -1.200000000000 9.553153220272 15.907500000000 7.927084587035
464 2 -1.200000000000 10.366187536891 14.998500000000 5.487981637178
465 2 -1.200000000000 9.959670378582 19.543500000000 6.707533112106
466 2 -1.200000000000 10.772704695201 18.634500000000 4.268430162249
467 2 -1.200000000000 11.585739011820 17.725500000000 7.927084587035
468 2 -1.200000000000 12.398773328439 16.816500000000 5.487981637178
469 1 2.400000000000 7.317308849570 16.362000000000 2.439102949857
470 1 2.400000000000 9.756411799427 13.635000000000 1.219551474928
471 1 2.400000000000 10.162928957737 17.271000000000 0.000000000000
472 1 2.400000000000 10.975963274355 16.362000000000 3.658654424785
473 2 -1.200000000000 9.553153220272 15.907500000000 1.829327212393
474 2 -1.200000000000 10.366187536891 14.998500000000 23.781253761104
475 2 -1.200000000000 11.179221853510 14.089500000000 3.048878687321
476 2 -1.200000000000 11.992256170129 13.180500000000 0.609775737464
477 2 -1.200000000000 11.585739011820 17.725500000000 1.829327212393
478 2 -1.200000000000 12.398773328439 16.816500000000 23.781253761104
479 2 -1.200000000000 13.211807645058 15.907500000000 3.048878687321
480 2 -1.200000000000 14.024841961676 14.998500000000 0.609775737464
481 1 2.400000000000 5.691240216332 18.180000000000 19.512823598854
482 1 2.400000000000 8.130343166189 15.453000000000 18.293272123926
483 1 2.400000000000 8.536860324499 19.089000000000 17.073720648997
484 1 2.400000000000 9.349894641118 18.180000000000 20.732375073783
485 2 -1.200000000000 7.927084587035 17.725500000000 18.903047861390
486 2 -1.200000000000 8.740118903653 16.816500000000 16.463944911533
487 2 -1.200000000000 9.553153220272 15.907500000000 20.122599336318
488 2 -1.200000000000 10.366187536891 14.998500000000 17.683496386462
489 2 -1.200000000000 9.959670378582 19.543500000000 18.903047861390
490 2 -1.200000000000 10.772704695201 18.634500000000 16.463944911533
491 2 -1.200000000000 11.585739011820 17.725500000000 20.122599336318
492 2 -1.200000000000 12.398773328439 16.816500000000 17.683496386462
493 1 2.400000000000 7.317308849570 16.362000000000 14.634617699141
494 1 2.400000000000 9.756411799427 13.635000000000 13.415066224212
495 1 2.400000000000 10.162928957737 17.271000000000 12.195514749284
496 1 2.400000000000 10.975963274355 16.362000000000 15.854169174069
497 2 -1.200000000000 9.553153220272 15.907500000000 14.024841961676
498 2 -1.200000000000 10.366187536891 14.998500000000 11.585739011820
499 2 -1.200000000000 11.179221853510 14.089500000000 15.244393436605
500 2 -1.200000000000 11.992256170129 13.180500000000 12.805290486748
501 2 -1.200000000000 11.585739011820 17.725500000000 14.024841961676
502 2 -1.200000000000 12.398773328439 16.816500000000 11.585739011820
503 2 -1.200000000000 13.211807645058 15.907500000000 15.244393436605
504 2 -1.200000000000 14.024841961676 14.998500000000 12.805290486748
505 1 2.400000000000 8.943377482808 14.544000000000 9.756411799427
506 1 2.400000000000 11.382480432665 11.817000000000 8.536860324499
507 1 2.400000000000 11.788997590974 15.453000000000 7.317308849570
508 1 2.400000000000 12.602031907593 14.544000000000 10.975963274355
509 2 -1.200000000000 11.179221853510 14.089500000000 9.146636061963
510 2 -1.200000000000 11.992256170129 13.180500000000 6.707533112106
511 2 -1.200000000000 12.805290486748 12.271500000000 10.366187536891
512 2 -1.200000000000 13.618324803367 11.362500000000 7.927084587035
513 2 -1.200000000000 13.211807645058 15.907500000000 9.146636061963
514 2 -1.200000000000 14.024841961676 14.998500000000 6.707533112106
515 2 -1.200000000000 14.837876278295 14.089500000000 10.366187536891
516 2 -1.200000000000 15.650910594914 13.180500000000 7.927084587035
517 1 2.400000000000 10.569446116046 12.726000000000 4.878205899714
518 1 2.400000000000 13.008549065903 9.999000000000 3.658654424785
519 1 2.400000000000 13.415066224212 13.635000000000 2.439102949857
520 1 2.400000000000 14.228100540831 12.726000000000 6.097757374642
521 2 -1.200000000000 12.805290486748 12.271500000000 4.268430162249
522 2 -1.200000000000 13.618324803367 11.362500000000 1.829327212393
523 2 -1.200000000000 14.431359119986 10.453500000000 5.487981637178
524 2 -1.200000000000 15.244393436605 9.544500000000 3.048878687321
525 2 -1.200000000000 14.837876278295 14.089500000000 4.268430162249
526 2 -1.200000000000 15.650910594914 13.180500000000 1.829327212393
527 2 -1.200000000000 16.463944911533 12.271500000000 5.487981637178
528 2 -1.200000000000 17.276979228152 11.362500000000 3.048878687321
529 1 2.400000000000 12.195514749284 10.908000000000 0.000000000000
530 1 2.400000000000 14.634617699141 8.181000000000 23.171478023639
531 1 2.400000000000 15.041134857450 11.817000000000 21.951926548711
532 1 2.400000000000 15.854169174069 10.908000000000 1.219551474928
533 2 -1.200000000000 14.431359119986 10.453500000000 23.781253761104
534 2 -1.200000000000 15.244393436605 9.544500000000 21.342150811247
535 2 -1.200000000000 16.057427753224 8.635500000000 0.609775737464
536 2 -1.200000000000 16.870462069843 7.726500000000 22.561702286175
537 2 -1.200000000000 16.463944911533 12.271500000000 23.781253761104
538 2 -1.200000000000 17.276979228152 11.362500000000 21.342150811247
539 2 -1.200000000000 18.090013544771 10.453500000000 0.609775737464
540 2 -1.200000000000 18.903047861390 9.544500000000 22.561702286175
541 1 2.400000000000 8.943377482808 14.544000000000 21.951926548711
542 1 2.400000000000 11.382480432665 11.817000000000 20.732375073783
543 1 2.400000000000 11.788997590974 15.453000000000 19.512823598854
544 1 2.400000000000 12.602031907593 14.544000000000 23.171478023639
545 2 -1.200000000000 11.179221853510 14.089500000000 21.342150811247
546 2 -1.200000000000 11.992256170129 13.180500000000 18.903047861390
547 2 -1.200000000000 12.805290486748 12.271500000000 22.561702286175
548 2 -1.200000000000 13.618324803367 11.362500000000 20.122599336318
549 2 -1.200000000000 13.211807645058 15.907500000000 21.342150811247
550 2 -1.200000000000 14.024841961676 14.998500000000 18.903047861390
551 2 -1.200000000000 14.837876278295 14.089500000000 22.561702286175
552 2 -1.200000000000 15.650910594914 13.180500000000 20.122599336318
553 1 2.400000000000 10.569446116046 12.726000000000 17.073720648997
554 1 2.400000000000 13.008549065903 9.999000000000 15.854169174069
555 1 2.400000000000 13.415066224212 13.635000000000 14.634617699141
556 1 2.400000000000 14.228100540831 12.726000000000 18.293272123926
557 2 -1.200000000000 12.805290486748 12.271500000000 16.463944911533
558 2 -1.200000000000 13.618324803367 11.362500000000 14.024841961676
559 2 -1.200000000000 14.431359119986 10.453500000000 17.683496386462
560 2 -1.200000000000 15.244393436605 9.544500000000 15.244393436605
561 2 -1.200000000000 14.837876278295 14.089500000000 16.463944911533
562 2 -1.200000000000 15.650910594914 13.180500000000 14.024841961676
563 2 -1.200000000000 16.463944911533 12.271500000000 17.683496386462
564 2 -1.200000000000 17.276979228152 11.362500000000 15.244393436605
565 1 2.400000000000 12.195514749284 10.908000000000 12.195514749284
566 1 2.400000000000 14.634617699141 8.181000000000 10.975963274355
567 1 2.400000000000 15.041134857450 11.817000000000 9.756411799427
568 1 2.400000000000 15.854169174069 10.908000000000 13.415066224212
569 2 -1.200000000000 14.431359119986 10.453500000000 11.585739011820
570 2 -1.200000000000 15.244393436605 9.544500000000 9.146636061963
571 2 -1.200000000000 16.057427753224 8.635500000000 12.805290486748
572 2 -1.200000000000 16.870462069843 7.726500000000 10.366187536891
573 2 -1.200000000000 16.463944911533 12.271500000000 11.585739011820
574 2 -1.200000000000 17.276979228152 11.362500000000 9.146636061963
575 2 -1.200000000000 18.090013544771 10.453500000000 12.805290486748
576 2 -1.200000000000 18.903047861390 9.544500000000 10.366187536891
577 1 2.400000000000 13.821583382522 9.090000000000 7.317308849570
578 1 2.400000000000 16.260686332378 6.363000000000 6.097757374642
579 1 2.400000000000 16.667203490688 9.999000000000 4.878205899714
580 1 2.400000000000 17.480237807307 9.090000000000 8.536860324499
581 2 -1.200000000000 16.057427753224 8.635500000000 6.707533112106
582 2 -1.200000000000 16.870462069843 7.726500000000 4.268430162249
583 2 -1.200000000000 17.683496386462 6.817500000000 7.927084587035
584 2 -1.200000000000 18.496530703081 5.908500000000 5.487981637178
585 2 -1.200000000000 18.090013544771 10.453500000000 6.707533112106
586 2 -1.200000000000 18.903047861390 9.544500000000 4.268430162249
587 2 -1.200000000000 19.716082178009 8.635500000000 7.927084587035
588 2 -1.200000000000 20.529116494628 7.726500000000 5.487981637178
589 1 2.400000000000 15.447652015760 7.272000000000 2.439102949857
590 1 2.400000000000 17.886754965616 4.545000000000 1.219551474928
591 1 2.400000000000 18.293272123926 8.181000000000 0.000000000000
592 1 2.400000000000 19.106306440545 7.272000000000 3.658654424785
593 2 -1.200000000000 17.683496386462 6.817500000000 1.829327212393
594 2 -1.200000000000 18.496530703081 5.908500000000 23.781253761104
595 2 -1.200000000000 19.309565019699 4.999500000000 3.048878687321
596 2 -1.200000000000 20.122599336318 4.090500000000 0.609775737464
597 2 -1.200000000000 19.716082178009 8.635500000000 1.829327212393
598 2 -1.200000000000 20.529116494628 7.726500000000 23.781253761104
599 2 -1.200000000000 21.342150811247 6.817500000000 3.048878687321
600 2 -1.200000000000 22.155185127866 5.908500000000 0.609775737464
601 1 2.400000000000 13.821583382522 9.090000000000 19.512823598854
602 1 2.400000000000 16.260686332378 6.363000000000 18.293272123926
603 1 2.400000000000 16.667203490688 9.999000000000 17.073720648997
604 1 2.400000000000 17.480237807307 9.090000000000 20.732375073783
605 2 -1.200000000000 16.057427753224 8.635500000000 18.903047861390
606 2 -1.200000000000 16.870462069843 7.726500000000 16.463944911533
607 2 -1.200000000000 17.683496386462 6.817500000000 20.122599336318
608 2 -1.200000000000 18.496530703081 5.908500000000 17.683496386462
609 2 -1.200000000000 18.090013544771 10.453500000000 18.903047861390
610 2 -1.200000000000 18.903047861390 9.544500000000 16.463944911533
611 2 -1.200000000000 19.716082178009 8.635500000000 20.122599336318
612 2 -1.200000000000 20.529116494628 7.726500000000 17.683496386462
613 1 2.400000000000 15.447652015760 7.272000000000 14.634617699141
614 1 2.400000000000 17.886754965616 4.545000000000 13.415066224212
615 1 2.400000000000 18.293272123926 8.181000000000 12.195514749284
616 1 2.400000000000 19.106306440545 7.272000000000 15.854169174069
617 2 -1.200000000000 17.683496386462 6.817500000000 14.024841961676
618 2 -1.200000000000 18.496530703081 5.908500000000 11.585739011820
619 2 -1.200000000000 19.309565019699 4.999500000000 15.244393436605
620 2 -1.200000000000 20.122599336318 4.090500000000 12.805290486748
621 2 -1.200000000000 19.716082178009 8.635500000000 14.024841961676
622 2 -1.200000000000 20.529116494628 7.726500000000 11.585739011820
623 2 -1.200000000000 21.342150811247 6.817500000000 15.244393436605
624 2 -1.200000000000 22.155185127866 5.908500000000 12.805290486748
625 1 2.400000000000 17.073720648997 5.454000000000 9.756411799427
626 1 2.400000000000 19.512823598854 2.727000000000 8.536860324499
627 1 2.400000000000 19.919340757164 6.363000000000 7.317308849570
628 1 2.400000000000 20.732375073783 5.454000000000 10.975963274355
629 2 -1.200000000000 19.309565019699 4.999500000000 9.146636061963
630 2 -1.200000000000 20.122599336318 4.090500000000 6.707533112106
631 2 -1.200000000000 20.935633652937 3.181500000000 10.366187536891
632 2 -1.200000000000 21.748667969556 2.272500000000 7.927084587035
633 2 -1.200000000000 21.342150811247 6.817500000000 9.146636061963
634 2 -1.200000000000 22.155185127866 5.908500000000 6.707533112106
635 2 -1.200000000000 22.968219444485 4.999500000000 10.366187536891
636 2 -1.200000000000 23.781253761104 4.090500000000 7.927084587035
637 1 2.400000000000 18.699789282235 3.636000000000 4.878205899714
638 1 2.400000000000 21.138892232092 0.909000000000 3.658654424785
639 1 2.400000000000 21.545409390401 4.545000000000 2.439102949857
640 1 2.400000000000 22.358443707020 3.636000000000 6.097757374642
641 2 -1.200000000000 20.935633652937 3.181500000000 4.268430162249
642 2 -1.200000000000 21.748667969556 2.272500000000 1.829327212393
643 2 -1.200000000000 22.561702286175 1.363500000000 5.487981637178
644 2 -1.200000000000 23.374736602794 0.454500000000 3.048878687321
645 2 -1.200000000000 22.968219444485 4.999500000000 4.268430162249
646 2 -1.200000000000 23.781253761104 4.090500000000 1.829327212393
647 2 -1.200000000000 24.594288077722 3.181500000000 5.487981637178
648 2 -1.200000000000 25.407322394341 2.272500000000 3.048878687321
649 1 2.400000000000 20.325857915473 1.818000000000 0.000000000000
650 1 2.400000000000 22.764960865330 31.815000000000 23.171478023639
651 1 2.400000000000 23.171478023639 2.727000000000 21.951926548711
652 1 2.400000000000 23.984512340258 1.818000000000 1.219551474928
653 2 -1.200000000000 22.561702286175 1.363500000000 23.781253761104
654 2 -1.200000000000 23.374736602794 0.454500000000 21.342150811247
655 2 -1.200000000000 24.187770919413 32.269500000000 0.609775737464
656 2 -1.200000000000 25.000805236032 31.360500000000 22.561702286175
657 2 -1.200000000000 24.594288077722 3.181500000000 23.781253761104
658 2 -1.200000000000 25.407322394341 2.272500000000 21.342150811247
659 2 -1.200000000000 26.220356710960 1.363500000000 0.609775737464
660 2 -1.200000000000 27.033391027579 0.454500000000 22.561702286175
661 1 2.400000000000 17.073720648997 5.454000000000 21.951926548711
662 1 2.400000000000 19.512823598854 2.727000000000 20.732375073783
663 1 2.400000000000 19.919340757164 6.363000000000 19.512823598854
664 1 2.400000000000 20.732375073783 5.454000000000 23.171478023639
665 2 -1.200000000000 19.309565019699 4.999500000000 21.342150811247
666 2 -1.200000000000 20.122599336318 4.090500000000 18.903047861390
667 2 -1.200000000000 20.935633652937 3.181500000000 22.561702286175
668 2 -1.200000000000 21.748667969556 2.272500000000 20.122599336318
669 2 -1.200000000000 21.342150811247 6.817500000000 21.342150811247
670 2 -1.200000000000 22.155185127866 5.908500000000 18.903047861390
671 2 -1.200000000000 22.968219444485 4.999500000000 22.561702286175
672 2 -1.200000000000 23.781253761104 4.090500000000 20.122599336318
673 1 2.400000000000 18.699789282235 3.636000000000 17.073720648997
674 1 2.400000000000 21.138892232092 0.909000000000 15.854169174069
675 1 2.400000000000 21.545409390401 4.545000000000 14.634617699141
676 1 2.400000000000 22.358443707020 3.636000000000 18.293272123926
677 2 -1.200000000000 20.935633652937 3.181500000000 16.463944911533
678 2 -1.200000000000 21.748667969556 2.272500000000 14.024841961676
679 2 -1.200000000000 22.561702286175 1.363500000000 17.683496386462
680 2 -1.200000000000 23.374736602794 0.454500000000 15.244393436605
681 2 -1.200000000000 22.968219444485 4.999500000000 16.463944911533
682 2 -1.200000000000 23.781253761104 4.090500000000 14.024841961676
683 2 -1.200000000000 24.594288077722 3.181500000000 17.683496386462
684 2 -1.200000000000 25.407322394341 2.272500000000 15.244393436605
685 1 2.400000000000 20.325857915473 1.818000000000 12.195514749284
686 1 2.400000000000 22.764960865330 31.815000000000 10.975963274355
687 1 2.400000000000 23.171478023639 2.727000000000 9.756411799427
688 1 2.400000000000 23.984512340258 1.818000000000 13.415066224212
689 2 -1.200000000000 22.561702286175 1.363500000000 11.585739011820
690 2 -1.200000000000 23.374736602794 0.454500000000 9.146636061963
691 2 -1.200000000000 24.187770919413 32.269500000000 12.805290486748
692 2 -1.200000000000 25.000805236032 31.360500000000 10.366187536891
693 2 -1.200000000000 24.594288077722 3.181500000000 11.585739011820
694 2 -1.200000000000 25.407322394341 2.272500000000 9.146636061963
695 2 -1.200000000000 26.220356710960 1.363500000000 12.805290486748
696 2 -1.200000000000 27.033391027579 0.454500000000 10.366187536891
697 1 2.400000000000 21.951926548711 0.000000000000 7.317308849570
698 1 2.400000000000 24.391029498568 29.997000000000 6.097757374642
699 1 2.400000000000 24.797546656877 0.909000000000 4.878205899714
700 1 2.400000000000 25.610580973496 0.000000000000 8.536860324499
701 2 -1.200000000000 24.187770919413 32.269500000000 6.707533112106
702 2 -1.200000000000 25.000805236032 31.360500000000 4.268430162249
703 2 -1.200000000000 25.813839552651 30.451500000000 7.927084587035
704 2 -1.200000000000 26.626873869270 29.542500000000 5.487981637178
705 2 -1.200000000000 26.220356710960 1.363500000000 6.707533112106
706 2 -1.200000000000 27.033391027579 0.454500000000 4.268430162249
707 2 -1.200000000000 27.846425344198 32.269500000000 7.927084587035
708 2 -1.200000000000 28.659459660817 31.360500000000 5.487981637178
709 1 2.400000000000 21.951926548711 0.000000000000 19.512823598854
710 1 2.400000000000 24.391029498568 29.997000000000 18.293272123926
711 1 2.400000000000 24.797546656877 0.909000000000 17.073720648997
712 1 2.400000000000 25.610580973496 0.000000000000 20.732375073783
713 2 -1.200000000000 24.187770919413 32.269500000000 18.903047861390
714 2 -1.200000000000 25.000805236032 31.360500000000 16.463944911533
715 2 -1.200000000000 25.813839552651 30.451500000000 20.122599336318
716 2 -1.200000000000 26.626873869270 29.542500000000 17.683496386462
717 2 -1.200000000000 26.220356710960 1.363500000000 18.903047861390
718 2 -1.200000000000 27.033391027579 0.454500000000 16.463944911533
719 2 -1.200000000000 27.846425344198 32.269500000000 20.122599336318
720 2 -1.200000000000 28.659459660817 31.360500000000 17.683496386462
721 1 2.400000000000 1.626068633238 30.906000000000 7.317308849570
722 1 2.400000000000 4.065171583095 28.179000000000 6.097757374642
723 1 2.400000000000 4.471688741404 31.815000000000 4.878205899714
724 1 2.400000000000 5.284723058023 30.906000000000 8.536860324499
725 2 -1.200000000000 3.861913003940 30.451500000000 6.707533112106
726 2 -1.200000000000 4.674947320559 29.542500000000 4.268430162249
727 2 -1.200000000000 5.487981637178 28.633500000000 7.927084587035
728 2 -1.200000000000 6.301015953797 27.724500000000 5.487981637178
729 2 -1.200000000000 5.894498795487 32.269500000000 6.707533112106
730 2 -1.200000000000 6.707533112106 31.360500000000 4.268430162249
731 2 -1.200000000000 7.520567428725 30.451500000000 7.927084587035
732 2 -1.200000000000 8.333601745344 29.542500000000 5.487981637178
733 1 2.400000000000 3.252137266476 29.088000000000 2.439102949857
734 1 2.400000000000 5.691240216332 26.361000000000 1.219551474928
735 1 2.400000000000 6.097757374642 29.997000000000 0.000000000000
736 1 2.400000000000 6.910791691261 29.088000000000 3.658654424785
737 2 -1.200000000000 5.487981637178 28.633500000000 1.829327212393
738 2 -1.200000000000 6.301015953797 27.724500000000 23.781253761104
739 2 -1.200000000000 7.114050270416 26.815500000000 3.048878687321
740 2 -1.200000000000 7.927084587035 25.906500000000 0.609775737464
741 2 -1.200000000000 7.520567428725 30.451500000000 1.829327212393
742 2 -1.200000000000 8.333601745344 29.542500000000 23.781253761104
743 2 -1.200000000000 9.146636061963 28.633500000000 3.048878687321
744 2 -1.200000000000 9.959670378582 27.724500000000 0.609775737464
745 1 2.400000000000 1.626068633238 30.906000000000 19.512823598854
746 1 2.400000000000 4.065171583095 28.179000000000 18.293272123926
747 1 2.400000000000 4.471688741404 31.815000000000 17.073720648997
748 1 2.400000000000 5.284723058023 30.906000000000 20.732375073783
749 2 -1.200000000000 3.861913003940 30.451500000000 18.903047861390
750 2 -1.200000000000 4.674947320559 29.542500000000 16.463944911533
751 2 -1.200000000000 5.487981637178 28.633500000000 20.122599336318
752 2 -1.200000000000 6.301015953797 27.724500000000 17.683496386462
753 2 -1.200000000000 5.894498795487 32.269500000000 18.903047861390
754 2 -1.200000000000 6.707533112106 31.360500000000 16.463944911533
755 2 -1.200000000000 7.520567428725 30.451500000000 20.122599336318
756 2 -1.200000000000 8.333601745344 29.542500000000 17.683496386462
757 1 2.400000000000 3.252137266476 29.088000000000 14.634617699141
758 1 2.400000000000 5.691240216332 26.361000000000 13.415066224212
759 1 2.400000000000 6.097757374642 29.997000000000 12.195514749284
760 1 2.400000000000 6.910791691261 29.088000000000 15.854169174069
761 2 -1.200000000000 5.487981637178 28.633500000000 14.024841961676
762 2 -1.200000000000 6.301015953797 27.724500000000 11.585739011820
763 2 -1.200000000000 7.114050270416 26.815500000000 15.244393436605
764 2 -1.200000000000 7.927084587035 25.906500000000 12.805290486748
765 2 -1.200000000000 7.520567428725 30.451500000000 14.024841961676
766 2 -1.200000000000 8.333601745344 29.542500000000 11.585739011820
767 2 -1.200000000000 9.146636061963 28.633500000000 15.244393436605
768 2 -1.200000000000 9.959670378582 27.724500000000 12.805290486748
769 1 2.400000000000 4.878205899714 27.270000000000 9.756411799427
770 1 2.400000000000 7.317308849570 24.543000000000 8.536860324499
771 1 2.400000000000 7.723826007880 28.179000000000 7.317308849570
772 1 2.400000000000 8.536860324499 27.270000000000 10.975963274355
773 2 -1.200000000000 7.114050270416 26.815500000000 9.146636061963
774 2 -1.200000000000 7.927084587035 25.906500000000 6.707533112106
775 2 -1.200000000000 8.740118903653 24.997500000000 10.366187536891
776 2 -1.200000000000 9.553153220272 24.088500000000 7.927084587035
777 2 -1.200000000000 9.146636061963 28.633500000000 9.146636061963
778 2 -1.200000000000 9.959670378582 27.724500000000 6.707533112106
779 2 -1.200000000000 10.772704695201 26.815500000000 10.366187536891
780 2 -1.200000000000 11.585739011820 25.906500000000 7.927084587035
781 1 2.400000000000 6.504274532951 25.452000000000 4.878205899714
782 1 2.400000000000 8.943377482808 22.725000000000 3.658654424785
783 1 2.400000000000 9.349894641118 26.361000000000 2.439102949857
784 1 2.400000000000 10.162928957737 25.452000000000 6.097757374642
785 2 -1.200000000000 8.740118903653 24.997500000000 4.268430162249
786 2 -1.200000000000 9.553153220272 24.088500000000 1.829327212393
787 2 -1.200000000000 10.366187536891 23.179500000000 5.487981637178
788 2 -1.200000000000 11.179221853510 22.270500000000 3.048878687321
789 2 -1.200000000000 10.772704695201 26.815500000000 4.268430162249
790 2 -1.200000000000 11.585739011820 25.906500000000 1.829327212393
791 2 -1.200000000000 12.398773328439 24.997500000000 5.487981637178
792 2 -1.200000000000 13.211807645058 24.088500000000 3.048878687321
793 1 2.400000000000 8.130343166189 23.634000000000 0.000000000000
794 1 2.400000000000 10.569446116046 20.907000000000 23.171478023639
795 1 2.400000000000 10.975963274355 24.543000000000 21.951926548711
796 1 2.400000000000 11.788997590974 23.634000000000 1.219551474928
797 2 -1.200000000000 10.366187536891 23.179500000000 23.781253761104
798 2 -1.200000000000 11.179221853510 22.270500000000 21.342150811247
799 2 -1.200000000000 11.992256170129 21.361500000000 0.609775737464
800 2 -1.200000000000 12.805290486748 20.452500000000 22.561702286175
801 2 -1.200000000000 12.398773328439 24.997500000000 23.781253761104
802 2 -1.200000000000 13.211807645058 24.088500000000 21.342150811247
803 2 -1.200000000000 14.024841961676 23.179500000000 0.609775737464
804 2 -1.200000000000 14.837876278295 22.270500000000 22.561702286175
805 1 2.400000000000 4.878205899714 27.270000000000 21.951926548711
806 1 2.400000000000 7.317308849570 24.543000000000 20.732375073783
807 1 2.400000000000 7.723826007880 28.179000000000 19.512823598854
808 1 2.400000000000 8.536860324499 27.270000000000 23.171478023639
809 2 -1.200000000000 7.114050270416 26.815500000000 21.342150811247
810 2 -1.200000000000 7.927084587034 25.906500000000 18.903047861390
811 2 -1.200000000000 8.740118903653 24.997500000000 22.561702286175
812 2 -1.200000000000 9.553153220272 24.088500000000 20.122599336318
813 2 -1.200000000000 9.146636061963 28.633500000000 21.342150811247
814 2 -1.200000000000 9.959670378582 27.724500000000 18.903047861390
815 2 -1.200000000000 10.772704695201 26.815500000000 22.561702286175
816 2 -1.200000000000 11.585739011820 25.906500000000 20.122599336318
817 1 2.400000000000 6.504274532951 25.452000000000 17.073720648997
818 1 2.400000000000 8.943377482808 22.725000000000 15.854169174069
819 1 2.400000000000 9.349894641118 26.361000000000 14.634617699141
820 1 2.400000000000 10.162928957737 25.452000000000 18.293272123926
821 2 -1.200000000000 8.740118903653 24.997500000000 16.463944911533
822 2 -1.200000000000 9.553153220272 24.088500000000 14.024841961676
823 2 -1.200000000000 10.366187536891 23.179500000000 17.683496386462
824 2 -1.200000000000 11.179221853510 22.270500000000 15.244393436605
825 2 -1.200000000000 10.772704695201 26.815500000000 16.463944911533
826 2 -1.200000000000 11.585739011820 25.906500000000 14.024841961676
827 2 -1.200000000000 12.398773328439 24.997500000000 17.683496386462
828 2 -1.200000000000 13.211807645058 24.088500000000 15.244393436605
829 1 2.400000000000 8.130343166189 23.634000000000 12.195514749284
830 1 2.400000000000 10.569446116046 20.907000000000 10.975963274355
831 1 2.400000000000 10.975963274355 24.543000000000 9.756411799427
832 1 2.400000000000 11.788997590974 23.634000000000 13.415066224212
833 2 -1.200000000000 10.366187536891 23.179500000000 11.585739011820
834 2 -1.200000000000 11.179221853510 22.270500000000 9.146636061963
835 2 -1.200000000000 11.992256170129 21.361500000000 12.805290486748
836 2 -1.200000000000 12.805290486748 20.452500000000 10.366187536891
837 2 -1.200000000000 12.398773328439 24.997500000000 11.585739011820
838 2 -1.200000000000 13.211807645058 24.088500000000 9.146636061963
839 2 -1.200000000000 14.024841961676 23.179500000000 12.805290486748
840 2 -1.200000000000 14.837876278295 22.270500000000 10.366187536891
841 1 2.400000000000 9.756411799427 21.816000000000 7.317308849570
842 1 2.400000000000 12.195514749284 19.089000000000 6.097757374642
843 1 2.400000000000 12.602031907593 22.725000000000 4.878205899714
844 1 2.400000000000 13.415066224212 21.816000000000 8.536860324499
845 2 -1.200000000000 11.992256170129 21.361500000000 6.707533112106
846 2 -1.200000000000 12.805290486748 20.452500000000 4.268430162249
847 2 -1.200000000000 13.618324803367 19.543500000000 7.927084587035
848 2 -1.200000000000 14.431359119986 18.634500000000 5.487981637178
849 2 -1.200000000000 14.024841961676 23.179500000000 6.707533112106
850 2 -1.200000000000 14.837876278295 22.270500000000 4.268430162249
851 2 -1.200000000000 15.650910594914 21.361500000000 7.927084587035
852 2 -1.200000000000 16.463944911533 20.452500000000 5.487981637178
853 1 2.400000000000 11.382480432665 19.998000000000 2.439102949857
854 1 2.400000000000 13.821583382522 17.271000000000 1.219551474928
855 1 2.400000000000 14.228100540831 20.907000000000 0.000000000000
856 1 2.400000000000 15.041134857450 19.998000000000 3.658654424785
857 2 -1.200000000000 13.618324803367 19.543500000000 1.829327212393
858 2 -1.200000000000 14.431359119986 18.634500000000 23.781253761104
859 2 -1.200000000000 15.244393436605 17.725500000000 3.048878687321
860 2 -1.200000000000 16.057427753224 16.816500000000 0.609775737464
861 2 -1.200000000000 15.650910594914 21.361500000000 1.829327212393
862 2 -1.200000000000 16.463944911533 20.452500000000 23.781253761104
863 2 -1.200000000000 17.276979228152 19.543500000000 3.048878687321
864 2 -1.200000000000 18.090013544771 18.634500000000 0.609775737464
865 1 2.400000000000 9.756411799427 21.816000000000 19.512823598854
866 1 2.400000000000 12.195514749284 19.089000000000 18.293272123926
867 1 2.400000000000 12.602031907593 22.725000000000 17.073720648997
868 1 2.400000000000 13.415066224212 21.816000000000 20.732375073783
869 2 -1.200000000000 11.992256170129 21.361500000000 18.903047861390
870 2 -1.200000000000 12.805290486748 20.452500000000 16.463944911533
871 2 -1.200000000000 13.618324803367 19.543500000000 20.122599336318
872 2 -1.200000000000 14.431359119986 18.634500000000 17.683496386462
873 2 -1.200000000000 14.024841961676 23.179500000000 18.903047861390
874 2 -1.200000000000 14.837876278295 22.270500000000 16.463944911533
875 2 -1.200000000000 15.650910594914 21.361500000000 20.122599336318
876 2 -1.200000000000 16.463944911533 20.452500000000 17.683496386462
877 1 2.400000000000 11.382480432665 19.998000000000 14.634617699141
878 1 2.400000000000 13.821583382522 17.271000000000 13.415066224212
879 1 2.400000000000 14.228100540831 20.907000000000 12.195514749284
880 1 2.400000000000 15.041134857450 19.998000000000 15.854169174069
881 2 -1.200000000000 13.618324803367 19.543500000000 14.024841961676
882 2 -1.200000000000 14.431359119986 18.634500000000 11.585739011820
883 2 -1.200000000000 15.244393436605 17.725500000000 15.244393436605
884 2 -1.200000000000 16.057427753224 16.816500000000 12.805290486748
885 2 -1.200000000000 15.650910594914 21.361500000000 14.024841961676
886 2 -1.200000000000 16.463944911533 20.452500000000 11.585739011820
887 2 -1.200000000000 17.276979228152 19.543500000000 15.244393436605
888 2 -1.200000000000 18.090013544771 18.634500000000 12.805290486748
889 1 2.400000000000 13.008549065903 18.180000000000 9.756411799427
890 1 2.400000000000 15.447652015760 15.453000000000 8.536860324499
891 1 2.400000000000 15.854169174069 19.089000000000 7.317308849570
892 1 2.400000000000 16.667203490688 18.180000000000 10.975963274355
893 2 -1.200000000000 15.244393436605 17.725500000000 9.146636061963
894 2 -1.200000000000 16.057427753224 16.816500000000 6.707533112106
895 2 -1.200000000000 16.870462069843 15.907500000000 10.366187536891
896 2 -1.200000000000 17.683496386462 14.998500000000 7.927084587035
897 2 -1.200000000000 17.276979228152 19.543500000000 9.146636061963
898 2 -1.200000000000 18.090013544771 18.634500000000 6.707533112106
899 2 -1.200000000000 18.903047861390 17.725500000000 10.366187536891
900 2 -1.200000000000 19.716082178009 16.816500000000 7.927084587035
901 1 2.400000000000 14.634617699141 16.362000000000 4.878205899714
902 1 2.400000000000 17.073720648997 13.635000000000 3.658654424785
903 1 2.400000000000 17.480237807307 17.271000000000 2.439102949857
904 1 2.400000000000 18.293272123926 16.362000000000 6.097757374642
905 2 -1.200000000000 16.870462069843 15.907500000000 4.268430162249
906 2 -1.200000000000 17.683496386462 14.998500000000 1.829327212393
907 2 -1.200000000000 18.496530703081 14.089500000000 5.487981637178
908 2 -1.200000000000 19.309565019699 13.180500000000 3.048878687321
909 2 -1.200000000000 18.903047861390 17.725500000000 4.268430162249
910 2 -1.200000000000 19.716082178009 16.816500000000 1.829327212393
911 2 -1.200000000000 20.529116494628 15.907500000000 5.487981637178
912 2 -1.200000000000 21.342150811247 14.998500000000 3.048878687321
913 1 2.400000000000 16.260686332378 14.544000000000 0.000000000000
914 1 2.400000000000 18.699789282235 11.817000000000 23.171478023639
915 1 2.400000000000 19.106306440545 15.453000000000 21.951926548711
916 1 2.400000000000 19.919340757164 14.544000000000 1.219551474928
917 2 -1.200000000000 18.496530703081 14.089500000000 23.781253761104
918 2 -1.200000000000 19.309565019699 13.180500000000 21.342150811247
919 2 -1.200000000000 20.122599336318 12.271500000000 0.609775737464
920 2 -1.200000000000 20.935633652937 11.362500000000 22.561702286175
921 2 -1.200000000000 20.529116494628 15.907500000000 23.781253761104
922 2 -1.200000000000 21.342150811247 14.998500000000 21.342150811247
923 2 -1.200000000000 22.155185127866 14.089500000000 0.609775737464
924 2 -1.200000000000 22.968219444485 13.180500000000 22.561702286175
925 1 2.400000000000 13.008549065903 18.180000000000 21.951926548711
926 1 2.400000000000 15.447652015760 15.453000000000 20.732375073783
927 1 2.400000000000 15.854169174069 19.089000000000 19.512823598854
928 1 2.400000000000 16.667203490688 18.180000000000 23.171478023639
929 2 -1.200000000000 15.244393436605 17.725500000000 21.342150811247
930 2 -1.200000000000 16.057427753224 16.816500000000 18.903047861390
931 2 -1.200000000000 16.870462069843 15.907500000000 22.561702286175
932 2 -1.200000000000 17.683496386462 14.998500000000 20.122599336318
933 2 -1.200000000000 17.276979228152 19.543500000000 21.342150811247
934 2 -1.200000000000 18.090013544771 18.634500000000 18.903047861390
935 2 -1.200000000000 18.903047861390 17.725500000000 22.561702286175
936 2 -1.200000000000 19.716082178009 16.816500000000 20.122599336318
937 1 2.400000000000 14.634617699141 16.362000000000 17.073720648997
938 1 2.400000000000 17.073720648997 13.635000000000 15.854169174069
939 1 2.400000000000 17.480237807307 17.271000000000 14.634617699141
940 1 2.400000000000 18.293272123926 16.362000000000 18.293272123926
941 2 -1.200000000000 16.870462069843 15.907500000000 16.463944911533
942 2 -1.200000000000 17.683496386462 14.998500000000 14.024841961676
943 2 -1.200000000000 18.496530703081 14.089500000000 17.683496386462
944 2 -1.200000000000 19.309565019699 13.180500000000 15.244393436605
945 2 -1.200000000000 18.903047861390 17.725500000000 16.463944911533
946 2 -1.200000000000 19.716082178009 16.816500000000 14.024841961676
947 2 -1.200000000000 20.529116494628 15.907500000000 17.683496386462
948 2 -1.200000000000 21.342150811247 14.998500000000 15.244393436605
949 1 2.400000000000 16.260686332378 14.544000000000 12.195514749284
950 1 2.400000000000 18.699789282235 11.817000000000 10.975963274355
951 1 2.400000000000 19.106306440545 15.453000000000 9.756411799427
952 1 2.400000000000 19.919340757164 14.544000000000 13.415066224212
953 2 -1.200000000000 18.496530703081 14.089500000000 11.585739011820
954 2 -1.200000000000 19.309565019699 13.180500000000 9.146636061963
955 2 -1.200000000000 20.122599336318 12.271500000000 12.805290486748
956 2 -1.200000000000 20.935633652937 11.362500000000 10.366187536891
957 2 -1.200000000000 20.529116494628 15.907500000000 11.585739011820
958 2 -1.200000000000 21.342150811247 14.998500000000 9.146636061963
959 2 -1.200000000000 22.155185127866 14.089500000000 12.805290486748
960 2 -1.200000000000 22.968219444485 13.180500000000 10.366187536891
961 1 2.400000000000 17.886754965616 12.726000000000 7.317308849570
962 1 2.400000000000 20.325857915473 9.999000000000 6.097757374642
963 1 2.400000000000 20.732375073783 13.635000000000 4.878205899714
964 1 2.400000000000 21.545409390401 12.726000000000 8.536860324499
965 2 -1.200000000000 20.122599336318 12.271500000000 6.707533112106
966 2 -1.200000000000 20.935633652937 11.362500000000 4.268430162249
967 2 -1.200000000000 21.748667969556 10.453500000000 7.927084587035
968 2 -1.200000000000 22.561702286175 9.544500000000 5.487981637178
969 2 -1.200000000000 22.155185127866 14.089500000000 6.707533112106
970 2 -1.200000000000 22.968219444485 13.180500000000 4.268430162249
971 2 -1.200000000000 23.781253761104 12.271500000000 7.927084587035
972 2 -1.200000000000 24.594288077722 11.362500000000 5.487981637178
973 1 2.400000000000 19.512823598854 10.908000000000 2.439102949857
974 1 2.400000000000 21.951926548711 8.181000000000 1.219551474928
975 1 2.400000000000 22.358443707020 11.817000000000 0.000000000000
976 1 2.400000000000 23.171478023639 10.908000000000 3.658654424785
977 2 -1.200000000000 21.748667969556 10.453500000000 1.829327212393
978 2 -1.200000000000 22.561702286175 9.544500000000 23.781253761104
979 2 -1.200000000000 23.374736602794 8.635500000000 3.048878687321
980 2 -1.200000000000 24.187770919413 7.726500000000 0.609775737464
981 2 -1.200000000000 23.781253761104 12.271500000000 1.829327212393
982 2 -1.200000000000 24.594288077722 11.362500000000 23.781253761104
983 2 -1.200000000000 25.407322394341 10.453500000000 3.048878687321
984 2 -1.200000000000 26.220356710960 9.544500000000 0.609775737464
985 1 2.400000000000 17.886754965616 12.726000000000 19.512823598854
986 1 2.400000000000 20.325857915473 9.999000000000 18.293272123926
987 1 2.400000000000 20.732375073783 13.635000000000 17.073720648997
988 1 2.400000000000 21.545409390401 12.726000000000 20.732375073783
989 2 -1.200000000000 20.122599336318 12.271500000000 18.903047861390
990 2 -1.200000000000 20.935633652937 11.362500000000 16.463944911533
991 2 -1.200000000000 21.748667969556 10.453500000000 20.122599336318
992 2 -1.200000000000 22.561702286175 9.544500000000 17.683496386462
993 2 -1.200000000000 22.155185127866 14.089500000000 18.903047861390
994 2 -1.200000000000 22.968219444485 13.180500000000 16.463944911533
995 2 -1.200000000000 23.781253761104 12.271500000000 20.122599336318
996 2 -1.200000000000 24.594288077722 11.362500000000 17.683496386462
997 1 2.400000000000 19.512823598854 10.908000000000 14.634617699141
998 1 2.400000000000 21.951926548711 8.181000000000 13.415066224212
999 1 2.400000000000 22.358443707020 11.817000000000 12.195514749284
1000 1 2.400000000000 23.171478023639 10.908000000000 15.854169174069
1001 2 -1.200000000000 21.748667969556 10.453500000000 14.024841961676
1002 2 -1.200000000000 22.561702286175 9.544500000000 11.585739011820
1003 2 -1.200000000000 23.374736602794 8.635500000000 15.244393436605
1004 2 -1.200000000000 24.187770919413 7.726500000000 12.805290486748
1005 2 -1.200000000000 23.781253761104 12.271500000000 14.024841961676
1006 2 -1.200000000000 24.594288077722 11.362500000000 11.585739011820
1007 2 -1.200000000000 25.407322394341 10.453500000000 15.244393436605
1008 2 -1.200000000000 26.220356710960 9.544500000000 12.805290486748
1009 1 2.400000000000 21.138892232092 9.090000000000 9.756411799427
1010 1 2.400000000000 23.577995181949 6.363000000000 8.536860324499
1011 1 2.400000000000 23.984512340258 9.999000000000 7.317308849570
1012 1 2.400000000000 24.797546656877 9.090000000000 10.975963274355
1013 2 -1.200000000000 23.374736602794 8.635500000000 9.146636061963
1014 2 -1.200000000000 24.187770919413 7.726500000000 6.707533112106
1015 2 -1.200000000000 25.000805236032 6.817500000000 10.366187536891
1016 2 -1.200000000000 25.813839552651 5.908500000000 7.927084587035
1017 2 -1.200000000000 25.407322394341 10.453500000000 9.146636061963
1018 2 -1.200000000000 26.220356710960 9.544500000000 6.707533112106
1019 2 -1.200000000000 27.033391027579 8.635500000000 10.366187536891
1020 2 -1.200000000000 27.846425344198 7.726500000000 7.927084587035
1021 1 2.400000000000 22.764960865330 7.272000000000 4.878205899714
1022 1 2.400000000000 25.204063815187 4.545000000000 3.658654424785
1023 1 2.400000000000 25.610580973496 8.181000000000 2.439102949857
1024 1 2.400000000000 26.423615290115 7.272000000000 6.097757374642
1025 2 -1.200000000000 25.000805236032 6.817500000000 4.268430162249
1026 2 -1.200000000000 25.813839552651 5.908500000000 1.829327212393
1027 2 -1.200000000000 26.626873869270 4.999500000000 5.487981637178
1028 2 -1.200000000000 27.439908185889 4.090500000000 3.048878687321
1029 2 -1.200000000000 27.033391027579 8.635500000000 4.268430162249
1030 2 -1.200000000000 27.846425344198 7.726500000000 1.829327212393
1031 2 -1.200000000000 28.659459660817 6.817500000000 5.487981637178
1032 2 -1.200000000000 29.472493977436 5.908500000000 3.048878687321
1033 1 2.400000000000 24.391029498568 5.454000000000 0.000000000000
1034 1 2.400000000000 26.830132448424 2.727000000000 23.171478023639
1035 1 2.400000000000 27.236649606734 6.363000000000 21.951926548711
1036 1 2.400000000000 28.049683923353 5.454000000000 1.219551474928
1037 2 -1.200000000000 26.626873869270 4.999500000000 23.781253761104
1038 2 -1.200000000000 27.439908185889 4.090500000000 21.342150811247
1039 2 -1.200000000000 28.252942502508 3.181500000000 0.609775737464
1040 2 -1.200000000000 29.065976819127 2.272500000000 22.561702286175
1041 2 -1.200000000000 28.659459660817 6.817500000000 23.781253761104
1042 2 -1.200000000000 29.472493977436 5.908500000000 21.342150811247
1043 2 -1.200000000000 30.285528294055 4.999500000000 0.609775737464
1044 2 -1.200000000000 31.098562610674 4.090500000000 22.561702286175
1045 1 2.400000000000 21.138892232092 9.090000000000 21.951926548711
1046 1 2.400000000000 23.577995181949 6.363000000000 20.732375073783
1047 1 2.400000000000 23.984512340258 9.999000000000 19.512823598854
1048 1 2.400000000000 24.797546656877 9.090000000000 23.171478023639
1049 2 -1.200000000000 23.374736602794 8.635500000000 21.342150811247
1050 2 -1.200000000000 24.187770919413 7.726500000000 18.903047861390
1051 2 -1.200000000000 25.000805236032 6.817500000000 22.561702286175
1052 2 -1.200000000000 25.813839552651 5.908500000000 20.122599336318
1053 2 -1.200000000000 25.407322394341 10.453500000000 21.342150811247
1054 2 -1.200000000000 26.220356710960 9.544500000000 18.903047861390
1055 2 -1.200000000000 27.033391027579 8.635500000000 22.561702286175
1056 2 -1.200000000000 27.846425344198 7.726500000000 20.122599336318
1057 1 2.400000000000 22.764960865330 7.272000000000 17.073720648997
1058 1 2.400000000000 25.204063815187 4.545000000000 15.854169174069
1059 1 2.400000000000 25.610580973496 8.181000000000 14.634617699141
1060 1 2.400000000000 26.423615290115 7.272000000000 18.293272123926
1061 2 -1.200000000000 25.000805236032 6.817500000000 16.463944911533
1062 2 -1.200000000000 25.813839552651 5.908500000000 14.024841961676
1063 2 -1.200000000000 26.626873869270 4.999500000000 17.683496386462
1064 2 -1.200000000000 27.439908185889 4.090500000000 15.244393436605
1065 2 -1.200000000000 27.033391027579 8.635500000000 16.463944911533
1066 2 -1.200000000000 27.846425344198 7.726500000000 14.024841961676
1067 2 -1.200000000000 28.659459660817 6.817500000000 17.683496386462
1068 2 -1.200000000000 29.472493977436 5.908500000000 15.244393436605
1069 1 2.400000000000 24.391029498568 5.454000000000 12.195514749284
1070 1 2.400000000000 26.830132448424 2.727000000000 10.975963274355
1071 1 2.400000000000 27.236649606734 6.363000000000 9.756411799427
1072 1 2.400000000000 28.049683923353 5.454000000000 13.415066224212
1073 2 -1.200000000000 26.626873869270 4.999500000000 11.585739011820
1074 2 -1.200000000000 27.439908185889 4.090500000000 9.146636061963
1075 2 -1.200000000000 28.252942502508 3.181500000000 12.805290486748
1076 2 -1.200000000000 29.065976819127 2.272500000000 10.366187536891
1077 2 -1.200000000000 28.659459660817 6.817500000000 11.585739011820
1078 2 -1.200000000000 29.472493977436 5.908500000000 9.146636061963
1079 2 -1.200000000000 30.285528294055 4.999500000000 12.805290486748
1080 2 -1.200000000000 31.098562610674 4.090500000000 10.366187536891
1081 1 2.400000000000 26.017098131806 3.636000000000 7.317308849570
1082 1 2.400000000000 28.456201081662 0.909000000000 6.097757374642
1083 1 2.400000000000 28.862718239972 4.545000000000 4.878205899714
1084 1 2.400000000000 29.675752556591 3.636000000000 8.536860324499
1085 2 -1.200000000000 28.252942502508 3.181500000000 6.707533112106
1086 2 -1.200000000000 29.065976819127 2.272500000000 4.268430162249
1087 2 -1.200000000000 29.879011135745 1.363500000000 7.927084587035
1088 2 -1.200000000000 30.692045452364 0.454500000000 5.487981637178
1089 2 -1.200000000000 30.285528294055 4.999500000000 6.707533112106
1090 2 -1.200000000000 31.098562610674 4.090500000000 4.268430162249
1091 2 -1.200000000000 31.911596927293 3.181500000000 7.927084587035
1092 2 -1.200000000000 32.724631243912 2.272500000000 5.487981637178
1093 1 2.400000000000 27.643166765043 1.818000000000 2.439102949857
1094 1 2.400000000000 30.082269714900 31.815000000000 1.219551474928
1095 1 2.400000000000 30.488786873210 2.727000000000 0.000000000000
1096 1 2.400000000000 31.301821189829 1.818000000000 3.658654424785
1097 2 -1.200000000000 29.879011135745 1.363500000000 1.829327212393
1098 2 -1.200000000000 30.692045452364 0.454500000000 23.781253761104
1099 2 -1.200000000000 31.505079768983 32.269500000000 3.048878687321
1100 2 -1.200000000000 32.318114085602 31.360500000000 0.609775737464
1101 2 -1.200000000000 31.911596927293 3.181500000000 1.829327212393
1102 2 -1.200000000000 32.724631243912 2.272500000000 23.781253761104
1103 2 -1.200000000000 33.537665560531 1.363500000000 3.048878687321
1104 2 -1.200000000000 34.350699877150 0.454500000000 0.609775737464
1105 1 2.400000000000 26.017098131806 3.636000000000 19.512823598854
1106 1 2.400000000000 28.456201081662 0.909000000000 18.293272123926
1107 1 2.400000000000 28.862718239972 4.545000000000 17.073720648997
1108 1 2.400000000000 29.675752556591 3.636000000000 20.732375073783
1109 2 -1.200000000000 28.252942502508 3.181500000000 18.903047861390
1110 2 -1.200000000000 29.065976819127 2.272500000000 16.463944911533
1111 2 -1.200000000000 29.879011135745 1.363500000000 20.122599336318
1112 2 -1.200000000000 30.692045452364 0.454500000000 17.683496386462
1113 2 -1.200000000000 30.285528294055 4.999500000000 18.903047861390
1114 2 -1.200000000000 31.098562610674 4.090500000000 16.463944911533
1115 2 -1.200000000000 31.911596927293 3.181500000000 20.122599336318
1116 2 -1.200000000000 32.724631243912 2.272500000000 17.683496386462
1117 1 2.400000000000 27.643166765043 1.818000000000 14.634617699141
1118 1 2.400000000000 30.082269714900 31.815000000000 13.415066224212
1119 1 2.400000000000 30.488786873210 2.727000000000 12.195514749284
1120 1 2.400000000000 31.301821189829 1.818000000000 15.854169174069
1121 2 -1.200000000000 29.879011135745 1.363500000000 14.024841961676
1122 2 -1.200000000000 30.692045452364 0.454500000000 11.585739011820
1123 2 -1.200000000000 31.505079768983 32.269500000000 15.244393436605
1124 2 -1.200000000000 32.318114085602 31.360500000000 12.805290486748
1125 2 -1.200000000000 31.911596927293 3.181500000000 14.024841961676
1126 2 -1.200000000000 32.724631243912 2.272500000000 11.585739011820
1127 2 -1.200000000000 33.537665560531 1.363500000000 15.244393436605
1128 2 -1.200000000000 34.350699877150 0.454500000000 12.805290486748
1129 1 2.400000000000 29.269235398281 0.000000000000 9.756411799427
1130 1 2.400000000000 31.708338348138 29.997000000000 8.536860324499
1131 1 2.400000000000 32.114855506447 0.909000000000 7.317308849570
1132 1 2.400000000000 32.927889823066 0.000000000000 10.975963274355
1133 2 -1.200000000000 31.505079768983 32.269500000000 9.146636061963
1134 2 -1.200000000000 32.318114085602 31.360500000000 6.707533112106
1135 2 -1.200000000000 33.131148402221 30.451500000000 10.366187536891
1136 2 -1.200000000000 33.944182718840 29.542500000000 7.927084587035
1137 2 -1.200000000000 33.537665560531 1.363500000000 9.146636061963
1138 2 -1.200000000000 34.350699877150 0.454500000000 6.707533112106
1139 2 -1.200000000000 35.163734193768 32.269500000000 10.366187536891
1140 2 -1.200000000000 35.976768510387 31.360500000000 7.927084587035
1141 1 2.400000000000 29.269235398281 0.000000000000 21.951926548711
1142 1 2.400000000000 31.708338348138 29.997000000000 20.732375073783
1143 1 2.400000000000 32.114855506447 0.909000000000 19.512823598854
1144 1 2.400000000000 32.927889823066 0.000000000000 23.171478023639
1145 2 -1.200000000000 31.505079768983 32.269500000000 21.342150811247
1146 2 -1.200000000000 32.318114085602 31.360500000000 18.903047861390
1147 2 -1.200000000000 33.131148402221 30.451500000000 22.561702286175
1148 2 -1.200000000000 33.944182718840 29.542500000000 20.122599336318
1149 2 -1.200000000000 33.537665560531 1.363500000000 21.342150811247
1150 2 -1.200000000000 34.350699877150 0.454500000000 18.903047861390
1151 2 -1.200000000000 35.163734193768 32.269500000000 22.561702286175
1152 2 -1.200000000000 35.976768510387 31.360500000000 20.122599336318
1153 1 2.400000000000 8.943377482808 30.906000000000 9.756411799427
1154 1 2.400000000000 11.382480432665 28.179000000000 8.536860324499
1155 1 2.400000000000 11.788997590974 31.815000000000 7.317308849570
1156 1 2.400000000000 12.602031907593 30.906000000000 10.975963274355
1157 2 -1.200000000000 11.179221853510 30.451500000000 9.146636061963
1158 2 -1.200000000000 11.992256170129 29.542500000000 6.707533112106
1159 2 -1.200000000000 12.805290486748 28.633500000000 10.366187536891
1160 2 -1.200000000000 13.618324803367 27.724500000000 7.927084587035
1161 2 -1.200000000000 13.211807645058 32.269500000000 9.146636061963
1162 2 -1.200000000000 14.024841961676 31.360500000000 6.707533112106
1163 2 -1.200000000000 14.837876278295 30.451500000000 10.366187536891
1164 2 -1.200000000000 15.650910594914 29.542500000000 7.927084587035
1165 1 2.400000000000 10.569446116046 29.088000000000 4.878205899714
1166 1 2.400000000000 13.008549065903 26.361000000000 3.658654424785
1167 1 2.400000000000 13.415066224212 29.997000000000 2.439102949857
1168 1 2.400000000000 14.228100540831 29.088000000000 6.097757374642
1169 2 -1.200000000000 12.805290486748 28.633500000000 4.268430162249
1170 2 -1.200000000000 13.618324803367 27.724500000000 1.829327212393
1171 2 -1.200000000000 14.431359119986 26.815500000000 5.487981637178
1172 2 -1.200000000000 15.244393436605 25.906500000000 3.048878687321
1173 2 -1.200000000000 14.837876278295 30.451500000000 4.268430162249
1174 2 -1.200000000000 15.650910594914 29.542500000000 1.829327212393
1175 2 -1.200000000000 16.463944911533 28.633500000000 5.487981637178
1176 2 -1.200000000000 17.276979228152 27.724500000000 3.048878687321
1177 1 2.400000000000 12.195514749284 27.270000000000 0.000000000000
1178 1 2.400000000000 14.634617699141 24.543000000000 23.171478023639
1179 1 2.400000000000 15.041134857450 28.179000000000 21.951926548711
1180 1 2.400000000000 15.854169174069 27.270000000000 1.219551474928
1181 2 -1.200000000000 14.431359119986 26.815500000000 23.781253761104
1182 2 -1.200000000000 15.244393436605 25.906500000000 21.342150811247
1183 2 -1.200000000000 16.057427753224 24.997500000000 0.609775737464
1184 2 -1.200000000000 16.870462069843 24.088500000000 22.561702286175
1185 2 -1.200000000000 16.463944911533 28.633500000000 23.781253761104
1186 2 -1.200000000000 17.276979228152 27.724500000000 21.342150811247
1187 2 -1.200000000000 18.090013544771 26.815500000000 0.609775737464
1188 2 -1.200000000000 18.903047861390 25.906500000000 22.561702286175
1189 1 2.400000000000 8.943377482808 30.906000000000 21.951926548711
1190 1 2.400000000000 11.382480432665 28.179000000000 20.732375073783
1191 1 2.400000000000 11.788997590974 31.815000000000 19.512823598854
1192 1 2.400000000000 12.602031907593 30.906000000000 23.171478023639
1193 2 -1.200000000000 11.179221853510 30.451500000000 21.342150811247
1194 2 -1.200000000000 11.992256170129 29.542500000000 18.903047861390
1195 2 -1.200000000000 12.805290486748 28.633500000000 22.561702286175
1196 2 -1.200000000000 13.618324803367 27.724500000000 20.122599336318
1197 2 -1.200000000000 13.211807645058 32.269500000000 21.342150811247
1198 2 -1.200000000000 14.024841961676 31.360500000000 18.903047861390
1199 2 -1.200000000000 14.837876278295 30.451500000000 22.561702286175
1200 2 -1.200000000000 15.650910594914 29.542500000000 20.122599336318
1201 1 2.400000000000 10.569446116046 29.088000000000 17.073720648997
1202 1 2.400000000000 13.008549065903 26.361000000000 15.854169174069
1203 1 2.400000000000 13.415066224212 29.997000000000 14.634617699141
1204 1 2.400000000000 14.228100540831 29.088000000000 18.293272123926
1205 2 -1.200000000000 12.805290486748 28.633500000000 16.463944911533
1206 2 -1.200000000000 13.618324803367 27.724500000000 14.024841961676
1207 2 -1.200000000000 14.431359119986 26.815500000000 17.683496386462
1208 2 -1.200000000000 15.244393436605 25.906500000000 15.244393436605
1209 2 -1.200000000000 14.837876278295 30.451500000000 16.463944911533
1210 2 -1.200000000000 15.650910594914 29.542500000000 14.024841961676
1211 2 -1.200000000000 16.463944911533 28.633500000000 17.683496386462
1212 2 -1.200000000000 17.276979228152 27.724500000000 15.244393436605
1213 1 2.400000000000 12.195514749284 27.270000000000 12.195514749284
1214 1 2.400000000000 14.634617699141 24.543000000000 10.975963274355
1215 1 2.400000000000 15.041134857450 28.179000000000 9.756411799427
1216 1 2.400000000000 15.854169174069 27.270000000000 13.415066224212
1217 2 -1.200000000000 14.431359119986 26.815500000000 11.585739011820
1218 2 -1.200000000000 15.244393436605 25.906500000000 9.146636061963
1219 2 -1.200000000000 16.057427753224 24.997500000000 12.805290486748
1220 2 -1.200000000000 16.870462069843 24.088500000000 10.366187536891
1221 2 -1.200000000000 16.463944911533 28.633500000000 11.585739011820
1222 2 -1.200000000000 17.276979228152 27.724500000000 9.146636061963
1223 2 -1.200000000000 18.090013544771 26.815500000000 12.805290486748
1224 2 -1.200000000000 18.903047861390 25.906500000000 10.366187536891
1225 1 2.400000000000 13.821583382522 25.452000000000 7.317308849570
1226 1 2.400000000000 16.260686332378 22.725000000000 6.097757374642
1227 1 2.400000000000 16.667203490688 26.361000000000 4.878205899714
1228 1 2.400000000000 17.480237807307 25.452000000000 8.536860324499
1229 2 -1.200000000000 16.057427753224 24.997500000000 6.707533112106
1230 2 -1.200000000000 16.870462069843 24.088500000000 4.268430162249
1231 2 -1.200000000000 17.683496386462 23.179500000000 7.927084587035
1232 2 -1.200000000000 18.496530703081 22.270500000000 5.487981637178
1233 2 -1.200000000000 18.090013544771 26.815500000000 6.707533112106
1234 2 -1.200000000000 18.903047861390 25.906500000000 4.268430162249
1235 2 -1.200000000000 19.716082178009 24.997500000000 7.927084587035
1236 2 -1.200000000000 20.529116494628 24.088500000000 5.487981637178
1237 1 2.400000000000 15.447652015760 23.634000000000 2.439102949857
1238 1 2.400000000000 17.886754965616 20.907000000000 1.219551474928
1239 1 2.400000000000 18.293272123926 24.543000000000 0.000000000000
1240 1 2.400000000000 19.106306440545 23.634000000000 3.658654424785
1241 2 -1.200000000000 17.683496386462 23.179500000000 1.829327212393
1242 2 -1.200000000000 18.496530703081 22.270500000000 23.781253761104
1243 2 -1.200000000000 19.309565019699 21.361500000000 3.048878687321
1244 2 -1.200000000000 20.122599336318 20.452500000000 0.609775737464
1245 2 -1.200000000000 19.716082178009 24.997500000000 1.829327212393
1246 2 -1.200000000000 20.529116494628 24.088500000000 23.781253761104
1247 2 -1.200000000000 21.342150811247 23.179500000000 3.048878687321
1248 2 -1.200000000000 22.155185127866 22.270500000000 0.609775737464
1249 1 2.400000000000 13.821583382522 25.452000000000 19.512823598854
1250 1 2.400000000000 16.260686332378 22.725000000000 18.293272123926
1251 1 2.400000000000 16.667203490688 26.361000000000 17.073720648997
1252 1 2.400000000000 17.480237807307 25.452000000000 20.732375073783
1253 2 -1.200000000000 16.057427753224 24.997500000000 18.903047861390
1254 2 -1.200000000000 16.870462069843 24.088500000000 16.463944911533
1255 2 -1.200000000000 17.683496386462 23.179500000000 20.122599336318
1256 2 -1.200000000000 18.496530703081 22.270500000000 17.683496386462
1257 2 -1.200000000000 18.090013544771 26.815500000000 18.903047861390
1258 2 -1.200000000000 18.903047861390 25.906500000000 16.463944911533
1259 2 -1.200000000000 19.716082178009 24.997500000000 20.122599336318
1260 2 -1.200000000000 20.529116494628 24.088500000000 17.683496386462
1261 1 2.400000000000 15.447652015760 23.634000000000 14.634617699141
1262 1 2.400000000000 17.886754965616 20.907000000000 13.415066224212
1263 1 2.400000000000 18.293272123926 24.543000000000 12.195514749284
1264 1 2.400000000000 19.106306440545 23.634000000000 15.854169174069
1265 2 -1.200000000000 17.683496386462 23.179500000000 14.024841961676
1266 2 -1.200000000000 18.496530703081 22.270500000000 11.585739011820
1267 2 -1.200000000000 19.309565019699 21.361500000000 15.244393436605
1268 2 -1.200000000000 20.122599336318 20.452500000000 12.805290486748
1269 2 -1.200000000000 19.716082178009 24.997500000000 14.024841961676
1270 2 -1.200000000000 20.529116494628 24.088500000000 11.585739011820
1271 2 -1.200000000000 21.342150811247 23.179500000000 15.244393436605
1272 2 -1.200000000000 22.155185127866 22.270500000000 12.805290486748
1273 1 2.400000000000 17.073720648997 21.816000000000 9.756411799427
1274 1 2.400000000000 19.512823598854 19.089000000000 8.536860324499
1275 1 2.400000000000 19.919340757164 22.725000000000 7.317308849570
1276 1 2.400000000000 20.732375073783 21.816000000000 10.975963274355
1277 2 -1.200000000000 19.309565019699 21.361500000000 9.146636061963
1278 2 -1.200000000000 20.122599336318 20.452500000000 6.707533112106
1279 2 -1.200000000000 20.935633652937 19.543500000000 10.366187536891
1280 2 -1.200000000000 21.748667969556 18.634500000000 7.927084587035
1281 2 -1.200000000000 21.342150811247 23.179500000000 9.146636061963
1282 2 -1.200000000000 22.155185127866 22.270500000000 6.707533112106
1283 2 -1.200000000000 22.968219444485 21.361500000000 10.366187536891
1284 2 -1.200000000000 23.781253761104 20.452500000000 7.927084587035
1285 1 2.400000000000 18.699789282235 19.998000000000 4.878205899714
1286 1 2.400000000000 21.138892232092 17.271000000000 3.658654424785
1287 1 2.400000000000 21.545409390401 20.907000000000 2.439102949857
1288 1 2.400000000000 22.358443707020 19.998000000000 6.097757374642
1289 2 -1.200000000000 20.935633652937 19.543500000000 4.268430162249
1290 2 -1.200000000000 21.748667969556 18.634500000000 1.829327212393
1291 2 -1.200000000000 22.561702286175 17.725500000000 5.487981637178
1292 2 -1.200000000000 23.374736602794 16.816500000000 3.048878687321
1293 2 -1.200000000000 22.968219444485 21.361500000000 4.268430162249
1294 2 -1.200000000000 23.781253761104 20.452500000000 1.829327212393
1295 2 -1.200000000000 24.594288077722 19.543500000000 5.487981637178
1296 2 -1.200000000000 25.407322394341 18.634500000000 3.048878687321
1297 1 2.400000000000 20.325857915473 18.180000000000 0.000000000000
1298 1 2.400000000000 22.764960865330 15.453000000000 23.171478023639
1299 1 2.400000000000 23.171478023639 19.089000000000 21.951926548711
1300 1 2.400000000000 23.984512340258 18.180000000000 1.219551474928
1301 2 -1.200000000000 22.561702286175 17.725500000000 23.781253761104
1302 2 -1.200000000000 23.374736602794 16.816500000000 21.342150811247
1303 2 -1.200000000000 24.187770919413 15.907500000000 0.609775737464
1304 2 -1.200000000000 25.000805236032 14.998500000000 22.561702286175
1305 2 -1.200000000000 24.594288077722 19.543500000000 23.781253761104
1306 2 -1.200000000000 25.407322394341 18.634500000000 21.342150811247
1307 2 -1.200000000000 26.220356710960 17.725500000000 0.609775737464
1308 2 -1.200000000000 27.033391027579 16.816500000000 22.561702286175
1309 1 2.400000000000 17.073720648997 21.816000000000 21.951926548711
1310 1 2.400000000000 19.512823598854 19.089000000000 20.732375073783
1311 1 2.400000000000 19.919340757164 22.725000000000 19.512823598854
1312 1 2.400000000000 20.732375073783 21.816000000000 23.171478023639
1313 2 -1.200000000000 19.309565019699 21.361500000000 21.342150811247
1314 2 -1.200000000000 20.122599336318 20.452500000000 18.903047861390
1315 2 -1.200000000000 20.935633652937 19.543500000000 22.561702286175
1316 2 -1.200000000000 21.748667969556 18.634500000000 20.122599336318
1317 2 -1.200000000000 21.342150811247 23.179500000000 21.342150811247
1318 2 -1.200000000000 22.155185127866 22.270500000000 18.903047861390
1319 2 -1.200000000000 22.968219444485 21.361500000000 22.561702286175
1320 2 -1.200000000000 23.781253761104 20.452500000000 20.122599336318
1321 1 2.400000000000 18.699789282235 19.998000000000 17.073720648997
1322 1 2.400000000000 21.138892232092 17.271000000000 15.854169174069
1323 1 2.400000000000 21.545409390401 20.907000000000 14.634617699141
1324 1 2.400000000000 22.358443707020 19.998000000000 18.293272123926
1325 2 -1.200000000000 20.935633652937 19.543500000000 16.463944911533
1326 2 -1.200000000000 21.748667969556 18.634500000000 14.024841961676
1327 2 -1.200000000000 22.561702286175 17.725500000000 17.683496386462
1328 2 -1.200000000000 23.374736602794 16.816500000000 15.244393436605
1329 2 -1.200000000000 22.968219444485 21.361500000000 16.463944911533
1330 2 -1.200000000000 23.781253761104 20.452500000000 14.024841961676
1331 2 -1.200000000000 24.594288077722 19.543500000000 17.683496386462
1332 2 -1.200000000000 25.407322394341 18.634500000000 15.244393436605
1333 1 2.400000000000 20.325857915473 18.180000000000 12.195514749284
1334 1 2.400000000000 22.764960865330 15.453000000000 10.975963274355
1335 1 2.400000000000 23.171478023639 19.089000000000 9.756411799427
1336 1 2.400000000000 23.984512340258 18.180000000000 13.415066224212
1337 2 -1.200000000000 22.561702286175 17.725500000000 11.585739011820
1338 2 -1.200000000000 23.374736602794 16.816500000000 9.146636061963
1339 2 -1.200000000000 24.187770919413 15.907500000000 12.805290486748
1340 2 -1.200000000000 25.000805236032 14.998500000000 10.366187536891
1341 2 -1.200000000000 24.594288077722 19.543500000000 11.585739011820
1342 2 -1.200000000000 25.407322394341 18.634500000000 9.146636061963
1343 2 -1.200000000000 26.220356710960 17.725500000000 12.805290486748
1344 2 -1.200000000000 27.033391027579 16.816500000000 10.366187536891
1345 1 2.400000000000 21.951926548711 16.362000000000 7.317308849570
1346 1 2.400000000000 24.391029498568 13.635000000000 6.097757374642
1347 1 2.400000000000 24.797546656877 17.271000000000 4.878205899714
1348 1 2.400000000000 25.610580973496 16.362000000000 8.536860324499
1349 2 -1.200000000000 24.187770919413 15.907500000000 6.707533112106
1350 2 -1.200000000000 25.000805236032 14.998500000000 4.268430162249
1351 2 -1.200000000000 25.813839552651 14.089500000000 7.927084587035
1352 2 -1.200000000000 26.626873869270 13.180500000000 5.487981637178
1353 2 -1.200000000000 26.220356710960 17.725500000000 6.707533112106
1354 2 -1.200000000000 27.033391027579 16.816500000000 4.268430162249
1355 2 -1.200000000000 27.846425344198 15.907500000000 7.927084587035
1356 2 -1.200000000000 28.659459660817 14.998500000000 5.487981637178
1357 1 2.400000000000 23.577995181949 14.544000000000 2.439102949857
1358 1 2.400000000000 26.017098131806 11.817000000000 1.219551474928
1359 1 2.400000000000 26.423615290115 15.453000000000 0.000000000000
1360 1 2.400000000000 27.236649606734 14.544000000000 3.658654424785
1361 2 -1.200000000000 25.813839552651 14.089500000000 1.829327212393
1362 2 -1.200000000000 26.626873869270 13.180500000000 23.781253761104
1363 2 -1.200000000000 27.439908185889 12.271500000000 3.048878687321
1364 2 -1.200000000000 28.252942502508 11.362500000000 0.609775737464
1365 2 -1.200000000000 27.846425344198 15.907500000000 1.829327212393
1366 2 -1.200000000000 28.659459660817 14.998500000000 23.781253761104
1367 2 -1.200000000000 29.472493977436 14.089500000000 3.048878687321
1368 2 -1.200000000000 30.285528294055 13.180500000000 0.609775737464
1369 1 2.400000000000 21.951926548711 16.362000000000 19.512823598854
1370 1 2.400000000000 24.391029498568 13.635000000000 18.293272123926
1371 1 2.400000000000 24.797546656877 17.271000000000 17.073720648997
1372 1 2.400000000000 25.610580973496 16.362000000000 20.732375073783
1373 2 -1.200000000000 24.187770919413 15.907500000000 18.903047861390
1374 2 -1.200000000000 25.000805236032 14.998500000000 16.463944911533
1375 2 -1.200000000000 25.813839552651 14.089500000000 20.122599336318
1376 2 -1.200000000000 26.626873869270 13.180500000000 17.683496386462
1377 2 -1.200000000000 26.220356710960 17.725500000000 18.903047861390
1378 2 -1.200000000000 27.033391027579 16.816500000000 16.463944911533
1379 2 -1.200000000000 27.846425344198 15.907500000000 20.122599336318
1380 2 -1.200000000000 28.659459660817 14.998500000000 17.683496386462
1381 1 2.400000000000 23.577995181949 14.544000000000 14.634617699141
1382 1 2.400000000000 26.017098131806 11.817000000000 13.415066224212
1383 1 2.400000000000 26.423615290115 15.453000000000 12.195514749284
1384 1 2.400000000000 27.236649606734 14.544000000000 15.854169174069
1385 2 -1.200000000000 25.813839552651 14.089500000000 14.024841961676
1386 2 -1.200000000000 26.626873869270 13.180500000000 11.585739011820
1387 2 -1.200000000000 27.439908185889 12.271500000000 15.244393436605
1388 2 -1.200000000000 28.252942502508 11.362500000000 12.805290486748
1389 2 -1.200000000000 27.846425344198 15.907500000000 14.024841961676
1390 2 -1.200000000000 28.659459660817 14.998500000000 11.585739011820
1391 2 -1.200000000000 29.472493977436 14.089500000000 15.244393436605
1392 2 -1.200000000000 30.285528294055 13.180500000000 12.805290486748
1393 1 2.400000000000 25.204063815187 12.726000000000 9.756411799427
1394 1 2.400000000000 27.643166765043 9.999000000000 8.536860324499
1395 1 2.400000000000 28.049683923353 13.635000000000 7.317308849570
1396 1 2.400000000000 28.862718239972 12.726000000000 10.975963274355
1397 2 -1.200000000000 27.439908185889 12.271500000000 9.146636061963
1398 2 -1.200000000000 28.252942502508 11.362500000000 6.707533112106
1399 2 -1.200000000000 29.065976819127 10.453500000000 10.366187536891
1400 2 -1.200000000000 29.879011135745 9.544500000000 7.927084587035
1401 2 -1.200000000000 29.472493977436 14.089500000000 9.146636061963
1402 2 -1.200000000000 30.285528294055 13.180500000000 6.707533112106
1403 2 -1.200000000000 31.098562610674 12.271500000000 10.366187536891
1404 2 -1.200000000000 31.911596927293 11.362500000000 7.927084587035
1405 1 2.400000000000 26.830132448424 10.908000000000 4.878205899714
1406 1 2.400000000000 29.269235398281 8.181000000000 3.658654424785
1407 1 2.400000000000 29.675752556591 11.817000000000 2.439102949857
1408 1 2.400000000000 30.488786873210 10.908000000000 6.097757374642
1409 2 -1.200000000000 29.065976819127 10.453500000000 4.268430162249
1410 2 -1.200000000000 29.879011135745 9.544500000000 1.829327212393
1411 2 -1.200000000000 30.692045452364 8.635500000000 5.487981637178
1412 2 -1.200000000000 31.505079768983 7.726500000000 3.048878687321
1413 2 -1.200000000000 31.098562610674 12.271500000000 4.268430162249
1414 2 -1.200000000000 31.911596927293 11.362500000000 1.829327212393
1415 2 -1.200000000000 32.724631243912 10.453500000000 5.487981637178
1416 2 -1.200000000000 33.537665560531 9.544500000000 3.048878687321
1417 1 2.400000000000 28.456201081662 9.090000000000 0.000000000000
1418 1 2.400000000000 30.895304031519 6.363000000000 23.171478023639
1419 1 2.400000000000 31.301821189829 9.999000000000 21.951926548711
1420 1 2.400000000000 32.114855506447 9.090000000000 1.219551474928
1421 2 -1.200000000000 30.692045452364 8.635500000000 23.781253761104
1422 2 -1.200000000000 31.505079768983 7.726500000000 21.342150811247
1423 2 -1.200000000000 32.318114085602 6.817500000000 0.609775737464
1424 2 -1.200000000000 33.131148402221 5.908500000000 22.561702286175
1425 2 -1.200000000000 32.724631243912 10.453500000000 23.781253761104
1426 2 -1.200000000000 33.537665560531 9.544500000000 21.342150811247
1427 2 -1.200000000000 34.350699877150 8.635500000000 0.609775737464
1428 2 -1.200000000000 35.163734193768 7.726500000000 22.561702286175
1429 1 2.400000000000 25.204063815187 12.726000000000 21.951926548711
1430 1 2.400000000000 27.643166765043 9.999000000000 20.732375073783
1431 1 2.400000000000 28.049683923353 13.635000000000 19.512823598854
1432 1 2.400000000000 28.862718239972 12.726000000000 23.171478023639
1433 2 -1.200000000000 27.439908185889 12.271500000000 21.342150811247
1434 2 -1.200000000000 28.252942502508 11.362500000000 18.903047861390
1435 2 -1.200000000000 29.065976819127 10.453500000000 22.561702286175
1436 2 -1.200000000000 29.879011135745 9.544500000000 20.122599336318
1437 2 -1.200000000000 29.472493977436 14.089500000000 21.342150811247
1438 2 -1.200000000000 30.285528294055 13.180500000000 18.903047861390
1439 2 -1.200000000000 31.098562610674 12.271500000000 22.561702286175
1440 2 -1.200000000000 31.911596927293 11.362500000000 20.122599336318
1441 1 2.400000000000 26.830132448424 10.908000000000 17.073720648997
1442 1 2.400000000000 29.269235398281 8.181000000000 15.854169174069
1443 1 2.400000000000 29.675752556591 11.817000000000 14.634617699141
1444 1 2.400000000000 30.488786873210 10.908000000000 18.293272123926
1445 2 -1.200000000000 29.065976819127 10.453500000000 16.463944911533
1446 2 -1.200000000000 29.879011135745 9.544500000000 14.024841961676
1447 2 -1.200000000000 30.692045452364 8.635500000000 17.683496386462
1448 2 -1.200000000000 31.505079768983 7.726500000000 15.244393436605
1449 2 -1.200000000000 31.098562610674 12.271500000000 16.463944911533
1450 2 -1.200000000000 31.911596927293 11.362500000000 14.024841961676
1451 2 -1.200000000000 32.724631243912 10.453500000000 17.683496386462
1452 2 -1.200000000000 33.537665560531 9.544500000000 15.244393436605
1453 1 2.400000000000 28.456201081662 9.090000000000 12.195514749284
1454 1 2.400000000000 30.895304031519 6.363000000000 10.975963274355
1455 1 2.400000000000 31.301821189829 9.999000000000 9.756411799427
1456 1 2.400000000000 32.114855506447 9.090000000000 13.415066224212
1457 2 -1.200000000000 30.692045452364 8.635500000000 11.585739011820
1458 2 -1.200000000000 31.505079768983 7.726500000000 9.146636061963
1459 2 -1.200000000000 32.318114085602 6.817500000000 12.805290486748
1460 2 -1.200000000000 33.131148402221 5.908500000000 10.366187536891
1461 2 -1.200000000000 32.724631243912 10.453500000000 11.585739011820
1462 2 -1.200000000000 33.537665560531 9.544500000000 9.146636061963
1463 2 -1.200000000000 34.350699877150 8.635500000000 12.805290486748
1464 2 -1.200000000000 35.163734193768 7.726500000000 10.366187536891
1465 1 2.400000000000 30.082269714900 7.272000000000 7.317308849570
1466 1 2.400000000000 32.521372664757 4.545000000000 6.097757374642
1467 1 2.400000000000 32.927889823066 8.181000000000 4.878205899714
1468 1 2.400000000000 33.740924139685 7.272000000000 8.536860324499
1469 2 -1.200000000000 32.318114085602 6.817500000000 6.707533112106
1470 2 -1.200000000000 33.131148402221 5.908500000000 4.268430162249
1471 2 -1.200000000000 33.944182718840 4.999500000000 7.927084587035
1472 2 -1.200000000000 34.757217035459 4.090500000000 5.487981637178
1473 2 -1.200000000000 34.350699877150 8.635500000000 6.707533112106
1474 2 -1.200000000000 35.163734193768 7.726500000000 4.268430162249
1475 2 -1.200000000000 35.976768510387 6.817500000000 7.927084587035
1476 2 -1.200000000000 36.789802827006 5.908500000000 5.487981637178
1477 1 2.400000000000 31.708338348138 5.454000000000 2.439102949857
1478 1 2.400000000000 34.147441297995 2.727000000000 1.219551474928
1479 1 2.400000000000 34.553958456304 6.363000000000 0.000000000000
1480 1 2.400000000000 35.366992772923 5.454000000000 3.658654424785
1481 2 -1.200000000000 33.944182718840 4.999500000000 1.829327212393
1482 2 -1.200000000000 34.757217035459 4.090500000000 23.781253761104
1483 2 -1.200000000000 35.570251352078 3.181500000000 3.048878687321
1484 2 -1.200000000000 36.383285668697 2.272500000000 0.609775737464
1485 2 -1.200000000000 35.976768510387 6.817500000000 1.829327212393
1486 2 -1.200000000000 36.789802827006 5.908500000000 23.781253761104
1487 2 -1.200000000000 37.602837143625 4.999500000000 3.048878687321
1488 2 -1.200000000000 38.415871460244 4.090500000000 0.609775737464
1489 1 2.400000000000 30.082269714900 7.272000000000 19.512823598854
1490 1 2.400000000000 32.521372664757 4.545000000000 18.293272123926
1491 1 2.400000000000 32.927889823066 8.181000000000 17.073720648997
1492 1 2.400000000000 33.740924139685 7.272000000000 20.732375073783
1493 2 -1.200000000000 32.318114085602 6.817500000000 18.903047861390
1494 2 -1.200000000000 33.131148402221 5.908500000000 16.463944911533
1495 2 -1.200000000000 33.944182718840 4.999500000000 20.122599336318
1496 2 -1.200000000000 34.757217035459 4.090500000000 17.683496386462
1497 2 -1.200000000000 34.350699877150 8.635500000000 18.903047861390
1498 2 -1.200000000000 35.163734193768 7.726500000000 16.463944911533
1499 2 -1.200000000000 35.976768510387 6.817500000000 20.122599336318
1500 2 -1.200000000000 36.789802827006 5.908500000000 17.683496386462
1501 1 2.400000000000 31.708338348138 5.454000000000 14.634617699141
1502 1 2.400000000000 34.147441297995 2.727000000000 13.415066224212
1503 1 2.400000000000 34.553958456304 6.363000000000 12.195514749284
1504 1 2.400000000000 35.366992772923 5.454000000000 15.854169174069
1505 2 -1.200000000000 33.944182718840 4.999500000000 14.024841961676
1506 2 -1.200000000000 34.757217035459 4.090500000000 11.585739011820
1507 2 -1.200000000000 35.570251352078 3.181500000000 15.244393436605
1508 2 -1.200000000000 36.383285668697 2.272500000000 12.805290486748
1509 2 -1.200000000000 35.976768510387 6.817500000000 14.024841961676
1510 2 -1.200000000000 36.789802827006 5.908500000000 11.585739011820
1511 2 -1.200000000000 37.602837143625 4.999500000000 15.244393436605
1512 2 -1.200000000000 38.415871460244 4.090500000000 12.805290486748
1513 1 2.400000000000 33.334406981376 3.636000000000 9.756411799427
1514 1 2.400000000000 35.773509931233 0.909000000000 8.536860324499
1515 1 2.400000000000 36.180027089542 4.545000000000 7.317308849570
1516 1 2.400000000000 36.993061406161 3.636000000000 10.975963274355
1517 2 -1.200000000000 35.570251352078 3.181500000000 9.146636061963
1518 2 -1.200000000000 36.383285668697 2.272500000000 6.707533112106
1519 2 -1.200000000000 37.196319985316 1.363500000000 10.366187536891
1520 2 -1.200000000000 38.009354301935 0.454500000000 7.927084587035
1521 2 -1.200000000000 37.602837143625 4.999500000000 9.146636061963
1522 2 -1.200000000000 38.415871460244 4.090500000000 6.707533112106
1523 2 -1.200000000000 39.228905776863 3.181500000000 10.366187536891
1524 2 -1.200000000000 40.041940093482 2.272500000000 7.927084587035
1525 1 2.400000000000 34.960475614614 1.818000000000 4.878205899714
1526 1 2.400000000000 37.399578564470 31.815000000000 3.658654424785
1527 1 2.400000000000 37.806095722780 2.727000000000 2.439102949857
1528 1 2.400000000000 38.619130039399 1.818000000000 6.097757374642
1529 2 -1.200000000000 37.196319985316 1.363500000000 4.268430162249
1530 2 -1.200000000000 38.009354301935 0.454500000000 1.829327212393
1531 2 -1.200000000000 38.822388618554 32.269500000000 5.487981637178
1532 2 -1.200000000000 39.635422935173 31.360500000000 3.048878687321
1533 2 -1.200000000000 39.228905776863 3.181500000000 4.268430162249
1534 2 -1.200000000000 40.041940093482 2.272500000000 1.829327212393
1535 2 -1.200000000000 40.854974410101 1.363500000000 5.487981637178
1536 2 -1.200000000000 41.668008726720 0.454500000000 3.048878687321
1537 1 2.400000000000 36.586544247852 0.000000000000 0.000000000000
1538 1 2.400000000000 39.025647197708 29.997000000000 23.171478023639
1539 1 2.400000000000 39.432164356018 0.909000000000 21.951926548711
1540 1 2.400000000000 40.245198672637 0.000000000000 1.219551474928
1541 2 -1.200000000000 38.822388618554 32.269500000000 23.781253761104
1542 2 -1.200000000000 39.635422935173 31.360500000000 21.342150811247
1543 2 -1.200000000000 40.448457251791 30.451500000000 0.609775737464
1544 2 -1.200000000000 41.261491568410 29.542500000000 22.561702286175
1545 2 -1.200000000000 40.854974410101 1.363500000000 23.781253761104
1546 2 -1.200000000000 41.668008726720 0.454500000000 21.342150811247
1547 2 -1.200000000000 42.481043043339 32.269500000000 0.609775737464
1548 2 -1.200000000000 43.294077359958 31.360500000000 22.561702286175
1549 1 2.400000000000 33.334406981376 3.636000000000 21.951926548711
1550 1 2.400000000000 35.773509931233 0.909000000000 20.732375073783
1551 1 2.400000000000 36.180027089542 4.545000000000 19.512823598854
1552 1 2.400000000000 36.993061406161 3.636000000000 23.171478023639
1553 2 -1.200000000000 35.570251352078 3.181500000000 21.342150811247
1554 2 -1.200000000000 36.383285668697 2.272500000000 18.903047861390
1555 2 -1.200000000000 37.196319985316 1.363500000000 22.561702286175
1556 2 -1.200000000000 38.009354301935 0.454500000000 20.122599336318
1557 2 -1.200000000000 37.602837143625 4.999500000000 21.342150811247
1558 2 -1.200000000000 38.415871460244 4.090500000000 18.903047861390
1559 2 -1.200000000000 39.228905776863 3.181500000000 22.561702286175
1560 2 -1.200000000000 40.041940093482 2.272500000000 20.122599336318
1561 1 2.400000000000 34.960475614614 1.818000000000 17.073720648997
1562 1 2.400000000000 37.399578564470 31.815000000000 15.854169174069
1563 1 2.400000000000 37.806095722780 2.727000000000 14.634617699141
1564 1 2.400000000000 38.619130039399 1.818000000000 18.293272123926
1565 2 -1.200000000000 37.196319985316 1.363500000000 16.463944911533
1566 2 -1.200000000000 38.009354301935 0.454500000000 14.024841961676
1567 2 -1.200000000000 38.822388618554 32.269500000000 17.683496386462
1568 2 -1.200000000000 39.635422935173 31.360500000000 15.244393436605
1569 2 -1.200000000000 39.228905776863 3.181500000000 16.463944911533
1570 2 -1.200000000000 40.041940093482 2.272500000000 14.024841961676
1571 2 -1.200000000000 40.854974410101 1.363500000000 17.683496386462
1572 2 -1.200000000000 41.668008726720 0.454500000000 15.244393436605
1573 1 2.400000000000 36.586544247852 0.000000000000 12.195514749284
1574 1 2.400000000000 39.025647197708 29.997000000000 10.975963274355
1575 1 2.400000000000 39.432164356018 0.909000000000 9.756411799427
1576 1 2.400000000000 40.245198672637 0.000000000000 13.415066224212
1577 2 -1.200000000000 38.822388618554 32.269500000000 11.585739011820
1578 2 -1.200000000000 39.635422935173 31.360500000000 9.146636061963
1579 2 -1.200000000000 40.448457251791 30.451500000000 12.805290486748
1580 2 -1.200000000000 41.261491568410 29.542500000000 10.366187536891
1581 2 -1.200000000000 40.854974410101 1.363500000000 11.585739011820
1582 2 -1.200000000000 41.668008726720 0.454500000000 9.146636061963
1583 2 -1.200000000000 42.481043043339 32.269500000000 12.805290486748
1584 2 -1.200000000000 43.294077359958 31.360500000000 10.366187536891
1585 1 2.400000000000 16.260686332378 30.906000000000 0.000000000000
1586 1 2.400000000000 18.699789282235 28.179000000000 23.171478023639
1587 1 2.400000000000 19.106306440545 31.815000000000 21.951926548711
1588 1 2.400000000000 19.919340757164 30.906000000000 1.219551474928
1589 2 -1.200000000000 18.496530703081 30.451500000000 23.781253761104
1590 2 -1.200000000000 19.309565019699 29.542500000000 21.342150811247
1591 2 -1.200000000000 20.122599336318 28.633500000000 0.609775737464
1592 2 -1.200000000000 20.935633652937 27.724500000000 22.561702286175
1593 2 -1.200000000000 20.529116494628 32.269500000000 23.781253761104
1594 2 -1.200000000000 21.342150811247 31.360500000000 21.342150811247
1595 2 -1.200000000000 22.155185127866 30.451500000000 0.609775737464
1596 2 -1.200000000000 22.968219444485 29.542500000000 22.561702286175
1597 1 2.400000000000 16.260686332378 30.906000000000 12.195514749284
1598 1 2.400000000000 18.699789282235 28.179000000000 10.975963274355
1599 1 2.400000000000 19.106306440545 31.815000000000 9.756411799427
1600 1 2.400000000000 19.919340757164 30.906000000000 13.415066224212
1601 2 -1.200000000000 18.496530703081 30.451500000000 11.585739011820
1602 2 -1.200000000000 19.309565019699 29.542500000000 9.146636061963
1603 2 -1.200000000000 20.122599336318 28.633500000000 12.805290486748
1604 2 -1.200000000000 20.935633652937 27.724500000000 10.366187536891
1605 2 -1.200000000000 20.529116494628 32.269500000000 11.585739011820
1606 2 -1.200000000000 21.342150811247 31.360500000000 9.146636061963
1607 2 -1.200000000000 22.155185127866 30.451500000000 12.805290486748
1608 2 -1.200000000000 22.968219444485 29.542500000000 10.366187536891
1609 1 2.400000000000 17.886754965616 29.088000000000 7.317308849570
1610 1 2.400000000000 20.325857915473 26.361000000000 6.097757374642
1611 1 2.400000000000 20.732375073783 29.997000000000 4.878205899714
1612 1 2.400000000000 21.545409390401 29.088000000000 8.536860324499
1613 2 -1.200000000000 20.122599336318 28.633500000000 6.707533112106
1614 2 -1.200000000000 20.935633652937 27.724500000000 4.268430162249
1615 2 -1.200000000000 21.748667969556 26.815500000000 7.927084587035
1616 2 -1.200000000000 22.561702286175 25.906500000000 5.487981637178
1617 2 -1.200000000000 22.155185127866 30.451500000000 6.707533112106
1618 2 -1.200000000000 22.968219444485 29.542500000000 4.268430162249
1619 2 -1.200000000000 23.781253761104 28.633500000000 7.927084587035
1620 2 -1.200000000000 24.594288077722 27.724500000000 5.487981637178
1621 1 2.400000000000 19.512823598854 27.270000000000 2.439102949857
1622 1 2.400000000000 21.951926548711 24.543000000000 1.219551474928
1623 1 2.400000000000 22.358443707020 28.179000000000 0.000000000000
1624 1 2.400000000000 23.171478023639 27.270000000000 3.658654424785
1625 2 -1.200000000000 21.748667969556 26.815500000000 1.829327212393
1626 2 -1.200000000000 22.561702286175 25.906500000000 23.781253761104
1627 2 -1.200000000000 23.374736602794 24.997500000000 3.048878687321
1628 2 -1.200000000000 24.187770919413 24.088500000000 0.609775737464
1629 2 -1.200000000000 23.781253761104 28.633500000000 1.829327212393
1630 2 -1.200000000000 24.594288077722 27.724500000000 23.781253761104
1631 2 -1.200000000000 25.407322394341 26.815500000000 3.048878687321
1632 2 -1.200000000000 26.220356710960 25.906500000000 0.609775737464
1633 1 2.400000000000 17.886754965616 29.088000000000 19.512823598854
1634 1 2.400000000000 20.325857915473 26.361000000000 18.293272123926
1635 1 2.400000000000 20.732375073783 29.997000000000 17.073720648997
1636 1 2.400000000000 21.545409390401 29.088000000000 20.732375073783
1637 2 -1.200000000000 20.122599336318 28.633500000000 18.903047861390
1638 2 -1.200000000000 20.935633652937 27.724500000000 16.463944911533
1639 2 -1.200000000000 21.748667969556 26.815500000000 20.122599336318
1640 2 -1.200000000000 22.561702286175 25.906500000000 17.683496386462
1641 2 -1.200000000000 22.155185127866 30.451500000000 18.903047861390
1642 2 -1.200000000000 22.968219444485 29.542500000000 16.463944911533
1643 2 -1.200000000000 23.781253761104 28.633500000000 20.122599336318
1644 2 -1.200000000000 24.594288077722 27.724500000000 17.683496386462
1645 1 2.400000000000 19.512823598854 27.270000000000 14.634617699141
1646 1 2.400000000000 21.951926548711 24.543000000000 13.415066224212
1647 1 2.400000000000 22.358443707020 28.179000000000 12.195514749284
1648 1 2.400000000000 23.171478023639 27.270000000000 15.854169174069
1649 2 -1.200000000000 21.748667969556 26.815500000000 14.024841961676
1650 2 -1.200000000000 22.561702286175 25.906500000000 11.585739011820
1651 2 -1.200000000000 23.374736602794 24.997500000000 15.244393436605
1652 2 -1.200000000000 24.187770919413 24.088500000000 12.805290486748
1653 2 -1.200000000000 23.781253761104 28.633500000000 14.024841961676
1654 2 -1.200000000000 24.594288077722 27.724500000000 11.585739011820
1655 2 -1.200000000000 25.407322394341 26.815500000000 15.244393436605
1656 2 -1.200000000000 26.220356710960 25.906500000000 12.805290486748
1657 1 2.400000000000 21.138892232092 25.452000000000 9.756411799427
1658 1 2.400000000000 23.577995181949 22.725000000000 8.536860324499
1659 1 2.400000000000 23.984512340258 26.361000000000 7.317308849570
1660 1 2.400000000000 24.797546656877 25.452000000000 10.975963274355
1661 2 -1.200000000000 23.374736602794 24.997500000000 9.146636061963
1662 2 -1.200000000000 24.187770919413 24.088500000000 6.707533112106
1663 2 -1.200000000000 25.000805236032 23.179500000000 10.366187536891
1664 2 -1.200000000000 25.813839552651 22.270500000000 7.927084587035
1665 2 -1.200000000000 25.407322394341 26.815500000000 9.146636061963
1666 2 -1.200000000000 26.220356710960 25.906500000000 6.707533112106
1667 2 -1.200000000000 27.033391027579 24.997500000000 10.366187536891
1668 2 -1.200000000000 27.846425344198 24.088500000000 7.927084587035
1669 1 2.400000000000 22.764960865330 23.634000000000 4.878205899714
1670 1 2.400000000000 25.204063815187 20.907000000000 3.658654424785
1671 1 2.400000000000 25.610580973496 24.543000000000 2.439102949857
1672 1 2.400000000000 26.423615290115 23.634000000000 6.097757374642
1673 2 -1.200000000000 25.000805236032 23.179500000000 4.268430162249
1674 2 -1.200000000000 25.813839552651 22.270500000000 1.829327212393
1675 2 -1.200000000000 26.626873869270 21.361500000000 5.487981637178
1676 2 -1.200000000000 27.439908185889 20.452500000000 3.048878687321
1677 2 -1.200000000000 27.033391027579 24.997500000000 4.268430162249
1678 2 -1.200000000000 27.846425344198 24.088500000000 1.829327212393
1679 2 -1.200000000000 28.659459660817 23.179500000000 5.487981637178
1680 2 -1.200000000000 29.472493977436 22.270500000000 3.048878687321
1681 1 2.400000000000 24.391029498568 21.816000000000 0.000000000000
1682 1 2.400000000000 26.830132448424 19.089000000000 23.171478023639
1683 1 2.400000000000 27.236649606734 22.725000000000 21.951926548711
1684 1 2.400000000000 28.049683923353 21.816000000000 1.219551474928
1685 2 -1.200000000000 26.626873869270 21.361500000000 23.781253761104
1686 2 -1.200000000000 27.439908185889 20.452500000000 21.342150811247
1687 2 -1.200000000000 28.252942502508 19.543500000000 0.609775737464
1688 2 -1.200000000000 29.065976819127 18.634500000000 22.561702286175
1689 2 -1.200000000000 28.659459660817 23.179500000000 23.781253761104
1690 2 -1.200000000000 29.472493977436 22.270500000000 21.342150811247
1691 2 -1.200000000000 30.285528294055 21.361500000000 0.609775737464
1692 2 -1.200000000000 31.098562610674 20.452500000000 22.561702286175
1693 1 2.400000000000 21.138892232092 25.452000000000 21.951926548711
1694 1 2.400000000000 23.577995181949 22.725000000000 20.732375073783
1695 1 2.400000000000 23.984512340258 26.361000000000 19.512823598854
1696 1 2.400000000000 24.797546656877 25.452000000000 23.171478023639
1697 2 -1.200000000000 23.374736602794 24.997500000000 21.342150811247
1698 2 -1.200000000000 24.187770919413 24.088500000000 18.903047861390
1699 2 -1.200000000000 25.000805236032 23.179500000000 22.561702286175
1700 2 -1.200000000000 25.813839552651 22.270500000000 20.122599336318
1701 2 -1.200000000000 25.407322394341 26.815500000000 21.342150811247
1702 2 -1.200000000000 26.220356710960 25.906500000000 18.903047861390
1703 2 -1.200000000000 27.033391027579 24.997500000000 22.561702286175
1704 2 -1.200000000000 27.846425344198 24.088500000000 20.122599336318
1705 1 2.400000000000 22.764960865330 23.634000000000 17.073720648997
1706 1 2.400000000000 25.204063815187 20.907000000000 15.854169174069
1707 1 2.400000000000 25.610580973496 24.543000000000 14.634617699141
1708 1 2.400000000000 26.423615290115 23.634000000000 18.293272123926
1709 2 -1.200000000000 25.000805236032 23.179500000000 16.463944911533
1710 2 -1.200000000000 25.813839552651 22.270500000000 14.024841961676
1711 2 -1.200000000000 26.626873869270 21.361500000000 17.683496386462
1712 2 -1.200000000000 27.439908185889 20.452500000000 15.244393436605
1713 2 -1.200000000000 27.033391027579 24.997500000000 16.463944911533
1714 2 -1.200000000000 27.846425344198 24.088500000000 14.024841961676
1715 2 -1.200000000000 28.659459660817 23.179500000000 17.683496386462
1716 2 -1.200000000000 29.472493977436 22.270500000000 15.244393436605
1717 1 2.400000000000 24.391029498568 21.816000000000 12.195514749284
1718 1 2.400000000000 26.830132448424 19.089000000000 10.975963274355
1719 1 2.400000000000 27.236649606734 22.725000000000 9.756411799427
1720 1 2.400000000000 28.049683923353 21.816000000000 13.415066224212
1721 2 -1.200000000000 26.626873869270 21.361500000000 11.585739011820
1722 2 -1.200000000000 27.439908185889 20.452500000000 9.146636061963
1723 2 -1.200000000000 28.252942502508 19.543500000000 12.805290486748
1724 2 -1.200000000000 29.065976819127 18.634500000000 10.366187536891
1725 2 -1.200000000000 28.659459660817 23.179500000000 11.585739011820
1726 2 -1.200000000000 29.472493977436 22.270500000000 9.146636061963
1727 2 -1.200000000000 30.285528294055 21.361500000000 12.805290486748
1728 2 -1.200000000000 31.098562610674 20.452500000000 10.366187536891
1729 1 2.400000000000 26.017098131806 19.998000000000 7.317308849570
1730 1 2.400000000000 28.456201081662 17.271000000000 6.097757374642
1731 1 2.400000000000 28.862718239972 20.907000000000 4.878205899714
1732 1 2.400000000000 29.675752556591 19.998000000000 8.536860324499
1733 2 -1.200000000000 28.252942502508 19.543500000000 6.707533112106
1734 2 -1.200000000000 29.065976819127 18.634500000000 4.268430162249
1735 2 -1.200000000000 29.879011135745 17.725500000000 7.927084587035
1736 2 -1.200000000000 30.692045452364 16.816500000000 5.487981637178
1737 2 -1.200000000000 30.285528294055 21.361500000000 6.707533112106
1738 2 -1.200000000000 31.098562610674 20.452500000000 4.268430162249
1739 2 -1.200000000000 31.911596927293 19.543500000000 7.927084587035
1740 2 -1.200000000000 32.724631243912 18.634500000000 5.487981637178
1741 1 2.400000000000 27.643166765043 18.180000000000 2.439102949857
1742 1 2.400000000000 30.082269714900 15.453000000000 1.219551474928
1743 1 2.400000000000 30.488786873210 19.089000000000 0.000000000000
1744 1 2.400000000000 31.301821189829 18.180000000000 3.658654424785
1745 2 -1.200000000000 29.879011135745 17.725500000000 1.829327212393
1746 2 -1.200000000000 30.692045452364 16.816500000000 23.781253761104
1747 2 -1.200000000000 31.505079768983 15.907500000000 3.048878687321
1748 2 -1.200000000000 32.318114085602 14.998500000000 0.609775737464
1749 2 -1.200000000000 31.911596927293 19.543500000000 1.829327212393
1750 2 -1.200000000000 32.724631243912 18.634500000000 23.781253761104
1751 2 -1.200000000000 33.537665560531 17.725500000000 3.048878687321
1752 2 -1.200000000000 34.350699877150 16.816500000000 0.609775737464
1753 1 2.400000000000 26.017098131806 19.998000000000 19.512823598854
1754 1 2.400000000000 28.456201081662 17.271000000000 18.293272123926
1755 1 2.400000000000 28.862718239972 20.907000000000 17.073720648997
1756 1 2.400000000000 29.675752556591 19.998000000000 20.732375073783
1757 2 -1.200000000000 28.252942502508 19.543500000000 18.903047861390
1758 2 -1.200000000000 29.065976819127 18.634500000000 16.463944911533
1759 2 -1.200000000000 29.879011135745 17.725500000000 20.122599336318
1760 2 -1.200000000000 30.692045452364 16.816500000000 17.683496386462
1761 2 -1.200000000000 30.285528294055 21.361500000000 18.903047861390
1762 2 -1.200000000000 31.098562610674 20.452500000000 16.463944911533
1763 2 -1.200000000000 31.911596927293 19.543500000000 20.122599336318
1764 2 -1.200000000000 32.724631243912 18.634500000000 17.683496386462
1765 1 2.400000000000 27.643166765043 18.180000000000 14.634617699141
1766 1 2.400000000000 30.082269714900 15.453000000000 13.415066224212
1767 1 2.400000000000 30.488786873210 19.089000000000 12.195514749284
1768 1 2.400000000000 31.301821189829 18.180000000000 15.854169174069
1769 2 -1.200000000000 29.879011135745 17.725500000000 14.024841961676
1770 2 -1.200000000000 30.692045452364 16.816500000000 11.585739011820
1771 2 -1.200000000000 31.505079768983 15.907500000000 15.244393436605
1772 2 -1.200000000000 32.318114085602 14.998500000000 12.805290486748
1773 2 -1.200000000000 31.911596927293 19.543500000000 14.024841961676
1774 2 -1.200000000000 32.724631243912 18.634500000000 11.585739011820
1775 2 -1.200000000000 33.537665560531 17.725500000000 15.244393436605
1776 2 -1.200000000000 34.350699877150 16.816500000000 12.805290486748
1777 1 2.400000000000 29.269235398281 16.362000000000 9.756411799427
1778 1 2.400000000000 31.708338348138 13.635000000000 8.536860324499
1779 1 2.400000000000 32.114855506447 17.271000000000 7.317308849570
1780 1 2.400000000000 32.927889823066 16.362000000000 10.975963274355
1781 2 -1.200000000000 31.505079768983 15.907500000000 9.146636061963
1782 2 -1.200000000000 32.318114085602 14.998500000000 6.707533112106
1783 2 -1.200000000000 33.131148402221 14.089500000000 10.366187536891
1784 2 -1.200000000000 33.944182718840 13.180500000000 7.927084587035
1785 2 -1.200000000000 33.537665560531 17.725500000000 9.146636061963
1786 2 -1.200000000000 34.350699877150 16.816500000000 6.707533112106
1787 2 -1.200000000000 35.163734193768 15.907500000000 10.366187536891
1788 2 -1.200000000000 35.976768510387 14.998500000000 7.927084587035
1789 1 2.400000000000 30.895304031519 14.544000000000 4.878205899714
1790 1 2.400000000000 33.334406981376 11.817000000000 3.658654424785
1791 1 2.400000000000 33.740924139685 15.453000000000 2.439102949857
1792 1 2.400000000000 34.553958456304 14.544000000000 6.097757374642
1793 2 -1.200000000000 33.131148402221 14.089500000000 4.268430162249
1794 2 -1.200000000000 33.944182718840 13.180500000000 1.829327212393
1795 2 -1.200000000000 34.757217035459 12.271500000000 5.487981637178
1796 2 -1.200000000000 35.570251352078 11.362500000000 3.048878687321
1797 2 -1.200000000000 35.163734193768 15.907500000000 4.268430162249
1798 2 -1.200000000000 35.976768510387 14.998500000000 1.829327212393
1799 2 -1.200000000000 36.789802827006 14.089500000000 5.487981637178
1800 2 -1.200000000000 37.602837143625 13.180500000000 3.048878687321
1801 1 2.400000000000 32.521372664757 12.726000000000 0.000000000000
1802 1 2.400000000000 34.960475614614 9.999000000000 23.171478023639
1803 1 2.400000000000 35.366992772923 13.635000000000 21.951926548711
1804 1 2.400000000000 36.180027089542 12.726000000000 1.219551474928
1805 2 -1.200000000000 34.757217035459 12.271500000000 23.781253761104
1806 2 -1.200000000000 35.570251352078 11.362500000000 21.342150811247
1807 2 -1.200000000000 36.383285668697 10.453500000000 0.609775737464
1808 2 -1.200000000000 37.196319985316 9.544500000000 22.561702286175
1809 2 -1.200000000000 36.789802827006 14.089500000000 23.781253761104
1810 2 -1.200000000000 37.602837143625 13.180500000000 21.342150811247
1811 2 -1.200000000000 38.415871460244 12.271500000000 0.609775737464
1812 2 -1.200000000000 39.228905776863 11.362500000000 22.561702286175
1813 1 2.400000000000 29.269235398281 16.362000000000 21.951926548711
1814 1 2.400000000000 31.708338348138 13.635000000000 20.732375073783
1815 1 2.400000000000 32.114855506447 17.271000000000 19.512823598854
1816 1 2.400000000000 32.927889823066 16.362000000000 23.171478023639
1817 2 -1.200000000000 31.505079768983 15.907500000000 21.342150811247
1818 2 -1.200000000000 32.318114085602 14.998500000000 18.903047861390
1819 2 -1.200000000000 33.131148402221 14.089500000000 22.561702286175
1820 2 -1.200000000000 33.944182718840 13.180500000000 20.122599336318
1821 2 -1.200000000000 33.537665560531 17.725500000000 21.342150811247
1822 2 -1.200000000000 34.350699877150 16.816500000000 18.903047861390
1823 2 -1.200000000000 35.163734193768 15.907500000000 22.561702286175
1824 2 -1.200000000000 35.976768510387 14.998500000000 20.122599336318
1825 1 2.400000000000 30.895304031519 14.544000000000 17.073720648997
1826 1 2.400000000000 33.334406981376 11.817000000000 15.854169174069
1827 1 2.400000000000 33.740924139685 15.453000000000 14.634617699141
1828 1 2.400000000000 34.553958456304 14.544000000000 18.293272123926
1829 2 -1.200000000000 33.131148402221 14.089500000000 16.463944911533
1830 2 -1.200000000000 33.944182718840 13.180500000000 14.024841961676
1831 2 -1.200000000000 34.757217035459 12.271500000000 17.683496386462
1832 2 -1.200000000000 35.570251352078 11.362500000000 15.244393436605
1833 2 -1.200000000000 35.163734193768 15.907500000000 16.463944911533
1834 2 -1.200000000000 35.976768510387 14.998500000000 14.024841961676
1835 2 -1.200000000000 36.789802827006 14.089500000000 17.683496386462
1836 2 -1.200000000000 37.602837143625 13.180500000000 15.244393436605
1837 1 2.400000000000 32.521372664757 12.726000000000 12.195514749284
1838 1 2.400000000000 34.960475614614 9.999000000000 10.975963274355
1839 1 2.400000000000 35.366992772923 13.635000000000 9.756411799427
1840 1 2.400000000000 36.180027089542 12.726000000000 13.415066224212
1841 2 -1.200000000000 34.757217035459 12.271500000000 11.585739011820
1842 2 -1.200000000000 35.570251352078 11.362500000000 9.146636061963
1843 2 -1.200000000000 36.383285668697 10.453500000000 12.805290486748
1844 2 -1.200000000000 37.196319985316 9.544500000000 10.366187536891
1845 2 -1.200000000000 36.789802827006 14.089500000000 11.585739011820
1846 2 -1.200000000000 37.602837143625 13.180500000000 9.146636061963
1847 2 -1.200000000000 38.415871460244 12.271500000000 12.805290486748
1848 2 -1.200000000000 39.228905776863 11.362500000000 10.366187536891
1849 1 2.400000000000 34.147441297995 10.908000000000 7.317308849570
1850 1 2.400000000000 36.586544247852 8.181000000000 6.097757374642
1851 1 2.400000000000 36.993061406161 11.817000000000 4.878205899714
1852 1 2.400000000000 37.806095722780 10.908000000000 8.536860324499
1853 2 -1.200000000000 36.383285668697 10.453500000000 6.707533112106
1854 2 -1.200000000000 37.196319985316 9.544500000000 4.268430162249
1855 2 -1.200000000000 38.009354301935 8.635500000000 7.927084587035
1856 2 -1.200000000000 38.822388618554 7.726500000000 5.487981637178
1857 2 -1.200000000000 38.415871460244 12.271500000000 6.707533112106
1858 2 -1.200000000000 39.228905776863 11.362500000000 4.268430162249
1859 2 -1.200000000000 40.041940093482 10.453500000000 7.927084587035
1860 2 -1.200000000000 40.854974410101 9.544500000000 5.487981637178
1861 1 2.400000000000 35.773509931233 9.090000000000 2.439102949857
1862 1 2.400000000000 38.212612881089 6.363000000000 1.219551474928
1863 1 2.400000000000 38.619130039399 9.999000000000 0.000000000000
1864 1 2.400000000000 39.432164356018 9.090000000000 3.658654424785
1865 2 -1.200000000000 38.009354301935 8.635500000000 1.829327212393
1866 2 -1.200000000000 38.822388618554 7.726500000000 23.781253761104
1867 2 -1.200000000000 39.635422935173 6.817500000000 3.048878687321
1868 2 -1.200000000000 40.448457251791 5.908500000000 0.609775737464
1869 2 -1.200000000000 40.041940093482 10.453500000000 1.829327212393
1870 2 -1.200000000000 40.854974410101 9.544500000000 23.781253761104
1871 2 -1.200000000000 41.668008726720 8.635500000000 3.048878687321
1872 2 -1.200000000000 42.481043043339 7.726500000000 0.609775737464
1873 1 2.400000000000 34.147441297995 10.908000000000 19.512823598854
1874 1 2.400000000000 36.586544247852 8.181000000000 18.293272123926
1875 1 2.400000000000 36.993061406161 11.817000000000 17.073720648997
1876 1 2.400000000000 37.806095722780 10.908000000000 20.732375073783
1877 2 -1.200000000000 36.383285668697 10.453500000000 18.903047861390
1878 2 -1.200000000000 37.196319985316 9.544500000000 16.463944911533
1879 2 -1.200000000000 38.009354301935 8.635500000000 20.122599336318
1880 2 -1.200000000000 38.822388618554 7.726500000000 17.683496386462
1881 2 -1.200000000000 38.415871460244 12.271500000000 18.903047861390
1882 2 -1.200000000000 39.228905776863 11.362500000000 16.463944911533
1883 2 -1.200000000000 40.041940093482 10.453500000000 20.122599336318
1884 2 -1.200000000000 40.854974410101 9.544500000000 17.683496386462
1885 1 2.400000000000 35.773509931233 9.090000000000 14.634617699141
1886 1 2.400000000000 38.212612881089 6.363000000000 13.415066224212
1887 1 2.400000000000 38.619130039399 9.999000000000 12.195514749284
1888 1 2.400000000000 39.432164356018 9.090000000000 15.854169174069
1889 2 -1.200000000000 38.009354301935 8.635500000000 14.024841961676
1890 2 -1.200000000000 38.822388618554 7.726500000000 11.585739011820
1891 2 -1.200000000000 39.635422935173 6.817500000000 15.244393436605
1892 2 -1.200000000000 40.448457251791 5.908500000000 12.805290486748
1893 2 -1.200000000000 40.041940093482 10.453500000000 14.024841961676
1894 2 -1.200000000000 40.854974410101 9.544500000000 11.585739011820
1895 2 -1.200000000000 41.668008726720 8.635500000000 15.244393436605
1896 2 -1.200000000000 42.481043043339 7.726500000000 12.805290486748
1897 1 2.400000000000 37.399578564470 7.272000000000 9.756411799427
1898 1 2.400000000000 39.838681514327 4.545000000000 8.536860324499
1899 1 2.400000000000 40.245198672637 8.181000000000 7.317308849570
1900 1 2.400000000000 41.058232989256 7.272000000000 10.975963274355
1901 2 -1.200000000000 39.635422935173 6.817500000000 9.146636061963
1902 2 -1.200000000000 40.448457251791 5.908500000000 6.707533112106
1903 2 -1.200000000000 41.261491568410 4.999500000000 10.366187536891
1904 2 -1.200000000000 42.074525885029 4.090500000000 7.927084587035
1905 2 -1.200000000000 41.668008726720 8.635500000000 9.146636061963
1906 2 -1.200000000000 42.481043043339 7.726500000000 6.707533112106
1907 2 -1.200000000000 43.294077359958 6.817500000000 10.366187536891
1908 2 -1.200000000000 44.107111676577 5.908500000000 7.927084587035
1909 1 2.400000000000 39.025647197708 5.454000000000 4.878205899714
1910 1 2.400000000000 41.464750147565 2.727000000000 3.658654424785
1911 1 2.400000000000 41.871267305875 6.363000000000 2.439102949857
1912 1 2.400000000000 42.684301622493 5.454000000000 6.097757374642
1913 2 -1.200000000000 41.261491568410 4.999500000000 4.268430162249
1914 2 -1.200000000000 42.074525885029 4.090500000000 1.829327212393
1915 2 -1.200000000000 42.887560201648 3.181500000000 5.487981637178
1916 2 -1.200000000000 43.700594518267 2.272500000000 3.048878687321
1917 2 -1.200000000000 43.294077359958 6.817500000000 4.268430162249
1918 2 -1.200000000000 44.107111676577 5.908500000000 1.829327212393
1919 2 -1.200000000000 44.920145993196 4.999500000000 5.487981637178
1920 2 -1.200000000000 45.733180309814 4.090500000000 3.048878687321
1921 1 2.400000000000 40.651715830946 3.636000000000 0.000000000000
1922 1 2.400000000000 43.090818780803 0.909000000000 23.171478023639
1923 1 2.400000000000 43.497335939112 4.545000000000 21.951926548711
1924 1 2.400000000000 44.310370255731 3.636000000000 1.219551474928
1925 2 -1.200000000000 42.887560201648 3.181500000000 23.781253761104
1926 2 -1.200000000000 43.700594518267 2.272500000000 21.342150811247
1927 2 -1.200000000000 44.513628834886 1.363500000000 0.609775737464
1928 2 -1.200000000000 45.326663151505 0.454500000000 22.561702286175
1929 2 -1.200000000000 44.920145993196 4.999500000000 23.781253761104
1930 2 -1.200000000000 45.733180309814 4.090500000000 21.342150811247
1931 2 -1.200000000000 46.546214626433 3.181500000000 0.609775737464
1932 2 -1.200000000000 47.359248943052 2.272500000000 22.561702286175
1933 1 2.400000000000 37.399578564470 7.272000000000 21.951926548711
1934 1 2.400000000000 39.838681514327 4.545000000000 20.732375073783
1935 1 2.400000000000 40.245198672637 8.181000000000 19.512823598854
1936 1 2.400000000000 41.058232989256 7.272000000000 23.171478023639
1937 2 -1.200000000000 39.635422935173 6.817500000000 21.342150811247
1938 2 -1.200000000000 40.448457251791 5.908500000000 18.903047861390
1939 2 -1.200000000000 41.261491568410 4.999500000000 22.561702286175
1940 2 -1.200000000000 42.074525885029 4.090500000000 20.122599336318
1941 2 -1.200000000000 41.668008726720 8.635500000000 21.342150811247
1942 2 -1.200000000000 42.481043043339 7.726500000000 18.903047861390
1943 2 -1.200000000000 43.294077359958 6.817500000000 22.561702286175
1944 2 -1.200000000000 44.107111676577 5.908500000000 20.122599336318
1945 1 2.400000000000 39.025647197708 5.454000000000 17.073720648997
1946 1 2.400000000000 41.464750147565 2.727000000000 15.854169174069
1947 1 2.400000000000 41.871267305875 6.363000000000 14.634617699141
1948 1 2.400000000000 42.684301622493 5.454000000000 18.293272123926
1949 2 -1.200000000000 41.261491568410 4.999500000000 16.463944911533
1950 2 -1.200000000000 42.074525885029 4.090500000000 14.024841961676
1951 2 -1.200000000000 42.887560201648 3.181500000000 17.683496386462
1952 2 -1.200000000000 43.700594518267 2.272500000000 15.244393436605
1953 2 -1.200000000000 43.294077359958 6.817500000000 16.463944911533
1954 2 -1.200000000000 44.107111676577 5.908500000000 14.024841961676
1955 2 -1.200000000000 44.920145993196 4.999500000000 17.683496386462
1956 2 -1.200000000000 45.733180309814 4.090500000000 15.244393436605
1957 1 2.400000000000 40.651715830946 3.636000000000 12.195514749284
1958 1 2.400000000000 43.090818780803 0.909000000000 10.975963274355
1959 1 2.400000000000 43.497335939112 4.545000000000 9.756411799427
1960 1 2.400000000000 44.310370255731 3.636000000000 13.415066224212
1961 2 -1.200000000000 42.887560201648 3.181500000000 11.585739011820
1962 2 -1.200000000000 43.700594518267 2.272500000000 9.146636061963
1963 2 -1.200000000000 44.513628834886 1.363500000000 12.805290486748
1964 2 -1.200000000000 45.326663151505 0.454500000000 10.366187536891
1965 2 -1.200000000000 44.920145993196 4.999500000000 11.585739011820
1966 2 -1.200000000000 45.733180309814 4.090500000000 9.146636061963
1967 2 -1.200000000000 46.546214626433 3.181500000000 12.805290486748
1968 2 -1.200000000000 47.359248943052 2.272500000000 10.366187536891
1969 1 2.400000000000 42.277784464184 1.818000000000 7.317308849570
1970 1 2.400000000000 44.716887414041 31.815000000000 6.097757374642
1971 1 2.400000000000 45.123404572350 2.727000000000 4.878205899714
1972 1 2.400000000000 45.936438888969 1.818000000000 8.536860324499
1973 2 -1.200000000000 44.513628834886 1.363500000000 6.707533112106
1974 2 -1.200000000000 45.326663151505 0.454500000000 4.268430162249
1975 2 -1.200000000000 46.139697468124 32.269500000000 7.927084587035
1976 2 -1.200000000000 46.952731784743 31.360500000000 5.487981637178
1977 2 -1.200000000000 46.546214626433 3.181500000000 6.707533112106
1978 2 -1.200000000000 47.359248943052 2.272500000000 4.268430162249
1979 2 -1.200000000000 48.172283259671 1.363500000000 7.927084587035
1980 2 -1.200000000000 48.985317576290 0.454500000000 5.487981637178
1981 1 2.400000000000 43.903853097422 0.000000000000 2.439102949857
1982 1 2.400000000000 46.342956047279 29.997000000000 1.219551474928
1983 1 2.400000000000 46.749473205588 0.909000000000 0.000000000000
1984 1 2.400000000000 47.562507522207 0.000000000000 3.658654424785
1985 2 -1.200000000000 46.139697468124 32.269500000000 1.829327212393
1986 2 -1.200000000000 46.952731784743 31.360500000000 23.781253761104
1987 2 -1.200000000000 47.765766101362 30.451500000000 3.048878687321
1988 2 -1.200000000000 48.578800417981 29.542500000000 0.609775737464
1989 2 -1.200000000000 48.172283259671 1.363500000000 1.829327212393
1990 2 -1.200000000000 48.985317576290 0.454500000000 23.781253761104
1991 2 -1.200000000000 49.798351892909 32.269500000000 3.048878687321
1992 2 -1.200000000000 50.611386209528 31.360500000000 0.609775737464
1993 1 2.400000000000 42.277784464184 1.818000000000 19.512823598854
1994 1 2.400000000000 44.716887414041 31.815000000000 18.293272123926
1995 1 2.400000000000 45.123404572350 2.727000000000 17.073720648997
1996 1 2.400000000000 45.936438888969 1.818000000000 20.732375073783
1997 2 -1.200000000000 44.513628834886 1.363500000000 18.903047861390
1998 2 -1.200000000000 45.326663151505 0.454500000000 16.463944911533
1999 2 -1.200000000000 46.139697468124 32.269500000000 20.122599336318
2000 2 -1.200000000000 46.952731784743 31.360500000000 17.683496386462
2001 2 -1.200000000000 46.546214626433 3.181500000000 18.903047861390
2002 2 -1.200000000000 47.359248943052 2.272500000000 16.463944911533
2003 2 -1.200000000000 48.172283259671 1.363500000000 20.122599336318
2004 2 -1.200000000000 48.985317576290 0.454500000000 17.683496386462
2005 1 2.400000000000 43.903853097422 0.000000000000 14.634617699141
2006 1 2.400000000000 46.342956047279 29.997000000000 13.415066224212
2007 1 2.400000000000 46.749473205588 0.909000000000 12.195514749284
2008 1 2.400000000000 47.562507522207 0.000000000000 15.854169174069
2009 2 -1.200000000000 46.139697468124 32.269500000000 14.024841961676
2010 2 -1.200000000000 46.952731784743 31.360500000000 11.585739011820
2011 2 -1.200000000000 47.765766101362 30.451500000000 15.244393436605
2012 2 -1.200000000000 48.578800417981 29.542500000000 12.805290486748
2013 2 -1.200000000000 48.172283259671 1.363500000000 14.024841961676
2014 2 -1.200000000000 48.985317576290 0.454500000000 11.585739011820
2015 2 -1.200000000000 49.798351892909 32.269500000000 15.244393436605
2016 2 -1.200000000000 50.611386209528 31.360500000000 12.805290486748
2017 1 2.400000000000 23.577995181949 30.906000000000 2.439102949857
2018 1 2.400000000000 26.017098131806 28.179000000000 1.219551474928
2019 1 2.400000000000 26.423615290115 31.815000000000 0.000000000000
2020 1 2.400000000000 27.236649606734 30.906000000000 3.658654424785
2021 2 -1.200000000000 25.813839552651 30.451500000000 1.829327212393
2022 2 -1.200000000000 26.626873869270 29.542500000000 23.781253761104
2023 2 -1.200000000000 27.439908185889 28.633500000000 3.048878687321
2024 2 -1.200000000000 28.252942502508 27.724500000000 0.609775737464
2025 2 -1.200000000000 27.846425344198 32.269500000000 1.829327212393
2026 2 -1.200000000000 28.659459660817 31.360500000000 23.781253761104
2027 2 -1.200000000000 29.472493977436 30.451500000000 3.048878687321
2028 2 -1.200000000000 30.285528294055 29.542500000000 0.609775737464
2029 1 2.400000000000 23.577995181949 30.906000000000 14.634617699141
2030 1 2.400000000000 26.017098131806 28.179000000000 13.415066224212
2031 1 2.400000000000 26.423615290115 31.815000000000 12.195514749284
2032 1 2.400000000000 27.236649606734 30.906000000000 15.854169174069
2033 2 -1.200000000000 25.813839552651 30.451500000000 14.024841961676
2034 2 -1.200000000000 26.626873869270 29.542500000000 11.585739011820
2035 2 -1.200000000000 27.439908185889 28.633500000000 15.244393436605
2036 2 -1.200000000000 28.252942502508 27.724500000000 12.805290486748
2037 2 -1.200000000000 27.846425344198 32.269500000000 14.024841961676
2038 2 -1.200000000000 28.659459660817 31.360500000000 11.585739011820
2039 2 -1.200000000000 29.472493977436 30.451500000000 15.244393436605
2040 2 -1.200000000000 30.285528294055 29.542500000000 12.805290486748
2041 1 2.400000000000 25.204063815187 29.088000000000 9.756411799427
2042 1 2.400000000000 27.643166765043 26.361000000000 8.536860324499
2043 1 2.400000000000 28.049683923353 29.997000000000 7.317308849570
2044 1 2.400000000000 28.862718239972 29.088000000000 10.975963274355
2045 2 -1.200000000000 27.439908185889 28.633500000000 9.146636061963
2046 2 -1.200000000000 28.252942502508 27.724500000000 6.707533112106
2047 2 -1.200000000000 29.065976819127 26.815500000000 10.366187536891
2048 2 -1.200000000000 29.879011135745 25.906500000000 7.927084587035
2049 2 -1.200000000000 29.472493977436 30.451500000000 9.146636061963
2050 2 -1.200000000000 30.285528294055 29.542500000000 6.707533112106
2051 2 -1.200000000000 31.098562610674 28.633500000000 10.366187536891
2052 2 -1.200000000000 31.911596927293 27.724500000000 7.927084587035
2053 1 2.400000000000 26.830132448424 27.270000000000 4.878205899714
2054 1 2.400000000000 29.269235398281 24.543000000000 3.658654424785
2055 1 2.400000000000 29.675752556591 28.179000000000 2.439102949857
2056 1 2.400000000000 30.488786873210 27.270000000000 6.097757374642
2057 2 -1.200000000000 29.065976819127 26.815500000000 4.268430162249
2058 2 -1.200000000000 29.879011135745 25.906500000000 1.829327212393
2059 2 -1.200000000000 30.692045452364 24.997500000000 5.487981637178
2060 2 -1.200000000000 31.505079768983 24.088500000000 3.048878687321
2061 2 -1.200000000000 31.098562610674 28.633500000000 4.268430162249
2062 2 -1.200000000000 31.911596927293 27.724500000000 1.829327212393
2063 2 -1.200000000000 32.724631243912 26.815500000000 5.487981637178
2064 2 -1.200000000000 33.537665560531 25.906500000000 3.048878687321
2065 1 2.400000000000 28.456201081662 25.452000000000 0.000000000000
2066 1 2.400000000000 30.895304031519 22.725000000000 23.171478023639
2067 1 2.400000000000 31.301821189829 26.361000000000 21.951926548711
2068 1 2.400000000000 32.114855506447 25.452000000000 1.219551474928
2069 2 -1.200000000000 30.692045452364 24.997500000000 23.781253761104
2070 2 -1.200000000000 31.505079768983 24.088500000000 21.342150811247
2071 2 -1.200000000000 32.318114085602 23.179500000000 0.609775737464
2072 2 -1.200000000000 33.131148402221 22.270500000000 22.561702286175
2073 2 -1.200000000000 32.724631243912 26.815500000000 23.781253761104
2074 2 -1.200000000000 33.537665560531 25.906500000000 21.342150811247
2075 2 -1.200000000000 34.350699877150 24.997500000000 0.609775737464
2076 2 -1.200000000000 35.163734193768 24.088500000000 22.561702286175
2077 1 2.400000000000 25.204063815187 29.088000000000 21.951926548711
2078 1 2.400000000000 27.643166765043 26.361000000000 20.732375073783
2079 1 2.400000000000 28.049683923353 29.997000000000 19.512823598854
2080 1 2.400000000000 28.862718239972 29.088000000000 23.171478023639
2081 2 -1.200000000000 27.439908185889 28.633500000000 21.342150811247
2082 2 -1.200000000000 28.252942502508 27.724500000000 18.903047861390
2083 2 -1.200000000000 29.065976819127 26.815500000000 22.561702286175
2084 2 -1.200000000000 29.879011135745 25.906500000000 20.122599336318
2085 2 -1.200000000000 29.472493977436 30.451500000000 21.342150811247
2086 2 -1.200000000000 30.285528294055 29.542500000000 18.903047861390
2087 2 -1.200000000000 31.098562610674 28.633500000000 22.561702286175
2088 2 -1.200000000000 31.911596927293 27.724500000000 20.122599336318
2089 1 2.400000000000 26.830132448424 27.270000000000 17.073720648997
2090 1 2.400000000000 29.269235398281 24.543000000000 15.854169174069
2091 1 2.400000000000 29.675752556591 28.179000000000 14.634617699141
2092 1 2.400000000000 30.488786873210 27.270000000000 18.293272123926
2093 2 -1.200000000000 29.065976819127 26.815500000000 16.463944911533
2094 2 -1.200000000000 29.879011135745 25.906500000000 14.024841961676
2095 2 -1.200000000000 30.692045452364 24.997500000000 17.683496386462
2096 2 -1.200000000000 31.505079768983 24.088500000000 15.244393436605
2097 2 -1.200000000000 31.098562610674 28.633500000000 16.463944911533
2098 2 -1.200000000000 31.911596927293 27.724500000000 14.024841961676
2099 2 -1.200000000000 32.724631243912 26.815500000000 17.683496386462
2100 2 -1.200000000000 33.537665560531 25.906500000000 15.244393436605
2101 1 2.400000000000 28.456201081662 25.452000000000 12.195514749284
2102 1 2.400000000000 30.895304031519 22.725000000000 10.975963274355
2103 1 2.400000000000 31.301821189829 26.361000000000 9.756411799427
2104 1 2.400000000000 32.114855506447 25.452000000000 13.415066224212
2105 2 -1.200000000000 30.692045452364 24.997500000000 11.585739011820
2106 2 -1.200000000000 31.505079768983 24.088500000000 9.146636061963
2107 2 -1.200000000000 32.318114085602 23.179500000000 12.805290486748
2108 2 -1.200000000000 33.131148402221 22.270500000000 10.366187536891
2109 2 -1.200000000000 32.724631243912 26.815500000000 11.585739011820
2110 2 -1.200000000000 33.537665560531 25.906500000000 9.146636061963
2111 2 -1.200000000000 34.350699877150 24.997500000000 12.805290486748
2112 2 -1.200000000000 35.163734193768 24.088500000000 10.366187536891
2113 1 2.400000000000 30.082269714900 23.634000000000 7.317308849570
2114 1 2.400000000000 32.521372664757 20.907000000000 6.097757374642
2115 1 2.400000000000 32.927889823066 24.543000000000 4.878205899714
2116 1 2.400000000000 33.740924139685 23.634000000000 8.536860324499
2117 2 -1.200000000000 32.318114085602 23.179500000000 6.707533112106
2118 2 -1.200000000000 33.131148402221 22.270500000000 4.268430162249
2119 2 -1.200000000000 33.944182718840 21.361500000000 7.927084587035
2120 2 -1.200000000000 34.757217035459 20.452500000000 5.487981637178
2121 2 -1.200000000000 34.350699877150 24.997500000000 6.707533112106
2122 2 -1.200000000000 35.163734193768 24.088500000000 4.268430162249
2123 2 -1.200000000000 35.976768510387 23.179500000000 7.927084587035
2124 2 -1.200000000000 36.789802827006 22.270500000000 5.487981637178
2125 1 2.400000000000 31.708338348138 21.816000000000 2.439102949857
2126 1 2.400000000000 34.147441297995 19.089000000000 1.219551474928
2127 1 2.400000000000 34.553958456304 22.725000000000 0.000000000000
2128 1 2.400000000000 35.366992772923 21.816000000000 3.658654424785
2129 2 -1.200000000000 33.944182718840 21.361500000000 1.829327212393
2130 2 -1.200000000000 34.757217035459 20.452500000000 23.781253761104
2131 2 -1.200000000000 35.570251352078 19.543500000000 3.048878687321
2132 2 -1.200000000000 36.383285668697 18.634500000000 0.609775737464
2133 2 -1.200000000000 35.976768510387 23.179500000000 1.829327212393
2134 2 -1.200000000000 36.789802827006 22.270500000000 23.781253761104
2135 2 -1.200000000000 37.602837143625 21.361500000000 3.048878687321
2136 2 -1.200000000000 38.415871460244 20.452500000000 0.609775737464
2137 1 2.400000000000 30.082269714900 23.634000000000 19.512823598854
2138 1 2.400000000000 32.521372664757 20.907000000000 18.293272123926
2139 1 2.400000000000 32.927889823066 24.543000000000 17.073720648997
2140 1 2.400000000000 33.740924139685 23.634000000000 20.732375073783
2141 2 -1.200000000000 32.318114085602 23.179500000000 18.903047861390
2142 2 -1.200000000000 33.131148402221 22.270500000000 16.463944911533
2143 2 -1.200000000000 33.944182718840 21.361500000000 20.122599336318
2144 2 -1.200000000000 34.757217035459 20.452500000000 17.683496386462
2145 2 -1.200000000000 34.350699877150 24.997500000000 18.903047861390
2146 2 -1.200000000000 35.163734193768 24.088500000000 16.463944911533
2147 2 -1.200000000000 35.976768510387 23.179500000000 20.122599336318
2148 2 -1.200000000000 36.789802827006 22.270500000000 17.683496386462
2149 1 2.400000000000 31.708338348138 21.816000000000 14.634617699141
2150 1 2.400000000000 34.147441297995 19.089000000000 13.415066224212
2151 1 2.400000000000 34.553958456304 22.725000000000 12.195514749284
2152 1 2.400000000000 35.366992772923 21.816000000000 15.854169174069
2153 2 -1.200000000000 33.944182718840 21.361500000000 14.024841961676
2154 2 -1.200000000000 34.757217035459 20.452500000000 11.585739011820
2155 2 -1.200000000000 35.570251352078 19.543500000000 15.244393436605
2156 2 -1.200000000000 36.383285668697 18.634500000000 12.805290486748
2157 2 -1.200000000000 35.976768510387 23.179500000000 14.024841961676
2158 2 -1.200000000000 36.789802827006 22.270500000000 11.585739011820
2159 2 -1.200000000000 37.602837143625 21.361500000000 15.244393436605
2160 2 -1.200000000000 38.415871460244 20.452500000000 12.805290486748
2161 1 2.400000000000 33.334406981376 19.998000000000 9.756411799427
2162 1 2.400000000000 35.773509931233 17.271000000000 8.536860324499
2163 1 2.400000000000 36.180027089542 20.907000000000 7.317308849570
2164 1 2.400000000000 36.993061406161 19.998000000000 10.975963274355
2165 2 -1.200000000000 35.570251352078 19.543500000000 9.146636061963
2166 2 -1.200000000000 36.383285668697 18.634500000000 6.707533112106
2167 2 -1.200000000000 37.196319985316 17.725500000000 10.366187536891
2168 2 -1.200000000000 38.009354301935 16.816500000000 7.927084587035
2169 2 -1.200000000000 37.602837143625 21.361500000000 9.146636061963
2170 2 -1.200000000000 38.415871460244 20.452500000000 6.707533112106
2171 2 -1.200000000000 39.228905776863 19.543500000000 10.366187536891
2172 2 -1.200000000000 40.041940093482 18.634500000000 7.927084587035
2173 1 2.400000000000 34.960475614614 18.180000000000 4.878205899714
2174 1 2.400000000000 37.399578564470 15.453000000000 3.658654424785
2175 1 2.400000000000 37.806095722780 19.089000000000 2.439102949857
2176 1 2.400000000000 38.619130039399 18.180000000000 6.097757374642
2177 2 -1.200000000000 37.196319985316 17.725500000000 4.268430162249
2178 2 -1.200000000000 38.009354301935 16.816500000000 1.829327212393
2179 2 -1.200000000000 38.822388618554 15.907500000000 5.487981637178
2180 2 -1.200000000000 39.635422935173 14.998500000000 3.048878687321
2181 2 -1.200000000000 39.228905776863 19.543500000000 4.268430162249
2182 2 -1.200000000000 40.041940093482 18.634500000000 1.829327212393
2183 2 -1.200000000000 40.854974410101 17.725500000000 5.487981637178
2184 2 -1.200000000000 41.668008726720 16.816500000000 3.048878687321
2185 1 2.400000000000 36.586544247852 16.362000000000 0.000000000000
2186 1 2.400000000000 39.025647197708 13.635000000000 23.171478023639
2187 1 2.400000000000 39.432164356018 17.271000000000 21.951926548711
2188 1 2.400000000000 40.245198672637 16.362000000000 1.219551474928
2189 2 -1.200000000000 38.822388618554 15.907500000000 23.781253761104
2190 2 -1.200000000000 39.635422935173 14.998500000000 21.342150811247
2191 2 -1.200000000000 40.448457251791 14.089500000000 0.609775737464
2192 2 -1.200000000000 41.261491568410 13.180500000000 22.561702286175
2193 2 -1.200000000000 40.854974410101 17.725500000000 23.781253761104
2194 2 -1.200000000000 41.668008726720 16.816500000000 21.342150811247
2195 2 -1.200000000000 42.481043043339 15.907500000000 0.609775737464
2196 2 -1.200000000000 43.294077359958 14.998500000000 22.561702286175
2197 1 2.400000000000 33.334406981376 19.998000000000 21.951926548711
2198 1 2.400000000000 35.773509931233 17.271000000000 20.732375073783
2199 1 2.400000000000 36.180027089542 20.907000000000 19.512823598854
2200 1 2.400000000000 36.993061406161 19.998000000000 23.171478023639
2201 2 -1.200000000000 35.570251352078 19.543500000000 21.342150811247
2202 2 -1.200000000000 36.383285668697 18.634500000000 18.903047861390
2203 2 -1.200000000000 37.196319985316 17.725500000000 22.561702286175
2204 2 -1.200000000000 38.009354301935 16.816500000000 20.122599336318
2205 2 -1.200000000000 37.602837143625 21.361500000000 21.342150811247
2206 2 -1.200000000000 38.415871460244 20.452500000000 18.903047861390
2207 2 -1.200000000000 39.228905776863 19.543500000000 22.561702286175
2208 2 -1.200000000000 40.041940093482 18.634500000000 20.122599336318
2209 1 2.400000000000 34.960475614614 18.180000000000 17.073720648997
2210 1 2.400000000000 37.399578564470 15.453000000000 15.854169174069
2211 1 2.400000000000 37.806095722780 19.089000000000 14.634617699141
2212 1 2.400000000000 38.619130039399 18.180000000000 18.293272123926
2213 2 -1.200000000000 37.196319985316 17.725500000000 16.463944911533
2214 2 -1.200000000000 38.009354301935 16.816500000000 14.024841961676
2215 2 -1.200000000000 38.822388618554 15.907500000000 17.683496386462
2216 2 -1.200000000000 39.635422935173 14.998500000000 15.244393436605
2217 2 -1.200000000000 39.228905776863 19.543500000000 16.463944911533
2218 2 -1.200000000000 40.041940093482 18.634500000000 14.024841961676
2219 2 -1.200000000000 40.854974410101 17.725500000000 17.683496386462
2220 2 -1.200000000000 41.668008726720 16.816500000000 15.244393436605
2221 1 2.400000000000 36.586544247852 16.362000000000 12.195514749284
2222 1 2.400000000000 39.025647197708 13.635000000000 10.975963274355
2223 1 2.400000000000 39.432164356018 17.271000000000 9.756411799427
2224 1 2.400000000000 40.245198672637 16.362000000000 13.415066224212
2225 2 -1.200000000000 38.822388618554 15.907500000000 11.585739011820
2226 2 -1.200000000000 39.635422935173 14.998500000000 9.146636061963
2227 2 -1.200000000000 40.448457251791 14.089500000000 12.805290486748
2228 2 -1.200000000000 41.261491568410 13.180500000000 10.366187536891
2229 2 -1.200000000000 40.854974410101 17.725500000000 11.585739011820
2230 2 -1.200000000000 41.668008726720 16.816500000000 9.146636061963
2231 2 -1.200000000000 42.481043043339 15.907500000000 12.805290486748
2232 2 -1.200000000000 43.294077359958 14.998500000000 10.366187536891
2233 1 2.400000000000 38.212612881089 14.544000000000 7.317308849570
2234 1 2.400000000000 40.651715830946 11.817000000000 6.097757374642
2235 1 2.400000000000 41.058232989256 15.453000000000 4.878205899714
2236 1 2.400000000000 41.871267305875 14.544000000000 8.536860324499
2237 2 -1.200000000000 40.448457251791 14.089500000000 6.707533112106
2238 2 -1.200000000000 41.261491568410 13.180500000000 4.268430162249
2239 2 -1.200000000000 42.074525885029 12.271500000000 7.927084587035
2240 2 -1.200000000000 42.887560201648 11.362500000000 5.487981637178
2241 2 -1.200000000000 42.481043043339 15.907500000000 6.707533112106
2242 2 -1.200000000000 43.294077359958 14.998500000000 4.268430162249
2243 2 -1.200000000000 44.107111676577 14.089500000000 7.927084587035
2244 2 -1.200000000000 44.920145993196 13.180500000000 5.487981637178
2245 1 2.400000000000 39.838681514327 12.726000000000 2.439102949857
2246 1 2.400000000000 42.277784464184 9.999000000000 1.219551474928
2247 1 2.400000000000 42.684301622493 13.635000000000 0.000000000000
2248 1 2.400000000000 43.497335939112 12.726000000000 3.658654424785
2249 2 -1.200000000000 42.074525885029 12.271500000000 1.829327212393
2250 2 -1.200000000000 42.887560201648 11.362500000000 23.781253761104
2251 2 -1.200000000000 43.700594518267 10.453500000000 3.048878687321
2252 2 -1.200000000000 44.513628834886 9.544500000000 0.609775737464
2253 2 -1.200000000000 44.107111676577 14.089500000000 1.829327212393
2254 2 -1.200000000000 44.920145993196 13.180500000000 23.781253761104
2255 2 -1.200000000000 45.733180309814 12.271500000000 3.048878687321
2256 2 -1.200000000000 46.546214626433 11.362500000000 0.609775737464
2257 1 2.400000000000 38.212612881089 14.544000000000 19.512823598854
2258 1 2.400000000000 40.651715830946 11.817000000000 18.293272123926
2259 1 2.400000000000 41.058232989256 15.453000000000 17.073720648997
2260 1 2.400000000000 41.871267305875 14.544000000000 20.732375073783
2261 2 -1.200000000000 40.448457251791 14.089500000000 18.903047861390
2262 2 -1.200000000000 41.261491568410 13.180500000000 16.463944911533
2263 2 -1.200000000000 42.074525885029 12.271500000000 20.122599336318
2264 2 -1.200000000000 42.887560201648 11.362500000000 17.683496386462
2265 2 -1.200000000000 42.481043043339 15.907500000000 18.903047861390
2266 2 -1.200000000000 43.294077359958 14.998500000000 16.463944911533
2267 2 -1.200000000000 44.107111676577 14.089500000000 20.122599336318
2268 2 -1.200000000000 44.920145993196 13.180500000000 17.683496386462
2269 1 2.400000000000 39.838681514327 12.726000000000 14.634617699141
2270 1 2.400000000000 42.277784464184 9.999000000000 13.415066224212
2271 1 2.400000000000 42.684301622493 13.635000000000 12.195514749284
2272 1 2.400000000000 43.497335939112 12.726000000000 15.854169174069
2273 2 -1.200000000000 42.074525885029 12.271500000000 14.024841961676
2274 2 -1.200000000000 42.887560201648 11.362500000000 11.585739011820
2275 2 -1.200000000000 43.700594518267 10.453500000000 15.244393436605
2276 2 -1.200000000000 44.513628834886 9.544500000000 12.805290486748
2277 2 -1.200000000000 44.107111676577 14.089500000000 14.024841961676
2278 2 -1.200000000000 44.920145993196 13.180500000000 11.585739011820
2279 2 -1.200000000000 45.733180309814 12.271500000000 15.244393436605
2280 2 -1.200000000000 46.546214626433 11.362500000000 12.805290486748
2281 1 2.400000000000 41.464750147565 10.908000000000 9.756411799427
2282 1 2.400000000000 43.903853097422 8.181000000000 8.536860324499
2283 1 2.400000000000 44.310370255731 11.817000000000 7.317308849570
2284 1 2.400000000000 45.123404572350 10.908000000000 10.975963274355
2285 2 -1.200000000000 43.700594518267 10.453500000000 9.146636061963
2286 2 -1.200000000000 44.513628834886 9.544500000000 6.707533112106
2287 2 -1.200000000000 45.326663151505 8.635500000000 10.366187536891
2288 2 -1.200000000000 46.139697468124 7.726500000000 7.927084587035
2289 2 -1.200000000000 45.733180309814 12.271500000000 9.146636061963
2290 2 -1.200000000000 46.546214626433 11.362500000000 6.707533112106
2291 2 -1.200000000000 47.359248943052 10.453500000000 10.366187536891
2292 2 -1.200000000000 48.172283259671 9.544500000000 7.927084587035
2293 1 2.400000000000 43.090818780803 9.090000000000 4.878205899714
2294 1 2.400000000000 45.529921730660 6.363000000000 3.658654424785
2295 1 2.400000000000 45.936438888969 9.999000000000 2.439102949857
2296 1 2.400000000000 46.749473205588 9.090000000000 6.097757374642
2297 2 -1.200000000000 45.326663151505 8.635500000000 4.268430162249
2298 2 -1.200000000000 46.139697468124 7.726500000000 1.829327212393
2299 2 -1.200000000000 46.952731784743 6.817500000000 5.487981637178
2300 2 -1.200000000000 47.765766101362 5.908500000000 3.048878687321
2301 2 -1.200000000000 47.359248943052 10.453500000000 4.268430162249
2302 2 -1.200000000000 48.172283259671 9.544500000000 1.829327212393
2303 2 -1.200000000000 48.985317576290 8.635500000000 5.487981637178
2304 2 -1.200000000000 49.798351892909 7.726500000000 3.048878687321
2305 1 2.400000000000 44.716887414041 7.272000000000 0.000000000000
2306 1 2.400000000000 47.155990363898 4.545000000000 23.171478023639
2307 1 2.400000000000 47.562507522207 8.181000000000 21.951926548711
2308 1 2.400000000000 48.375541838826 7.272000000000 1.219551474928
2309 2 -1.200000000000 46.952731784743 6.817500000000 23.781253761104
2310 2 -1.200000000000 47.765766101362 5.908500000000 21.342150811247
2311 2 -1.200000000000 48.578800417981 4.999500000000 0.609775737464
2312 2 -1.200000000000 49.391834734600 4.090500000000 22.561702286175
2313 2 -1.200000000000 48.985317576290 8.635500000000 23.781253761104
2314 2 -1.200000000000 49.798351892909 7.726500000000 21.342150811247
2315 2 -1.200000000000 50.611386209528 6.817500000000 0.609775737464
2316 2 -1.200000000000 51.424420526147 5.908500000000 22.561702286175
2317 1 2.400000000000 41.464750147565 10.908000000000 21.951926548711
2318 1 2.400000000000 43.903853097422 8.181000000000 20.732375073783
2319 1 2.400000000000 44.310370255731 11.817000000000 19.512823598854
2320 1 2.400000000000 45.123404572350 10.908000000000 23.171478023639
2321 2 -1.200000000000 43.700594518267 10.453500000000 21.342150811247
2322 2 -1.200000000000 44.513628834886 9.544500000000 18.903047861390
2323 2 -1.200000000000 45.326663151505 8.635500000000 22.561702286175
2324 2 -1.200000000000 46.139697468124 7.726500000000 20.122599336318
2325 2 -1.200000000000 45.733180309814 12.271500000000 21.342150811247
2326 2 -1.200000000000 46.546214626433 11.362500000000 18.903047861390
2327 2 -1.200000000000 47.359248943052 10.453500000000 22.561702286175
2328 2 -1.200000000000 48.172283259671 9.544500000000 20.122599336318
2329 1 2.400000000000 43.090818780803 9.090000000000 17.073720648997
2330 1 2.400000000000 45.529921730660 6.363000000000 15.854169174069
2331 1 2.400000000000 45.936438888969 9.999000000000 14.634617699141
2332 1 2.400000000000 46.749473205588 9.090000000000 18.293272123926
2333 2 -1.200000000000 45.326663151505 8.635500000000 16.463944911533
2334 2 -1.200000000000 46.139697468124 7.726500000000 14.024841961676
2335 2 -1.200000000000 46.952731784743 6.817500000000 17.683496386462
2336 2 -1.200000000000 47.765766101362 5.908500000000 15.244393436605
2337 2 -1.200000000000 47.359248943052 10.453500000000 16.463944911533
2338 2 -1.200000000000 48.172283259671 9.544500000000 14.024841961676
2339 2 -1.200000000000 48.985317576290 8.635500000000 17.683496386462
2340 2 -1.200000000000 49.798351892909 7.726500000000 15.244393436605
2341 1 2.400000000000 44.716887414041 7.272000000000 12.195514749284
2342 1 2.400000000000 47.155990363898 4.545000000000 10.975963274355
2343 1 2.400000000000 47.562507522207 8.181000000000 9.756411799427
2344 1 2.400000000000 48.375541838826 7.272000000000 13.415066224212
2345 2 -1.200000000000 46.952731784743 6.817500000000 11.585739011820
2346 2 -1.200000000000 47.765766101362 5.908500000000 9.146636061963
2347 2 -1.200000000000 48.578800417981 4.999500000000 12.805290486748
2348 2 -1.200000000000 49.391834734600 4.090500000000 10.366187536891
2349 2 -1.200000000000 48.985317576290 8.635500000000 11.585739011820
2350 2 -1.200000000000 49.798351892909 7.726500000000 9.146636061963
2351 2 -1.200000000000 50.611386209528 6.817500000000 12.805290486748
2352 2 -1.200000000000 51.424420526147 5.908500000000 10.366187536891
2353 1 2.400000000000 46.342956047279 5.454000000000 7.317308849570
2354 1 2.400000000000 48.782058997135 2.727000000000 6.097757374642
2355 1 2.400000000000 49.188576155445 6.363000000000 4.878205899714
2356 1 2.400000000000 50.001610472064 5.454000000000 8.536860324499
2357 2 -1.200000000000 48.578800417981 4.999500000000 6.707533112106
2358 2 -1.200000000000 49.391834734600 4.090500000000 4.268430162249
2359 2 -1.200000000000 50.204869051219 3.181500000000 7.927084587035
2360 2 -1.200000000000 51.017903367837 2.272500000000 5.487981637178
2361 2 -1.200000000000 50.611386209528 6.817500000000 6.707533112106
2362 2 -1.200000000000 51.424420526147 5.908500000000 4.268430162249
2363 2 -1.200000000000 52.237454842766 4.999500000000 7.927084587035
2364 2 -1.200000000000 53.050489159385 4.090500000000 5.487981637178
2365 1 2.400000000000 47.969024680516 3.636000000000 2.439102949857
2366 1 2.400000000000 50.408127630373 0.909000000000 1.219551474928
2367 1 2.400000000000 50.814644788683 4.545000000000 0.000000000000
2368 1 2.400000000000 51.627679105302 3.636000000000 3.658654424785
2369 2 -1.200000000000 50.204869051219 3.181500000000 1.829327212393
2370 2 -1.200000000000 51.017903367837 2.272500000000 23.781253761104
2371 2 -1.200000000000 51.830937684456 1.363500000000 3.048878687321
2372 2 -1.200000000000 52.643972001075 0.454500000000 0.609775737464
2373 2 -1.200000000000 52.237454842766 4.999500000000 1.829327212393
2374 2 -1.200000000000 53.050489159385 4.090500000000 23.781253761104
2375 2 -1.200000000000 53.863523476004 3.181500000000 3.048878687321
2376 2 -1.200000000000 54.676557792623 2.272500000000 0.609775737464
2377 1 2.400000000000 46.342956047279 5.454000000000 19.512823598854
2378 1 2.400000000000 48.782058997135 2.727000000000 18.293272123926
2379 1 2.400000000000 49.188576155445 6.363000000000 17.073720648997
2380 1 2.400000000000 50.001610472064 5.454000000000 20.732375073783
2381 2 -1.200000000000 48.578800417981 4.999500000000 18.903047861390
2382 2 -1.200000000000 49.391834734600 4.090500000000 16.463944911533
2383 2 -1.200000000000 50.204869051219 3.181500000000 20.122599336318
2384 2 -1.200000000000 51.017903367837 2.272500000000 17.683496386462
2385 2 -1.200000000000 50.611386209528 6.817500000000 18.903047861390
2386 2 -1.200000000000 51.424420526147 5.908500000000 16.463944911533
2387 2 -1.200000000000 52.237454842766 4.999500000000 20.122599336318
2388 2 -1.200000000000 53.050489159385 4.090500000000 17.683496386462
2389 1 2.400000000000 47.969024680516 3.636000000000 14.634617699141
2390 1 2.400000000000 50.408127630373 0.909000000000 13.415066224212
2391 1 2.400000000000 50.814644788683 4.545000000000 12.195514749284
2392 1 2.400000000000 51.627679105302 3.636000000000 15.854169174069
2393 2 -1.200000000000 50.204869051219 3.181500000000 14.024841961676
2394 2 -1.200000000000 51.017903367837 2.272500000000 11.585739011820
2395 2 -1.200000000000 51.830937684456 1.363500000000 15.244393436605
2396 2 -1.200000000000 52.643972001075 0.454500000000 12.805290486748
2397 2 -1.200000000000 52.237454842766 4.999500000000 14.024841961676
2398 2 -1.200000000000 53.050489159385 4.090500000000 11.585739011820
2399 2 -1.200000000000 53.863523476004 3.181500000000 15.244393436605
2400 2 -1.200000000000 54.676557792623 2.272500000000 12.805290486748
2401 1 2.400000000000 49.595093313754 1.818000000000 9.756411799427
2402 1 2.400000000000 52.034196263611 31.815000000000 8.536860324499
2403 1 2.400000000000 52.440713421921 2.727000000000 7.317308849570
2404 1 2.400000000000 53.253747738539 1.818000000000 10.975963274355
2405 2 -1.200000000000 51.830937684456 1.363500000000 9.146636061963
2406 2 -1.200000000000 52.643972001075 0.454500000000 6.707533112106
2407 2 -1.200000000000 53.457006317694 32.269500000000 10.366187536891
2408 2 -1.200000000000 54.270040634313 31.360500000000 7.927084587035
2409 2 -1.200000000000 53.863523476004 3.181500000000 9.146636061963
2410 2 -1.200000000000 54.676557792623 2.272500000000 6.707533112106
2411 2 -1.200000000000 55.489592109242 1.363500000000 10.366187536891
2412 2 -1.200000000000 56.302626425860 0.454500000000 7.927084587035
2413 1 2.400000000000 51.221161946992 0.000000000000 4.878205899714
2414 1 2.400000000000 53.660264896849 29.997000000000 3.658654424785
2415 1 2.400000000000 54.066782055158 0.909000000000 2.439102949857
2416 1 2.400000000000 54.879816371777 0.000000000000 6.097757374642
2417 2 -1.200000000000 53.457006317694 32.269500000000 4.268430162249
2418 2 -1.200000000000 54.270040634313 31.360500000000 1.829327212393
2419 2 -1.200000000000 55.083074950932 30.451500000000 5.487981637178
2420 2 -1.200000000000 55.896109267551 29.542500000000 3.048878687321
2421 2 -1.200000000000 55.489592109242 1.363500000000 4.268430162249
2422 2 -1.200000000000 56.302626425860 0.454500000000 1.829327212393
2423 2 -1.200000000000 57.115660742479 32.269500000000 5.487981637178
2424 2 -1.200000000000 57.928695059098 31.360500000000 3.048878687321
2425 1 2.400000000000 49.595093313754 1.818000000000 21.951926548711
2426 1 2.400000000000 52.034196263611 31.815000000000 20.732375073783
2427 1 2.400000000000 52.440713421921 2.727000000000 19.512823598854
2428 1 2.400000000000 53.253747738539 1.818000000000 23.171478023639
2429 2 -1.200000000000 51.830937684456 1.363500000000 21.342150811247
2430 2 -1.200000000000 52.643972001075 0.454500000000 18.903047861390
2431 2 -1.200000000000 53.457006317694 32.269500000000 22.561702286175
2432 2 -1.200000000000 54.270040634313 31.360500000000 20.122599336318
2433 2 -1.200000000000 53.863523476004 3.181500000000 21.342150811247
2434 2 -1.200000000000 54.676557792623 2.272500000000 18.903047861390
2435 2 -1.200000000000 55.489592109242 1.363500000000 22.561702286175
2436 2 -1.200000000000 56.302626425860 0.454500000000 20.122599336318
2437 1 2.400000000000 51.221161946992 0.000000000000 17.073720648997
2438 1 2.400000000000 53.660264896849 29.997000000000 15.854169174069
2439 1 2.400000000000 54.066782055158 0.909000000000 14.634617699141
2440 1 2.400000000000 54.879816371777 0.000000000000 18.293272123926
2441 2 -1.200000000000 53.457006317694 32.269500000000 16.463944911533
2442 2 -1.200000000000 54.270040634313 31.360500000000 14.024841961676
2443 2 -1.200000000000 55.083074950932 30.451500000000 17.683496386462
2444 2 -1.200000000000 55.896109267551 29.542500000000 15.244393436605
2445 2 -1.200000000000 55.489592109242 1.363500000000 16.463944911533
2446 2 -1.200000000000 56.302626425860 0.454500000000 14.024841961676
2447 2 -1.200000000000 57.115660742479 32.269500000000 17.683496386462
2448 2 -1.200000000000 57.928695059098 31.360500000000 15.244393436605
2449 1 2.400000000000 30.895304031519 30.906000000000 4.878205899714
2450 1 2.400000000000 33.334406981376 28.179000000000 3.658654424785
2451 1 2.400000000000 33.740924139685 31.815000000000 2.439102949857
2452 1 2.400000000000 34.553958456304 30.906000000000 6.097757374642
2453 2 -1.200000000000 33.131148402221 30.451500000000 4.268430162249
2454 2 -1.200000000000 33.944182718840 29.542500000000 1.829327212393
2455 2 -1.200000000000 34.757217035459 28.633500000000 5.487981637178
2456 2 -1.200000000000 35.570251352078 27.724500000000 3.048878687321
2457 2 -1.200000000000 35.163734193768 32.269500000000 4.268430162249
2458 2 -1.200000000000 35.976768510387 31.360500000000 1.829327212393
2459 2 -1.200000000000 36.789802827006 30.451500000000 5.487981637178
2460 2 -1.200000000000 37.602837143625 29.542500000000 3.048878687321
2461 1 2.400000000000 32.521372664757 29.088000000000 0.000000000000
2462 1 2.400000000000 34.960475614614 26.361000000000 23.171478023639
2463 1 2.400000000000 35.366992772923 29.997000000000 21.951926548711
2464 1 2.400000000000 36.180027089542 29.088000000000 1.219551474928
2465 2 -1.200000000000 34.757217035459 28.633500000000 23.781253761104
2466 2 -1.200000000000 35.570251352078 27.724500000000 21.342150811247
2467 2 -1.200000000000 36.383285668697 26.815500000000 0.609775737464
2468 2 -1.200000000000 37.196319985316 25.906500000000 22.561702286175
2469 2 -1.200000000000 36.789802827006 30.451500000000 23.781253761104
2470 2 -1.200000000000 37.602837143625 29.542500000000 21.342150811247
2471 2 -1.200000000000 38.415871460244 28.633500000000 0.609775737464
2472 2 -1.200000000000 39.228905776863 27.724500000000 22.561702286175
2473 1 2.400000000000 30.895304031519 30.906000000000 17.073720648997
2474 1 2.400000000000 33.334406981376 28.179000000000 15.854169174069
2475 1 2.400000000000 33.740924139685 31.815000000000 14.634617699141
2476 1 2.400000000000 34.553958456304 30.906000000000 18.293272123926
2477 2 -1.200000000000 33.131148402221 30.451500000000 16.463944911533
2478 2 -1.200000000000 33.944182718840 29.542500000000 14.024841961676
2479 2 -1.200000000000 34.757217035459 28.633500000000 17.683496386462
2480 2 -1.200000000000 35.570251352078 27.724500000000 15.244393436605
2481 2 -1.200000000000 35.163734193768 32.269500000000 16.463944911533
2482 2 -1.200000000000 35.976768510387 31.360500000000 14.024841961676
2483 2 -1.200000000000 36.789802827006 30.451500000000 17.683496386462
2484 2 -1.200000000000 37.602837143625 29.542500000000 15.244393436605
2485 1 2.400000000000 32.521372664757 29.088000000000 12.195514749284
2486 1 2.400000000000 34.960475614614 26.361000000000 10.975963274355
2487 1 2.400000000000 35.366992772923 29.997000000000 9.756411799427
2488 1 2.400000000000 36.180027089542 29.088000000000 13.415066224212
2489 2 -1.200000000000 34.757217035459 28.633500000000 11.585739011820
2490 2 -1.200000000000 35.570251352078 27.724500000000 9.146636061963
2491 2 -1.200000000000 36.383285668697 26.815500000000 12.805290486748
2492 2 -1.200000000000 37.196319985316 25.906500000000 10.366187536891
2493 2 -1.200000000000 36.789802827006 30.451500000000 11.585739011820
2494 2 -1.200000000000 37.602837143625 29.542500000000 9.146636061963
2495 2 -1.200000000000 38.415871460244 28.633500000000 12.805290486748
2496 2 -1.200000000000 39.228905776863 27.724500000000 10.366187536891
2497 1 2.400000000000 34.147441297995 27.270000000000 7.317308849570
2498 1 2.400000000000 36.586544247852 24.543000000000 6.097757374642
2499 1 2.400000000000 36.993061406161 28.179000000000 4.878205899714
2500 1 2.400000000000 37.806095722780 27.270000000000 8.536860324499
2501 2 -1.200000000000 36.383285668697 26.815500000000 6.707533112106
2502 2 -1.200000000000 37.196319985316 25.906500000000 4.268430162249
2503 2 -1.200000000000 38.009354301935 24.997500000000 7.927084587035
2504 2 -1.200000000000 38.822388618554 24.088500000000 5.487981637178
2505 2 -1.200000000000 38.415871460244 28.633500000000 6.707533112106
2506 2 -1.200000000000 39.228905776863 27.724500000000 4.268430162249
2507 2 -1.200000000000 40.041940093482 26.815500000000 7.927084587035
2508 2 -1.200000000000 40.854974410101 25.906500000000 5.487981637178
2509 1 2.400000000000 35.773509931233 25.452000000000 2.439102949857
2510 1 2.400000000000 38.212612881089 22.725000000000 1.219551474928
2511 1 2.400000000000 38.619130039399 26.361000000000 0.000000000000
2512 1 2.400000000000 39.432164356018 25.452000000000 3.658654424785
2513 2 -1.200000000000 38.009354301935 24.997500000000 1.829327212393
2514 2 -1.200000000000 38.822388618554 24.088500000000 23.781253761104
2515 2 -1.200000000000 39.635422935173 23.179500000000 3.048878687321
2516 2 -1.200000000000 40.448457251791 22.270500000000 0.609775737464
2517 2 -1.200000000000 40.041940093482 26.815500000000 1.829327212393
2518 2 -1.200000000000 40.854974410101 25.906500000000 23.781253761104
2519 2 -1.200000000000 41.668008726720 24.997500000000 3.048878687321
2520 2 -1.200000000000 42.481043043339 24.088500000000 0.609775737464
2521 1 2.400000000000 34.147441297995 27.270000000000 19.512823598854
2522 1 2.400000000000 36.586544247852 24.543000000000 18.293272123926
2523 1 2.400000000000 36.993061406161 28.179000000000 17.073720648997
2524 1 2.400000000000 37.806095722780 27.270000000000 20.732375073783
2525 2 -1.200000000000 36.383285668697 26.815500000000 18.903047861390
2526 2 -1.200000000000 37.196319985316 25.906500000000 16.463944911533
2527 2 -1.200000000000 38.009354301935 24.997500000000 20.122599336318
2528 2 -1.200000000000 38.822388618554 24.088500000000 17.683496386462
2529 2 -1.200000000000 38.415871460244 28.633500000000 18.903047861390
2530 2 -1.200000000000 39.228905776863 27.724500000000 16.463944911533
2531 2 -1.200000000000 40.041940093482 26.815500000000 20.122599336318
2532 2 -1.200000000000 40.854974410101 25.906500000000 17.683496386462
2533 1 2.400000000000 35.773509931233 25.452000000000 14.634617699141
2534 1 2.400000000000 38.212612881089 22.725000000000 13.415066224212
2535 1 2.400000000000 38.619130039399 26.361000000000 12.195514749284
2536 1 2.400000000000 39.432164356018 25.452000000000 15.854169174069
2537 2 -1.200000000000 38.009354301935 24.997500000000 14.024841961676
2538 2 -1.200000000000 38.822388618554 24.088500000000 11.585739011820
2539 2 -1.200000000000 39.635422935173 23.179500000000 15.244393436605
2540 2 -1.200000000000 40.448457251791 22.270500000000 12.805290486748
2541 2 -1.200000000000 40.041940093482 26.815500000000 14.024841961676
2542 2 -1.200000000000 40.854974410101 25.906500000000 11.585739011820
2543 2 -1.200000000000 41.668008726720 24.997500000000 15.244393436605
2544 2 -1.200000000000 42.481043043339 24.088500000000 12.805290486748
2545 1 2.400000000000 37.399578564470 23.634000000000 9.756411799427
2546 1 2.400000000000 39.838681514327 20.907000000000 8.536860324499
2547 1 2.400000000000 40.245198672637 24.543000000000 7.317308849570
2548 1 2.400000000000 41.058232989256 23.634000000000 10.975963274355
2549 2 -1.200000000000 39.635422935173 23.179500000000 9.146636061963
2550 2 -1.200000000000 40.448457251791 22.270500000000 6.707533112106
2551 2 -1.200000000000 41.261491568410 21.361500000000 10.366187536891
2552 2 -1.200000000000 42.074525885029 20.452500000000 7.927084587035
2553 2 -1.200000000000 41.668008726720 24.997500000000 9.146636061963
2554 2 -1.200000000000 42.481043043339 24.088500000000 6.707533112106
2555 2 -1.200000000000 43.294077359958 23.179500000000 10.366187536891
2556 2 -1.200000000000 44.107111676577 22.270500000000 7.927084587035
2557 1 2.400000000000 39.025647197708 21.816000000000 4.878205899714
2558 1 2.400000000000 41.464750147565 19.089000000000 3.658654424785
2559 1 2.400000000000 41.871267305875 22.725000000000 2.439102949857
2560 1 2.400000000000 42.684301622493 21.816000000000 6.097757374642
2561 2 -1.200000000000 41.261491568410 21.361500000000 4.268430162249
2562 2 -1.200000000000 42.074525885029 20.452500000000 1.829327212393
2563 2 -1.200000000000 42.887560201648 19.543500000000 5.487981637178
2564 2 -1.200000000000 43.700594518267 18.634500000000 3.048878687321
2565 2 -1.200000000000 43.294077359958 23.179500000000 4.268430162249
2566 2 -1.200000000000 44.107111676577 22.270500000000 1.829327212393
2567 2 -1.200000000000 44.920145993196 21.361500000000 5.487981637178
2568 2 -1.200000000000 45.733180309814 20.452500000000 3.048878687321
2569 1 2.400000000000 40.651715830946 19.998000000000 0.000000000000
2570 1 2.400000000000 43.090818780803 17.271000000000 23.171478023639
2571 1 2.400000000000 43.497335939112 20.907000000000 21.951926548711
2572 1 2.400000000000 44.310370255731 19.998000000000 1.219551474928
2573 2 -1.200000000000 42.887560201648 19.543500000000 23.781253761104
2574 2 -1.200000000000 43.700594518267 18.634500000000 21.342150811247
2575 2 -1.200000000000 44.513628834886 17.725500000000 0.609775737464
2576 2 -1.200000000000 45.326663151505 16.816500000000 22.561702286175
2577 2 -1.200000000000 44.920145993196 21.361500000000 23.781253761104
2578 2 -1.200000000000 45.733180309814 20.452500000000 21.342150811247
2579 2 -1.200000000000 46.546214626433 19.543500000000 0.609775737464
2580 2 -1.200000000000 47.359248943052 18.634500000000 22.561702286175
2581 1 2.400000000000 37.399578564470 23.634000000000 21.951926548711
2582 1 2.400000000000 39.838681514327 20.907000000000 20.732375073783
2583 1 2.400000000000 40.245198672637 24.543000000000 19.512823598854
2584 1 2.400000000000 41.058232989256 23.634000000000 23.171478023639
2585 2 -1.200000000000 39.635422935173 23.179500000000 21.342150811247
2586 2 -1.200000000000 40.448457251791 22.270500000000 18.903047861390
2587 2 -1.200000000000 41.261491568410 21.361500000000 22.561702286175
2588 2 -1.200000000000 42.074525885029 20.452500000000 20.122599336318
2589 2 -1.200000000000 41.668008726720 24.997500000000 21.342150811247
2590 2 -1.200000000000 42.481043043339 24.088500000000 18.903047861390
2591 2 -1.200000000000 43.294077359958 23.179500000000 22.561702286175
2592 2 -1.200000000000 44.107111676577 22.270500000000 20.122599336318
2593 1 2.400000000000 39.025647197708 21.816000000000 17.073720648997
2594 1 2.400000000000 41.464750147565 19.089000000000 15.854169174069
2595 1 2.400000000000 41.871267305875 22.725000000000 14.634617699141
2596 1 2.400000000000 42.684301622493 21.816000000000 18.293272123926
2597 2 -1.200000000000 41.261491568410 21.361500000000 16.463944911533
2598 2 -1.200000000000 42.074525885029 20.452500000000 14.024841961676
2599 2 -1.200000000000 42.887560201648 19.543500000000 17.683496386462
2600 2 -1.200000000000 43.700594518267 18.634500000000 15.244393436605
2601 2 -1.200000000000 43.294077359958 23.179500000000 16.463944911533
2602 2 -1.200000000000 44.107111676577 22.270500000000 14.024841961676
2603 2 -1.200000000000 44.920145993196 21.361500000000 17.683496386462
2604 2 -1.200000000000 45.733180309814 20.452500000000 15.244393436605
2605 1 2.400000000000 40.651715830946 19.998000000000 12.195514749284
2606 1 2.400000000000 43.090818780803 17.271000000000 10.975963274355
2607 1 2.400000000000 43.497335939112 20.907000000000 9.756411799427
2608 1 2.400000000000 44.310370255731 19.998000000000 13.415066224212
2609 2 -1.200000000000 42.887560201648 19.543500000000 11.585739011820
2610 2 -1.200000000000 43.700594518267 18.634500000000 9.146636061963
2611 2 -1.200000000000 44.513628834886 17.725500000000 12.805290486748
2612 2 -1.200000000000 45.326663151505 16.816500000000 10.366187536891
2613 2 -1.200000000000 44.920145993196 21.361500000000 11.585739011820
2614 2 -1.200000000000 45.733180309814 20.452500000000 9.146636061963
2615 2 -1.200000000000 46.546214626433 19.543500000000 12.805290486748
2616 2 -1.200000000000 47.359248943052 18.634500000000 10.366187536891
2617 1 2.400000000000 42.277784464184 18.180000000000 7.317308849570
2618 1 2.400000000000 44.716887414041 15.453000000000 6.097757374642
2619 1 2.400000000000 45.123404572350 19.089000000000 4.878205899714
2620 1 2.400000000000 45.936438888969 18.180000000000 8.536860324499
2621 2 -1.200000000000 44.513628834886 17.725500000000 6.707533112106
2622 2 -1.200000000000 45.326663151505 16.816500000000 4.268430162249
2623 2 -1.200000000000 46.139697468124 15.907500000000 7.927084587035
2624 2 -1.200000000000 46.952731784743 14.998500000000 5.487981637178
2625 2 -1.200000000000 46.546214626433 19.543500000000 6.707533112106
2626 2 -1.200000000000 47.359248943052 18.634500000000 4.268430162249
2627 2 -1.200000000000 48.172283259671 17.725500000000 7.927084587035
2628 2 -1.200000000000 48.985317576290 16.816500000000 5.487981637178
2629 1 2.400000000000 43.903853097422 16.362000000000 2.439102949857
2630 1 2.400000000000 46.342956047279 13.635000000000 1.219551474928
2631 1 2.400000000000 46.749473205588 17.271000000000 0.000000000000
2632 1 2.400000000000 47.562507522207 16.362000000000 3.658654424785
2633 2 -1.200000000000 46.139697468124 15.907500000000 1.829327212393
2634 2 -1.200000000000 46.952731784743 14.998500000000 23.781253761104
2635 2 -1.200000000000 47.765766101362 14.089500000000 3.048878687321
2636 2 -1.200000000000 48.578800417981 13.180500000000 0.609775737464
2637 2 -1.200000000000 48.172283259671 17.725500000000 1.829327212393
2638 2 -1.200000000000 48.985317576290 16.816500000000 23.781253761104
2639 2 -1.200000000000 49.798351892909 15.907500000000 3.048878687321
2640 2 -1.200000000000 50.611386209528 14.998500000000 0.609775737464
2641 1 2.400000000000 42.277784464184 18.180000000000 19.512823598854
2642 1 2.400000000000 44.716887414041 15.453000000000 18.293272123926
2643 1 2.400000000000 45.123404572350 19.089000000000 17.073720648997
2644 1 2.400000000000 45.936438888969 18.180000000000 20.732375073783
2645 2 -1.200000000000 44.513628834886 17.725500000000 18.903047861390
2646 2 -1.200000000000 45.326663151505 16.816500000000 16.463944911533
2647 2 -1.200000000000 46.139697468124 15.907500000000 20.122599336318
2648 2 -1.200000000000 46.952731784743 14.998500000000 17.683496386462
2649 2 -1.200000000000 46.546214626433 19.543500000000 18.903047861390
2650 2 -1.200000000000 47.359248943052 18.634500000000 16.463944911533
2651 2 -1.200000000000 48.172283259671 17.725500000000 20.122599336318
2652 2 -1.200000000000 48.985317576290 16.816500000000 17.683496386462
2653 1 2.400000000000 43.903853097422 16.362000000000 14.634617699141
2654 1 2.400000000000 46.342956047279 13.635000000000 13.415066224212
2655 1 2.400000000000 46.749473205588 17.271000000000 12.195514749284
2656 1 2.400000000000 47.562507522207 16.362000000000 15.854169174069
2657 2 -1.200000000000 46.139697468124 15.907500000000 14.024841961676
2658 2 -1.200000000000 46.952731784743 14.998500000000 11.585739011820
2659 2 -1.200000000000 47.765766101362 14.089500000000 15.244393436605
2660 2 -1.200000000000 48.578800417981 13.180500000000 12.805290486748
2661 2 -1.200000000000 48.172283259671 17.725500000000 14.024841961676
2662 2 -1.200000000000 48.985317576290 16.816500000000 11.585739011820
2663 2 -1.200000000000 49.798351892909 15.907500000000 15.244393436605
2664 2 -1.200000000000 50.611386209528 14.998500000000 12.805290486748
2665 1 2.400000000000 45.529921730660 14.544000000000 9.756411799427
2666 1 2.400000000000 47.969024680516 11.817000000000 8.536860324499
2667 1 2.400000000000 48.375541838826 15.453000000000 7.317308849570
2668 1 2.400000000000 49.188576155445 14.544000000000 10.975963274355
2669 2 -1.200000000000 47.765766101362 14.089500000000 9.146636061963
2670 2 -1.200000000000 48.578800417981 13.180500000000 6.707533112106
2671 2 -1.200000000000 49.391834734600 12.271500000000 10.366187536891
2672 2 -1.200000000000 50.204869051219 11.362500000000 7.927084587035
2673 2 -1.200000000000 49.798351892909 15.907500000000 9.146636061963
2674 2 -1.200000000000 50.611386209528 14.998500000000 6.707533112106
2675 2 -1.200000000000 51.424420526147 14.089500000000 10.366187536891
2676 2 -1.200000000000 52.237454842766 13.180500000000 7.927084587035
2677 1 2.400000000000 47.155990363898 12.726000000000 4.878205899714
2678 1 2.400000000000 49.595093313754 9.999000000000 3.658654424785
2679 1 2.400000000000 50.001610472064 13.635000000000 2.439102949857
2680 1 2.400000000000 50.814644788683 12.726000000000 6.097757374642
2681 2 -1.200000000000 49.391834734600 12.271500000000 4.268430162249
2682 2 -1.200000000000 50.204869051219 11.362500000000 1.829327212393
2683 2 -1.200000000000 51.017903367837 10.453500000000 5.487981637178
2684 2 -1.200000000000 51.830937684456 9.544500000000 3.048878687321
2685 2 -1.200000000000 51.424420526147 14.089500000000 4.268430162249
2686 2 -1.200000000000 52.237454842766 13.180500000000 1.829327212393
2687 2 -1.200000000000 53.050489159385 12.271500000000 5.487981637178
2688 2 -1.200000000000 53.863523476004 11.362500000000 3.048878687321
2689 1 2.400000000000 48.782058997135 10.908000000000 0.000000000000
2690 1 2.400000000000 51.221161946992 8.181000000000 23.171478023639
2691 1 2.400000000000 51.627679105302 11.817000000000 21.951926548711
2692 1 2.400000000000 52.440713421921 10.908000000000 1.219551474928
2693 2 -1.200000000000 51.017903367837 10.453500000000 23.781253761104
2694 2 -1.200000000000 51.830937684456 9.544500000000 21.342150811247
2695 2 -1.200000000000 52.643972001075 8.635500000000 0.609775737464
2696 2 -1.200000000000 53.457006317694 7.726500000000 22.561702286175
2697 2 -1.200000000000 53.050489159385 12.271500000000 23.781253761104
2698 2 -1.200000000000 53.863523476004 11.362500000000 21.342150811247
2699 2 -1.200000000000 54.676557792623 10.453500000000 0.609775737464
2700 2 -1.200000000000 55.489592109242 9.544500000000 22.561702286175
2701 1 2.400000000000 45.529921730660 14.544000000000 21.951926548711
2702 1 2.400000000000 47.969024680516 11.817000000000 20.732375073783
2703 1 2.400000000000 48.375541838826 15.453000000000 19.512823598854
2704 1 2.400000000000 49.188576155445 14.544000000000 23.171478023639
2705 2 -1.200000000000 47.765766101362 14.089500000000 21.342150811247
2706 2 -1.200000000000 48.578800417981 13.180500000000 18.903047861390
2707 2 -1.200000000000 49.391834734600 12.271500000000 22.561702286175
2708 2 -1.200000000000 50.204869051219 11.362500000000 20.122599336318
2709 2 -1.200000000000 49.798351892909 15.907500000000 21.342150811247
2710 2 -1.200000000000 50.611386209528 14.998500000000 18.903047861390
2711 2 -1.200000000000 51.424420526147 14.089500000000 22.561702286175
2712 2 -1.200000000000 52.237454842766 13.180500000000 20.122599336318
2713 1 2.400000000000 47.155990363898 12.726000000000 17.073720648997
2714 1 2.400000000000 49.595093313754 9.999000000000 15.854169174069
2715 1 2.400000000000 50.001610472064 13.635000000000 14.634617699141
2716 1 2.400000000000 50.814644788683 12.726000000000 18.293272123926
2717 2 -1.200000000000 49.391834734600 12.271500000000 16.463944911533
2718 2 -1.200000000000 50.204869051219 11.362500000000 14.024841961676
2719 2 -1.200000000000 51.017903367837 10.453500000000 17.683496386462
2720 2 -1.200000000000 51.830937684456 9.544500000000 15.244393436605
2721 2 -1.200000000000 51.424420526147 14.089500000000 16.463944911533
2722 2 -1.200000000000 52.237454842766 13.180500000000 14.024841961676
2723 2 -1.200000000000 53.050489159385 12.271500000000 17.683496386462
2724 2 -1.200000000000 53.863523476004 11.362500000000 15.244393436605
2725 1 2.400000000000 48.782058997135 10.908000000000 12.195514749284
2726 1 2.400000000000 51.221161946992 8.181000000000 10.975963274355
2727 1 2.400000000000 51.627679105302 11.817000000000 9.756411799427
2728 1 2.400000000000 52.440713421921 10.908000000000 13.415066224212
2729 2 -1.200000000000 51.017903367837 10.453500000000 11.585739011820
2730 2 -1.200000000000 51.830937684456 9.544500000000 9.146636061963
2731 2 -1.200000000000 52.643972001075 8.635500000000 12.805290486748
2732 2 -1.200000000000 53.457006317694 7.726500000000 10.366187536891
2733 2 -1.200000000000 53.050489159385 12.271500000000 11.585739011820
2734 2 -1.200000000000 53.863523476004 11.362500000000 9.146636061963
2735 2 -1.200000000000 54.676557792623 10.453500000000 12.805290486748
2736 2 -1.200000000000 55.489592109242 9.544500000000 10.366187536891
2737 1 2.400000000000 50.408127630373 9.090000000000 7.317308849570
2738 1 2.400000000000 52.847230580230 6.363000000000 6.097757374642
2739 1 2.400000000000 53.253747738539 9.999000000000 4.878205899714
2740 1 2.400000000000 54.066782055158 9.090000000000 8.536860324499
2741 2 -1.200000000000 52.643972001075 8.635500000000 6.707533112106
2742 2 -1.200000000000 53.457006317694 7.726500000000 4.268430162249
2743 2 -1.200000000000 54.270040634313 6.817500000000 7.927084587035
2744 2 -1.200000000000 55.083074950932 5.908500000000 5.487981637178
2745 2 -1.200000000000 54.676557792623 10.453500000000 6.707533112106
2746 2 -1.200000000000 55.489592109242 9.544500000000 4.268430162249
2747 2 -1.200000000000 56.302626425860 8.635500000000 7.927084587035
2748 2 -1.200000000000 57.115660742479 7.726500000000 5.487981637178
2749 1 2.400000000000 52.034196263611 7.272000000000 2.439102949857
2750 1 2.400000000000 54.473299213468 4.545000000000 1.219551474928
2751 1 2.400000000000 54.879816371777 8.181000000000 0.000000000000
2752 1 2.400000000000 55.692850688396 7.272000000000 3.658654424785
2753 2 -1.200000000000 54.270040634313 6.817500000000 1.829327212393
2754 2 -1.200000000000 55.083074950932 5.908500000000 23.781253761104
2755 2 -1.200000000000 55.896109267551 4.999500000000 3.048878687321
2756 2 -1.200000000000 56.709143584170 4.090500000000 0.609775737464
2757 2 -1.200000000000 56.302626425860 8.635500000000 1.829327212393
2758 2 -1.200000000000 57.115660742479 7.726500000000 23.781253761104
2759 2 -1.200000000000 57.928695059098 6.817500000000 3.048878687321
2760 2 -1.200000000000 58.741729375717 5.908500000000 0.609775737464
2761 1 2.400000000000 50.408127630373 9.090000000000 19.512823598854
2762 1 2.400000000000 52.847230580230 6.363000000000 18.293272123926
2763 1 2.400000000000 53.253747738539 9.999000000000 17.073720648997
2764 1 2.400000000000 54.066782055158 9.090000000000 20.732375073783
2765 2 -1.200000000000 52.643972001075 8.635500000000 18.903047861390
2766 2 -1.200000000000 53.457006317694 7.726500000000 16.463944911533
2767 2 -1.200000000000 54.270040634313 6.817500000000 20.122599336318
2768 2 -1.200000000000 55.083074950932 5.908500000000 17.683496386462
2769 2 -1.200000000000 54.676557792623 10.453500000000 18.903047861390
2770 2 -1.200000000000 55.489592109242 9.544500000000 16.463944911533
2771 2 -1.200000000000 56.302626425860 8.635500000000 20.122599336318
2772 2 -1.200000000000 57.115660742479 7.726500000000 17.683496386462
2773 1 2.400000000000 52.034196263611 7.272000000000 14.634617699141
2774 1 2.400000000000 54.473299213468 4.545000000000 13.415066224212
2775 1 2.400000000000 54.879816371777 8.181000000000 12.195514749284
2776 1 2.400000000000 55.692850688396 7.272000000000 15.854169174069
2777 2 -1.200000000000 54.270040634313 6.817500000000 14.024841961676
2778 2 -1.200000000000 55.083074950932 5.908500000000 11.585739011820
2779 2 -1.200000000000 55.896109267551 4.999500000000 15.244393436605
2780 2 -1.200000000000 56.709143584170 4.090500000000 12.805290486748
2781 2 -1.200000000000 56.302626425860 8.635500000000 14.024841961676
2782 2 -1.200000000000 57.115660742479 7.726500000000 11.585739011820
2783 2 -1.200000000000 57.928695059098 6.817500000000 15.244393436605
2784 2 -1.200000000000 58.741729375717 5.908500000000 12.805290486748
2785 1 2.400000000000 53.660264896849 5.454000000000 9.756411799427
2786 1 2.400000000000 56.099367846706 2.727000000000 8.536860324499
2787 1 2.400000000000 56.505885005015 6.363000000000 7.317308849570
2788 1 2.400000000000 57.318919321634 5.454000000000 10.975963274355
2789 2 -1.200000000000 55.896109267551 4.999500000000 9.146636061963
2790 2 -1.200000000000 56.709143584170 4.090500000000 6.707533112106
2791 2 -1.200000000000 57.522177900789 3.181500000000 10.366187536891
2792 2 -1.200000000000 58.335212217408 2.272500000000 7.927084587035
2793 2 -1.200000000000 57.928695059098 6.817500000000 9.146636061963
2794 2 -1.200000000000 58.741729375717 5.908500000000 6.707533112106
2795 2 -1.200000000000 59.554763692336 4.999500000000 10.366187536891
2796 2 -1.200000000000 60.367798008955 4.090500000000 7.927084587035
2797 1 2.400000000000 55.286333530087 3.636000000000 4.878205899714
2798 1 2.400000000000 57.725436479944 0.909000000000 3.658654424785
2799 1 2.400000000000 58.131953638253 4.545000000000 2.439102949857
2800 1 2.400000000000 58.944987954872 3.636000000000 6.097757374642
2801 2 -1.200000000000 57.522177900789 3.181500000000 4.268430162249
2802 2 -1.200000000000 58.335212217408 2.272500000000 1.829327212393
2803 2 -1.200000000000 59.148246534027 1.363500000000 5.487981637178
2804 2 -1.200000000000 59.961280850646 0.454500000000 3.048878687321
2805 2 -1.200000000000 59.554763692336 4.999500000000 4.268430162249
2806 2 -1.200000000000 60.367798008955 4.090500000000 1.829327212393
2807 2 -1.200000000000 61.180832325574 3.181500000000 5.487981637178
2808 2 -1.200000000000 61.993866642193 2.272500000000 3.048878687321
2809 1 2.400000000000 56.912402163325 1.818000000000 0.000000000000
2810 1 2.400000000000 59.351505113181 31.815000000000 23.171478023639
2811 1 2.400000000000 59.758022271491 2.727000000000 21.951926548711
2812 1 2.400000000000 60.571056588110 1.818000000000 1.219551474928
2813 2 -1.200000000000 59.148246534027 1.363500000000 23.781253761104
2814 2 -1.200000000000 59.961280850646 0.454500000000 21.342150811247
2815 2 -1.200000000000 60.774315167265 32.269500000000 0.609775737464
2816 2 -1.200000000000 61.587349483883 31.360500000000 22.561702286175
2817 2 -1.200000000000 61.180832325574 3.181500000000 23.781253761104
2818 2 -1.200000000000 61.993866642193 2.272500000000 21.342150811247
2819 2 -1.200000000000 62.806900958812 1.363500000000 0.609775737464
2820 2 -1.200000000000 63.619935275431 0.454500000000 22.561702286175
2821 1 2.400000000000 53.660264896849 5.454000000000 21.951926548711
2822 1 2.400000000000 56.099367846706 2.727000000000 20.732375073783
2823 1 2.400000000000 56.505885005015 6.363000000000 19.512823598854
2824 1 2.400000000000 57.318919321634 5.454000000000 23.171478023639
2825 2 -1.200000000000 55.896109267551 4.999500000000 21.342150811247
2826 2 -1.200000000000 56.709143584170 4.090500000000 18.903047861390
2827 2 -1.200000000000 57.522177900789 3.181500000000 22.561702286175
2828 2 -1.200000000000 58.335212217408 2.272500000000 20.122599336318
2829 2 -1.200000000000 57.928695059098 6.817500000000 21.342150811247
2830 2 -1.200000000000 58.741729375717 5.908500000000 18.903047861390
2831 2 -1.200000000000 59.554763692336 4.999500000000 22.561702286175
2832 2 -1.200000000000 60.367798008955 4.090500000000 20.122599336318
2833 1 2.400000000000 55.286333530087 3.636000000000 17.073720648997
2834 1 2.400000000000 57.725436479944 0.909000000000 15.854169174069
2835 1 2.400000000000 58.131953638253 4.545000000000 14.634617699141
2836 1 2.400000000000 58.944987954872 3.636000000000 18.293272123926
2837 2 -1.200000000000 57.522177900789 3.181500000000 16.463944911533
2838 2 -1.200000000000 58.335212217408 2.272500000000 14.024841961676
2839 2 -1.200000000000 59.148246534027 1.363500000000 17.683496386462
2840 2 -1.200000000000 59.961280850646 0.454500000000 15.244393436605
2841 2 -1.200000000000 59.554763692336 4.999500000000 16.463944911533
2842 2 -1.200000000000 60.367798008955 4.090500000000 14.024841961676
2843 2 -1.200000000000 61.180832325574 3.181500000000 17.683496386462
2844 2 -1.200000000000 61.993866642193 2.272500000000 15.244393436605
2845 1 2.400000000000 56.912402163325 1.818000000000 12.195514749284
2846 1 2.400000000000 59.351505113181 31.815000000000 10.975963274355
2847 1 2.400000000000 59.758022271491 2.727000000000 9.756411799427
2848 1 2.400000000000 60.571056588110 1.818000000000 13.415066224212
2849 2 -1.200000000000 59.148246534027 1.363500000000 11.585739011820
2850 2 -1.200000000000 59.961280850646 0.454500000000 9.146636061963
2851 2 -1.200000000000 60.774315167265 32.269500000000 12.805290486748
2852 2 -1.200000000000 61.587349483883 31.360500000000 10.366187536891
2853 2 -1.200000000000 61.180832325574 3.181500000000 11.585739011820
2854 2 -1.200000000000 61.993866642193 2.272500000000 9.146636061963
2855 2 -1.200000000000 62.806900958812 1.363500000000 12.805290486748
2856 2 -1.200000000000 63.619935275431 0.454500000000 10.366187536891
2857 1 2.400000000000 58.538470796562 0.000000000000 7.317308849570
2858 1 2.400000000000 60.977573746419 29.997000000000 6.097757374642
2859 1 2.400000000000 61.384090904729 0.909000000000 4.878205899714
2860 1 2.400000000000 62.197125221348 0.000000000000 8.536860324499
2861 2 -1.200000000000 60.774315167265 32.269500000000 6.707533112106
2862 2 -1.200000000000 61.587349483883 31.360500000000 4.268430162249
2863 2 -1.200000000000 62.400383800502 30.451500000000 7.927084587035
2864 2 -1.200000000000 63.213418117121 29.542500000000 5.487981637178
2865 2 -1.200000000000 62.806900958812 1.363500000000 6.707533112106
2866 2 -1.200000000000 63.619935275431 0.454500000000 4.268430162249
2867 2 -1.200000000000 64.432969592050 32.269500000000 7.927084587035
2868 2 -1.200000000000 65.246003908669 31.360500000000 5.487981637178
2869 1 2.400000000000 58.538470796562 0.000000000000 19.512823598854
2870 1 2.400000000000 60.977573746419 29.997000000000 18.293272123926
2871 1 2.400000000000 61.384090904729 0.909000000000 17.073720648997
2872 1 2.400000000000 62.197125221348 0.000000000000 20.732375073783
2873 2 -1.200000000000 60.774315167265 32.269500000000 18.903047861390
2874 2 -1.200000000000 61.587349483883 31.360500000000 16.463944911533
2875 2 -1.200000000000 62.400383800502 30.451500000000 20.122599336318
2876 2 -1.200000000000 63.213418117121 29.542500000000 17.683496386462
2877 2 -1.200000000000 62.806900958812 1.363500000000 18.903047861390
2878 2 -1.200000000000 63.619935275431 0.454500000000 16.463944911533
2879 2 -1.200000000000 64.432969592050 32.269500000000 20.122599336318
2880 2 -1.200000000000 65.246003908669 31.360500000000 17.683496386462
2881 1 2.400000000000 38.212612881089 30.906000000000 7.317308849570
2882 1 2.400000000000 40.651715830946 28.179000000000 6.097757374642
2883 1 2.400000000000 41.058232989256 31.815000000000 4.878205899714
2884 1 2.400000000000 41.871267305875 30.906000000000 8.536860324499
2885 2 -1.200000000000 40.448457251791 30.451500000000 6.707533112106
2886 2 -1.200000000000 41.261491568410 29.542500000000 4.268430162249
2887 2 -1.200000000000 42.074525885029 28.633500000000 7.927084587035
2888 2 -1.200000000000 42.887560201648 27.724500000000 5.487981637178
2889 2 -1.200000000000 42.481043043339 32.269500000000 6.707533112106
2890 2 -1.200000000000 43.294077359958 31.360500000000 4.268430162249
2891 2 -1.200000000000 44.107111676577 30.451500000000 7.927084587035
2892 2 -1.200000000000 44.920145993196 29.542500000000 5.487981637178
2893 1 2.400000000000 39.838681514327 29.088000000000 2.439102949857
2894 1 2.400000000000 42.277784464184 26.361000000000 1.219551474928
2895 1 2.400000000000 42.684301622493 29.997000000000 0.000000000000
2896 1 2.400000000000 43.497335939112 29.088000000000 3.658654424785
2897 2 -1.200000000000 42.074525885029 28.633500000000 1.829327212393
2898 2 -1.200000000000 42.887560201648 27.724500000000 23.781253761104
2899 2 -1.200000000000 43.700594518267 26.815500000000 3.048878687321
2900 2 -1.200000000000 44.513628834886 25.906500000000 0.609775737464
2901 2 -1.200000000000 44.107111676577 30.451500000000 1.829327212393
2902 2 -1.200000000000 44.920145993196 29.542500000000 23.781253761104
2903 2 -1.200000000000 45.733180309814 28.633500000000 3.048878687321
2904 2 -1.200000000000 46.546214626433 27.724500000000 0.609775737464
2905 1 2.400000000000 38.212612881089 30.906000000000 19.512823598854
2906 1 2.400000000000 40.651715830946 28.179000000000 18.293272123926
2907 1 2.400000000000 41.058232989256 31.815000000000 17.073720648997
2908 1 2.400000000000 41.871267305875 30.906000000000 20.732375073783
2909 2 -1.200000000000 40.448457251791 30.451500000000 18.903047861390
2910 2 -1.200000000000 41.261491568410 29.542500000000 16.463944911533
2911 2 -1.200000000000 42.074525885029 28.633500000000 20.122599336318
2912 2 -1.200000000000 42.887560201648 27.724500000000 17.683496386462
2913 2 -1.200000000000 42.481043043339 32.269500000000 18.903047861390
2914 2 -1.200000000000 43.294077359958 31.360500000000 16.463944911533
2915 2 -1.200000000000 44.107111676577 30.451500000000 20.122599336318
2916 2 -1.200000000000 44.920145993196 29.542500000000 17.683496386462
2917 1 2.400000000000 39.838681514327 29.088000000000 14.634617699141
2918 1 2.400000000000 42.277784464184 26.361000000000 13.415066224212
2919 1 2.400000000000 42.684301622493 29.997000000000 12.195514749284
2920 1 2.400000000000 43.497335939112 29.088000000000 15.854169174069
2921 2 -1.200000000000 42.074525885029 28.633500000000 14.024841961676
2922 2 -1.200000000000 42.887560201648 27.724500000000 11.585739011820
2923 2 -1.200000000000 43.700594518267 26.815500000000 15.244393436605
2924 2 -1.200000000000 44.513628834886 25.906500000000 12.805290486748
2925 2 -1.200000000000 44.107111676577 30.451500000000 14.024841961676
2926 2 -1.200000000000 44.920145993196 29.542500000000 11.585739011820
2927 2 -1.200000000000 45.733180309814 28.633500000000 15.244393436605
2928 2 -1.200000000000 46.546214626433 27.724500000000 12.805290486748
2929 1 2.400000000000 41.464750147565 27.270000000000 9.756411799427
2930 1 2.400000000000 43.903853097422 24.543000000000 8.536860324499
2931 1 2.400000000000 44.310370255731 28.179000000000 7.317308849570
2932 1 2.400000000000 45.123404572350 27.270000000000 10.975963274355
2933 2 -1.200000000000 43.700594518267 26.815500000000 9.146636061963
2934 2 -1.200000000000 44.513628834886 25.906500000000 6.707533112106
2935 2 -1.200000000000 45.326663151505 24.997500000000 10.366187536891
2936 2 -1.200000000000 46.139697468124 24.088500000000 7.927084587035
2937 2 -1.200000000000 45.733180309814 28.633500000000 9.146636061963
2938 2 -1.200000000000 46.546214626433 27.724500000000 6.707533112106
2939 2 -1.200000000000 47.359248943052 26.815500000000 10.366187536891
2940 2 -1.200000000000 48.172283259671 25.906500000000 7.927084587035
2941 1 2.400000000000 43.090818780803 25.452000000000 4.878205899714
2942 1 2.400000000000 45.529921730660 22.725000000000 3.658654424785
2943 1 2.400000000000 45.936438888969 26.361000000000 2.439102949857
2944 1 2.400000000000 46.749473205588 25.452000000000 6.097757374642
2945 2 -1.200000000000 45.326663151505 24.997500000000 4.268430162249
2946 2 -1.200000000000 46.139697468124 24.088500000000 1.829327212393
2947 2 -1.200000000000 46.952731784743 23.179500000000 5.487981637178
2948 2 -1.200000000000 47.765766101362 22.270500000000 3.048878687321
2949 2 -1.200000000000 47.359248943052 26.815500000000 4.268430162249
2950 2 -1.200000000000 48.172283259671 25.906500000000 1.829327212393
2951 2 -1.200000000000 48.985317576290 24.997500000000 5.487981637178
2952 2 -1.200000000000 49.798351892909 24.088500000000 3.048878687321
2953 1 2.400000000000 44.716887414041 23.634000000000 0.000000000000
2954 1 2.400000000000 47.155990363898 20.907000000000 23.171478023639
2955 1 2.400000000000 47.562507522207 24.543000000000 21.951926548711
2956 1 2.400000000000 48.375541838826 23.634000000000 1.219551474928
2957 2 -1.200000000000 46.952731784743 23.179500000000 23.781253761104
2958 2 -1.200000000000 47.765766101362 22.270500000000 21.342150811247
2959 2 -1.200000000000 48.578800417981 21.361500000000 0.609775737464
2960 2 -1.200000000000 49.391834734600 20.452500000000 22.561702286175
2961 2 -1.200000000000 48.985317576290 24.997500000000 23.781253761104
2962 2 -1.200000000000 49.798351892909 24.088500000000 21.342150811247
2963 2 -1.200000000000 50.611386209528 23.179500000000 0.609775737464
2964 2 -1.200000000000 51.424420526147 22.270500000000 22.561702286175
2965 1 2.400000000000 41.464750147565 27.270000000000 21.951926548711
2966 1 2.400000000000 43.903853097422 24.543000000000 20.732375073783
2967 1 2.400000000000 44.310370255731 28.179000000000 19.512823598854
2968 1 2.400000000000 45.123404572350 27.270000000000 23.171478023639
2969 2 -1.200000000000 43.700594518267 26.815500000000 21.342150811247
2970 2 -1.200000000000 44.513628834886 25.906500000000 18.903047861390
2971 2 -1.200000000000 45.326663151505 24.997500000000 22.561702286175
2972 2 -1.200000000000 46.139697468124 24.088500000000 20.122599336318
2973 2 -1.200000000000 45.733180309814 28.633500000000 21.342150811247
2974 2 -1.200000000000 46.546214626433 27.724500000000 18.903047861390
2975 2 -1.200000000000 47.359248943052 26.815500000000 22.561702286175
2976 2 -1.200000000000 48.172283259671 25.906500000000 20.122599336318
2977 1 2.400000000000 43.090818780803 25.452000000000 17.073720648997
2978 1 2.400000000000 45.529921730660 22.725000000000 15.854169174069
2979 1 2.400000000000 45.936438888969 26.361000000000 14.634617699141
2980 1 2.400000000000 46.749473205588 25.452000000000 18.293272123926
2981 2 -1.200000000000 45.326663151505 24.997500000000 16.463944911533
2982 2 -1.200000000000 46.139697468124 24.088500000000 14.024841961676
2983 2 -1.200000000000 46.952731784743 23.179500000000 17.683496386462
2984 2 -1.200000000000 47.765766101362 22.270500000000 15.244393436605
2985 2 -1.200000000000 47.359248943052 26.815500000000 16.463944911533
2986 2 -1.200000000000 48.172283259671 25.906500000000 14.024841961676
2987 2 -1.200000000000 48.985317576290 24.997500000000 17.683496386462
2988 2 -1.200000000000 49.798351892909 24.088500000000 15.244393436605
2989 1 2.400000000000 44.716887414041 23.634000000000 12.195514749284
2990 1 2.400000000000 47.155990363898 20.907000000000 10.975963274355
2991 1 2.400000000000 47.562507522207 24.543000000000 9.756411799427
2992 1 2.400000000000 48.375541838826 23.634000000000 13.415066224212
2993 2 -1.200000000000 46.952731784743 23.179500000000 11.585739011820
2994 2 -1.200000000000 47.765766101362 22.270500000000 9.146636061963
2995 2 -1.200000000000 48.578800417981 21.361500000000 12.805290486748
2996 2 -1.200000000000 49.391834734600 20.452500000000 10.366187536891
2997 2 -1.200000000000 48.985317576290 24.997500000000 11.585739011820
2998 2 -1.200000000000 49.798351892909 24.088500000000 9.146636061963
2999 2 -1.200000000000 50.611386209528 23.179500000000 12.805290486748
3000 2 -1.200000000000 51.424420526147 22.270500000000 10.366187536891
3001 1 2.400000000000 46.342956047279 21.816000000000 7.317308849570
3002 1 2.400000000000 48.782058997135 19.089000000000 6.097757374642
3003 1 2.400000000000 49.188576155445 22.725000000000 4.878205899714
3004 1 2.400000000000 50.001610472064 21.816000000000 8.536860324499
3005 2 -1.200000000000 48.578800417981 21.361500000000 6.707533112106
3006 2 -1.200000000000 49.391834734600 20.452500000000 4.268430162249
3007 2 -1.200000000000 50.204869051219 19.543500000000 7.927084587035
3008 2 -1.200000000000 51.017903367837 18.634500000000 5.487981637178
3009 2 -1.200000000000 50.611386209528 23.179500000000 6.707533112106
3010 2 -1.200000000000 51.424420526147 22.270500000000 4.268430162249
3011 2 -1.200000000000 52.237454842766 21.361500000000 7.927084587035
3012 2 -1.200000000000 53.050489159385 20.452500000000 5.487981637178
3013 1 2.400000000000 47.969024680516 19.998000000000 2.439102949857
3014 1 2.400000000000 50.408127630373 17.271000000000 1.219551474928
3015 1 2.400000000000 50.814644788683 20.907000000000 0.000000000000
3016 1 2.400000000000 51.627679105302 19.998000000000 3.658654424785
3017 2 -1.200000000000 50.204869051219 19.543500000000 1.829327212393
3018 2 -1.200000000000 51.017903367837 18.634500000000 23.781253761104
3019 2 -1.200000000000 51.830937684456 17.725500000000 3.048878687321
3020 2 -1.200000000000 52.643972001075 16.816500000000 0.609775737464
3021 2 -1.200000000000 52.237454842766 21.361500000000 1.829327212393
3022 2 -1.200000000000 53.050489159385 20.452500000000 23.781253761104
3023 2 -1.200000000000 53.863523476004 19.543500000000 3.048878687321
3024 2 -1.200000000000 54.676557792623 18.634500000000 0.609775737464
3025 1 2.400000000000 46.342956047279 21.816000000000 19.512823598854
3026 1 2.400000000000 48.782058997135 19.089000000000 18.293272123926
3027 1 2.400000000000 49.188576155445 22.725000000000 17.073720648997
3028 1 2.400000000000 50.001610472064 21.816000000000 20.732375073783
3029 2 -1.200000000000 48.578800417981 21.361500000000 18.903047861390
3030 2 -1.200000000000 49.391834734600 20.452500000000 16.463944911533
3031 2 -1.200000000000 50.204869051219 19.543500000000 20.122599336318
3032 2 -1.200000000000 51.017903367837 18.634500000000 17.683496386462
3033 2 -1.200000000000 50.611386209528 23.179500000000 18.903047861390
3034 2 -1.200000000000 51.424420526147 22.270500000000 16.463944911533
3035 2 -1.200000000000 52.237454842766 21.361500000000 20.122599336318
3036 2 -1.200000000000 53.050489159385 20.452500000000 17.683496386462
3037 1 2.400000000000 47.969024680516 19.998000000000 14.634617699141
3038 1 2.400000000000 50.408127630373 17.271000000000 13.415066224212
3039 1 2.400000000000 50.814644788683 20.907000000000 12.195514749284
3040 1 2.400000000000 51.627679105302 19.998000000000 15.854169174069
3041 2 -1.200000000000 50.204869051219 19.543500000000 14.024841961676
3042 2 -1.200000000000 51.017903367837 18.634500000000 11.585739011820
3043 2 -1.200000000000 51.830937684456 17.725500000000 15.244393436605
3044 2 -1.200000000000 52.643972001075 16.816500000000 12.805290486748
3045 2 -1.200000000000 52.237454842766 21.361500000000 14.024841961676
3046 2 -1.200000000000 53.050489159385 20.452500000000 11.585739011820
3047 2 -1.200000000000 53.863523476004 19.543500000000 15.244393436605
3048 2 -1.200000000000 54.676557792623 18.634500000000 12.805290486748
3049 1 2.400000000000 49.595093313754 18.180000000000 9.756411799427
3050 1 2.400000000000 52.034196263611 15.453000000000 8.536860324499
3051 1 2.400000000000 52.440713421921 19.089000000000 7.317308849570
3052 1 2.400000000000 53.253747738539 18.180000000000 10.975963274355
3053 2 -1.200000000000 51.830937684456 17.725500000000 9.146636061963
3054 2 -1.200000000000 52.643972001075 16.816500000000 6.707533112106
3055 2 -1.200000000000 53.457006317694 15.907500000000 10.366187536891
3056 2 -1.200000000000 54.270040634313 14.998500000000 7.927084587035
3057 2 -1.200000000000 53.863523476004 19.543500000000 9.146636061963
3058 2 -1.200000000000 54.676557792623 18.634500000000 6.707533112106
3059 2 -1.200000000000 55.489592109242 17.725500000000 10.366187536891
3060 2 -1.200000000000 56.302626425860 16.816500000000 7.927084587035
3061 1 2.400000000000 51.221161946992 16.362000000000 4.878205899714
3062 1 2.400000000000 53.660264896849 13.635000000000 3.658654424785
3063 1 2.400000000000 54.066782055158 17.271000000000 2.439102949857
3064 1 2.400000000000 54.879816371777 16.362000000000 6.097757374642
3065 2 -1.200000000000 53.457006317694 15.907500000000 4.268430162249
3066 2 -1.200000000000 54.270040634313 14.998500000000 1.829327212393
3067 2 -1.200000000000 55.083074950932 14.089500000000 5.487981637178
3068 2 -1.200000000000 55.896109267551 13.180500000000 3.048878687321
3069 2 -1.200000000000 55.489592109242 17.725500000000 4.268430162249
3070 2 -1.200000000000 56.302626425860 16.816500000000 1.829327212393
3071 2 -1.200000000000 57.115660742479 15.907500000000 5.487981637178
3072 2 -1.200000000000 57.928695059098 14.998500000000 3.048878687321
3073 1 2.400000000000 52.847230580230 14.544000000000 0.000000000000
3074 1 2.400000000000 55.286333530087 11.817000000000 23.171478023639
3075 1 2.400000000000 55.692850688396 15.453000000000 21.951926548711
3076 1 2.400000000000 56.505885005015 14.544000000000 1.219551474928
3077 2 -1.200000000000 55.083074950932 14.089500000000 23.781253761104
3078 2 -1.200000000000 55.896109267551 13.180500000000 21.342150811247
3079 2 -1.200000000000 56.709143584170 12.271500000000 0.609775737464
3080 2 -1.200000000000 57.522177900789 11.362500000000 22.561702286175
3081 2 -1.200000000000 57.115660742479 15.907500000000 23.781253761104
3082 2 -1.200000000000 57.928695059098 14.998500000000 21.342150811247
3083 2 -1.200000000000 58.741729375717 14.089500000000 0.609775737464
3084 2 -1.200000000000 59.554763692336 13.180500000000 22.561702286175
3085 1 2.400000000000 49.595093313754 18.180000000000 21.951926548711
3086 1 2.400000000000 52.034196263611 15.453000000000 20.732375073783
3087 1 2.400000000000 52.440713421921 19.089000000000 19.512823598854
3088 1 2.400000000000 53.253747738539 18.180000000000 23.171478023639
3089 2 -1.200000000000 51.830937684456 17.725500000000 21.342150811247
3090 2 -1.200000000000 52.643972001075 16.816500000000 18.903047861390
3091 2 -1.200000000000 53.457006317694 15.907500000000 22.561702286175
3092 2 -1.200000000000 54.270040634313 14.998500000000 20.122599336318
3093 2 -1.200000000000 53.863523476004 19.543500000000 21.342150811247
3094 2 -1.200000000000 54.676557792623 18.634500000000 18.903047861390
3095 2 -1.200000000000 55.489592109242 17.725500000000 22.561702286175
3096 2 -1.200000000000 56.302626425860 16.816500000000 20.122599336318
3097 1 2.400000000000 51.221161946992 16.362000000000 17.073720648997
3098 1 2.400000000000 53.660264896849 13.635000000000 15.854169174069
3099 1 2.400000000000 54.066782055158 17.271000000000 14.634617699141
3100 1 2.400000000000 54.879816371777 16.362000000000 18.293272123926
3101 2 -1.200000000000 53.457006317694 15.907500000000 16.463944911533
3102 2 -1.200000000000 54.270040634313 14.998500000000 14.024841961676
3103 2 -1.200000000000 55.083074950932 14.089500000000 17.683496386462
3104 2 -1.200000000000 55.896109267551 13.180500000000 15.244393436605
3105 2 -1.200000000000 55.489592109242 17.725500000000 16.463944911533
3106 2 -1.200000000000 56.302626425860 16.816500000000 14.024841961676
3107 2 -1.200000000000 57.115660742479 15.907500000000 17.683496386462
3108 2 -1.200000000000 57.928695059098 14.998500000000 15.244393436605
3109 1 2.400000000000 52.847230580230 14.544000000000 12.195514749284
3110 1 2.400000000000 55.286333530087 11.817000000000 10.975963274355
3111 1 2.400000000000 55.692850688396 15.453000000000 9.756411799427
3112 1 2.400000000000 56.505885005015 14.544000000000 13.415066224212
3113 2 -1.200000000000 55.083074950932 14.089500000000 11.585739011820
3114 2 -1.200000000000 55.896109267551 13.180500000000 9.146636061963
3115 2 -1.200000000000 56.709143584170 12.271500000000 12.805290486748
3116 2 -1.200000000000 57.522177900789 11.362500000000 10.366187536891
3117 2 -1.200000000000 57.115660742479 15.907500000000 11.585739011820
3118 2 -1.200000000000 57.928695059098 14.998500000000 9.146636061963
3119 2 -1.200000000000 58.741729375717 14.089500000000 12.805290486748
3120 2 -1.200000000000 59.554763692336 13.180500000000 10.366187536891
3121 1 2.400000000000 54.473299213468 12.726000000000 7.317308849570
3122 1 2.400000000000 56.912402163325 9.999000000000 6.097757374642
3123 1 2.400000000000 57.318919321634 13.635000000000 4.878205899714
3124 1 2.400000000000 58.131953638253 12.726000000000 8.536860324499
3125 2 -1.200000000000 56.709143584170 12.271500000000 6.707533112106
3126 2 -1.200000000000 57.522177900789 11.362500000000 4.268430162249
3127 2 -1.200000000000 58.335212217408 10.453500000000 7.927084587035
3128 2 -1.200000000000 59.148246534027 9.544500000000 5.487981637178
3129 2 -1.200000000000 58.741729375717 14.089500000000 6.707533112106
3130 2 -1.200000000000 59.554763692336 13.180500000000 4.268430162249
3131 2 -1.200000000000 60.367798008955 12.271500000000 7.927084587035
3132 2 -1.200000000000 61.180832325574 11.362500000000 5.487981637178
3133 1 2.400000000000 56.099367846706 10.908000000000 2.439102949857
3134 1 2.400000000000 58.538470796562 8.181000000000 1.219551474928
3135 1 2.400000000000 58.944987954872 11.817000000000 0.000000000000
3136 1 2.400000000000 59.758022271491 10.908000000000 3.658654424785
3137 2 -1.200000000000 58.335212217408 10.453500000000 1.829327212393
3138 2 -1.200000000000 59.148246534027 9.544500000000 23.781253761104
3139 2 -1.200000000000 59.961280850646 8.635500000000 3.048878687321
3140 2 -1.200000000000 60.774315167265 7.726500000000 0.609775737464
3141 2 -1.200000000000 60.367798008955 12.271500000000 1.829327212393
3142 2 -1.200000000000 61.180832325574 11.362500000000 23.781253761104
3143 2 -1.200000000000 61.993866642193 10.453500000000 3.048878687321
3144 2 -1.200000000000 62.806900958812 9.544500000000 0.609775737464
3145 1 2.400000000000 54.473299213468 12.726000000000 19.512823598854
3146 1 2.400000000000 56.912402163325 9.999000000000 18.293272123926
3147 1 2.400000000000 57.318919321634 13.635000000000 17.073720648997
3148 1 2.400000000000 58.131953638253 12.726000000000 20.732375073783
3149 2 -1.200000000000 56.709143584170 12.271500000000 18.903047861390
3150 2 -1.200000000000 57.522177900789 11.362500000000 16.463944911533
3151 2 -1.200000000000 58.335212217408 10.453500000000 20.122599336318
3152 2 -1.200000000000 59.148246534027 9.544500000000 17.683496386462
3153 2 -1.200000000000 58.741729375717 14.089500000000 18.903047861390
3154 2 -1.200000000000 59.554763692336 13.180500000000 16.463944911533
3155 2 -1.200000000000 60.367798008955 12.271500000000 20.122599336318
3156 2 -1.200000000000 61.180832325574 11.362500000000 17.683496386462
3157 1 2.400000000000 56.099367846706 10.908000000000 14.634617699141
3158 1 2.400000000000 58.538470796562 8.181000000000 13.415066224212
3159 1 2.400000000000 58.944987954872 11.817000000000 12.195514749284
3160 1 2.400000000000 59.758022271491 10.908000000000 15.854169174069
3161 2 -1.200000000000 58.335212217408 10.453500000000 14.024841961676
3162 2 -1.200000000000 59.148246534027 9.544500000000 11.585739011820
3163 2 -1.200000000000 59.961280850646 8.635500000000 15.244393436605
3164 2 -1.200000000000 60.774315167265 7.726500000000 12.805290486748
3165 2 -1.200000000000 60.367798008955 12.271500000000 14.024841961676
3166 2 -1.200000000000 61.180832325574 11.362500000000 11.585739011820
3167 2 -1.200000000000 61.993866642193 10.453500000000 15.244393436605
3168 2 -1.200000000000 62.806900958812 9.544500000000 12.805290486748
3169 1 2.400000000000 57.725436479944 9.090000000000 9.756411799427
3170 1 2.400000000000 60.164539429800 6.363000000000 8.536860324499
3171 1 2.400000000000 60.571056588110 9.999000000000 7.317308849570
3172 1 2.400000000000 61.384090904729 9.090000000000 10.975963274355
3173 2 -1.200000000000 59.961280850646 8.635500000000 9.146636061963
3174 2 -1.200000000000 60.774315167265 7.726500000000 6.707533112106
3175 2 -1.200000000000 61.587349483883 6.817500000000 10.366187536891
3176 2 -1.200000000000 62.400383800502 5.908500000000 7.927084587035
3177 2 -1.200000000000 61.993866642193 10.453500000000 9.146636061963
3178 2 -1.200000000000 62.806900958812 9.544500000000 6.707533112106
3179 2 -1.200000000000 63.619935275431 8.635500000000 10.366187536891
3180 2 -1.200000000000 64.432969592050 7.726500000000 7.927084587035
3181 1 2.400000000000 59.351505113181 7.272000000000 4.878205899714
3182 1 2.400000000000 61.790608063038 4.545000000000 3.658654424785
3183 1 2.400000000000 62.197125221348 8.181000000000 2.439102949857
3184 1 2.400000000000 63.010159537967 7.272000000000 6.097757374642
3185 2 -1.200000000000 61.587349483883 6.817500000000 4.268430162249
3186 2 -1.200000000000 62.400383800502 5.908500000000 1.829327212393
3187 2 -1.200000000000 63.213418117121 4.999500000000 5.487981637178
3188 2 -1.200000000000 64.026452433740 4.090500000000 3.048878687321
3189 2 -1.200000000000 63.619935275431 8.635500000000 4.268430162249
3190 2 -1.200000000000 64.432969592050 7.726500000000 1.829327212393
3191 2 -1.200000000000 65.246003908669 6.817500000000 5.487981637178
3192 2 -1.200000000000 66.059038225288 5.908500000000 3.048878687321
3193 1 2.400000000000 60.977573746419 5.454000000000 0.000000000000
3194 1 2.400000000000 63.416676696276 2.727000000000 23.171478023639
3195 1 2.400000000000 63.823193854585 6.363000000000 21.951926548711
3196 1 2.400000000000 64.636228171204 5.454000000000 1.219551474928
3197 2 -1.200000000000 63.213418117121 4.999500000000 23.781253761104
3198 2 -1.200000000000 64.026452433740 4.090500000000 21.342150811247
3199 2 -1.200000000000 64.839486750359 3.181500000000 0.609775737464
3200 2 -1.200000000000 65.652521066978 2.272500000000 22.561702286175
3201 2 -1.200000000000 65.246003908669 6.817500000000 23.781253761104
3202 2 -1.200000000000 66.059038225288 5.908500000000 21.342150811247
3203 2 -1.200000000000 66.872072541906 4.999500000000 0.609775737464
3204 2 -1.200000000000 67.685106858525 4.090500000000 22.561702286175
3205 1 2.400000000000 57.725436479944 9.090000000000 21.951926548711
3206 1 2.400000000000 60.164539429800 6.363000000000 20.732375073783
3207 1 2.400000000000 60.571056588110 9.999000000000 19.512823598854
3208 1 2.400000000000 61.384090904729 9.090000000000 23.171478023639
3209 2 -1.200000000000 59.961280850646 8.635500000000 21.342150811247
3210 2 -1.200000000000 60.774315167265 7.726500000000 18.903047861390
3211 2 -1.200000000000 61.587349483883 6.817500000000 22.561702286175
3212 2 -1.200000000000 62.400383800502 5.908500000000 20.122599336318
3213 2 -1.200000000000 61.993866642193 10.453500000000 21.342150811247
3214 2 -1.200000000000 62.806900958812 9.544500000000 18.903047861390
3215 2 -1.200000000000 63.619935275431 8.635500000000 22.561702286175
3216 2 -1.200000000000 64.432969592050 7.726500000000 20.122599336318
3217 1 2.400000000000 59.351505113181 7.272000000000 17.073720648997
3218 1 2.400000000000 61.790608063038 4.545000000000 15.854169174069
3219 1 2.400000000000 62.197125221348 8.181000000000 14.634617699141
3220 1 2.400000000000 63.010159537967 7.272000000000 18.293272123926
3221 2 -1.200000000000 61.587349483883 6.817500000000 16.463944911533
3222 2 -1.200000000000 62.400383800502 5.908500000000 14.024841961676
3223 2 -1.200000000000 63.213418117121 4.999500000000 17.683496386462
3224 2 -1.200000000000 64.026452433740 4.090500000000 15.244393436605
3225 2 -1.200000000000 63.619935275431 8.635500000000 16.463944911533
3226 2 -1.200000000000 64.432969592050 7.726500000000 14.024841961676
3227 2 -1.200000000000 65.246003908669 6.817500000000 17.683496386462
3228 2 -1.200000000000 66.059038225288 5.908500000000 15.244393436605
3229 1 2.400000000000 60.977573746419 5.454000000000 12.195514749284
3230 1 2.400000000000 63.416676696276 2.727000000000 10.975963274355
3231 1 2.400000000000 63.823193854585 6.363000000000 9.756411799427
3232 1 2.400000000000 64.636228171204 5.454000000000 13.415066224212
3233 2 -1.200000000000 63.213418117121 4.999500000000 11.585739011820
3234 2 -1.200000000000 64.026452433740 4.090500000000 9.146636061963
3235 2 -1.200000000000 64.839486750359 3.181500000000 12.805290486748
3236 2 -1.200000000000 65.652521066978 2.272500000000 10.366187536891
3237 2 -1.200000000000 65.246003908669 6.817500000000 11.585739011820
3238 2 -1.200000000000 66.059038225288 5.908500000000 9.146636061963
3239 2 -1.200000000000 66.872072541906 4.999500000000 12.805290486748
3240 2 -1.200000000000 67.685106858525 4.090500000000 10.366187536891
3241 1 2.400000000000 62.603642379657 3.636000000000 7.317308849570
3242 1 2.400000000000 65.042745329514 0.909000000000 6.097757374642
3243 1 2.400000000000 65.449262487823 4.545000000000 4.878205899714
3244 1 2.400000000000 66.262296804442 3.636000000000 8.536860324499
3245 2 -1.200000000000 64.839486750359 3.181500000000 6.707533112106
3246 2 -1.200000000000 65.652521066978 2.272500000000 4.268430162249
3247 2 -1.200000000000 66.465555383597 1.363500000000 7.927084587035
3248 2 -1.200000000000 67.278589700216 0.454500000000 5.487981637178
3249 2 -1.200000000000 66.872072541906 4.999500000000 6.707533112106
3250 2 -1.200000000000 67.685106858525 4.090500000000 4.268430162249
3251 2 -1.200000000000 68.498141175144 3.181500000000 7.927084587035
3252 2 -1.200000000000 69.311175491763 2.272500000000 5.487981637178
3253 1 2.400000000000 64.229711012895 1.818000000000 2.439102949857
3254 1 2.400000000000 66.668813962752 31.815000000000 1.219551474928
3255 1 2.400000000000 67.075331121061 2.727000000000 0.000000000000
3256 1 2.400000000000 67.888365437680 1.818000000000 3.658654424785
3257 2 -1.200000000000 66.465555383597 1.363500000000 1.829327212393
3258 2 -1.200000000000 67.278589700216 0.454500000000 23.781253761104
3259 2 -1.200000000000 68.091624016835 32.269500000000 3.048878687321
3260 2 -1.200000000000 68.904658333454 31.360500000000 0.609775737464
3261 2 -1.200000000000 68.498141175144 3.181500000000 1.829327212393
3262 2 -1.200000000000 69.311175491763 2.272500000000 23.781253761104
3263 2 -1.200000000000 70.124209808382 1.363500000000 3.048878687321
3264 2 -1.200000000000 70.937244125001 0.454500000000 0.609775737464
3265 1 2.400000000000 62.603642379657 3.636000000000 19.512823598854
3266 1 2.400000000000 65.042745329514 0.909000000000 18.293272123926
3267 1 2.400000000000 65.449262487823 4.545000000000 17.073720648997
3268 1 2.400000000000 66.262296804442 3.636000000000 20.732375073783
3269 2 -1.200000000000 64.839486750359 3.181500000000 18.903047861390
3270 2 -1.200000000000 65.652521066978 2.272500000000 16.463944911533
3271 2 -1.200000000000 66.465555383597 1.363500000000 20.122599336318
3272 2 -1.200000000000 67.278589700216 0.454500000000 17.683496386462
3273 2 -1.200000000000 66.872072541906 4.999500000000 18.903047861390
3274 2 -1.200000000000 67.685106858525 4.090500000000 16.463944911533
3275 2 -1.200000000000 68.498141175144 3.181500000000 20.122599336318
3276 2 -1.200000000000 69.311175491763 2.272500000000 17.683496386462
3277 1 2.400000000000 64.229711012895 1.818000000000 14.634617699141
3278 1 2.400000000000 66.668813962752 31.815000000000 13.415066224212
3279 1 2.400000000000 67.075331121061 2.727000000000 12.195514749284
3280 1 2.400000000000 67.888365437680 1.818000000000 15.854169174069
3281 2 -1.200000000000 66.465555383597 1.363500000000 14.024841961676
3282 2 -1.200000000000 67.278589700216 0.454500000000 11.585739011820
3283 2 -1.200000000000 68.091624016835 32.269500000000 15.244393436605
3284 2 -1.200000000000 68.904658333454 31.360500000000 12.805290486748
3285 2 -1.200000000000 68.498141175144 3.181500000000 14.024841961676
3286 2 -1.200000000000 69.311175491763 2.272500000000 11.585739011820
3287 2 -1.200000000000 70.124209808382 1.363500000000 15.244393436605
3288 2 -1.200000000000 70.937244125001 0.454500000000 12.805290486748
3289 1 2.400000000000 65.855779646133 0.000000000000 9.756411799427
3290 1 2.400000000000 68.294882595990 29.997000000000 8.536860324499
3291 1 2.400000000000 68.701399754299 0.909000000000 7.317308849570
3292 1 2.400000000000 69.514434070918 0.000000000000 10.975963274355
3293 2 -1.200000000000 68.091624016835 32.269500000000 9.146636061963
3294 2 -1.200000000000 68.904658333454 31.360500000000 6.707533112106
3295 2 -1.200000000000 69.717692650073 30.451500000000 10.366187536891
3296 2 -1.200000000000 70.530726966692 29.542500000000 7.927084587035
3297 2 -1.200000000000 70.124209808382 1.363500000000 9.146636061963
3298 2 -1.200000000000 70.937244125001 0.454500000000 6.707533112106
3299 2 -1.200000000000 71.750278441620 32.269500000000 10.366187536891
3300 2 -1.200000000000 72.563312758239 31.360500000000 7.927084587035
3301 1 2.400000000000 65.855779646133 0.000000000000 21.951926548711
3302 1 2.400000000000 68.294882595990 29.997000000000 20.732375073783
3303 1 2.400000000000 68.701399754299 0.909000000000 19.512823598854
3304 1 2.400000000000 69.514434070918 0.000000000000 23.171478023639
3305 2 -1.200000000000 68.091624016835 32.269500000000 21.342150811247
3306 2 -1.200000000000 68.904658333454 31.360500000000 18.903047861390
3307 2 -1.200000000000 69.717692650073 30.451500000000 22.561702286175
3308 2 -1.200000000000 70.530726966692 29.542500000000 20.122599336318
3309 2 -1.200000000000 70.124209808382 1.363500000000 21.342150811247
3310 2 -1.200000000000 70.937244125001 0.454500000000 18.903047861390
3311 2 -1.200000000000 71.750278441620 32.269500000000 22.561702286175
3312 2 -1.200000000000 72.563312758239 31.360500000000 20.122599336318
3313 1 2.400000000000 45.529921730660 30.906000000000 9.756411799427
3314 1 2.400000000000 47.969024680516 28.179000000000 8.536860324499
3315 1 2.400000000000 48.375541838826 31.815000000000 7.317308849570
3316 1 2.400000000000 49.188576155445 30.906000000000 10.975963274355
3317 2 -1.200000000000 47.765766101362 30.451500000000 9.146636061963
3318 2 -1.200000000000 48.578800417981 29.542500000000 6.707533112106
3319 2 -1.200000000000 49.391834734600 28.633500000000 10.366187536891
3320 2 -1.200000000000 50.204869051219 27.724500000000 7.927084587035
3321 2 -1.200000000000 49.798351892909 32.269500000000 9.146636061963
3322 2 -1.200000000000 50.611386209528 31.360500000000 6.707533112106
3323 2 -1.200000000000 51.424420526147 30.451500000000 10.366187536891
3324 2 -1.200000000000 52.237454842766 29.542500000000 7.927084587035
3325 1 2.400000000000 47.155990363898 29.088000000000 4.878205899714
3326 1 2.400000000000 49.595093313754 26.361000000000 3.658654424785
3327 1 2.400000000000 50.001610472064 29.997000000000 2.439102949857
3328 1 2.400000000000 50.814644788683 29.088000000000 6.097757374642
3329 2 -1.200000000000 49.391834734600 28.633500000000 4.268430162249
3330 2 -1.200000000000 50.204869051219 27.724500000000 1.829327212393
3331 2 -1.200000000000 51.017903367837 26.815500000000 5.487981637178
3332 2 -1.200000000000 51.830937684456 25.906500000000 3.048878687321
3333 2 -1.200000000000 51.424420526147 30.451500000000 4.268430162249
3334 2 -1.200000000000 52.237454842766 29.542500000000 1.829327212393
3335 2 -1.200000000000 53.050489159385 28.633500000000 5.487981637178
3336 2 -1.200000000000 53.863523476004 27.724500000000 3.048878687321
3337 1 2.400000000000 48.782058997135 27.270000000000 0.000000000000
3338 1 2.400000000000 51.221161946992 24.543000000000 23.171478023639
3339 1 2.400000000000 51.627679105302 28.179000000000 21.951926548711
3340 1 2.400000000000 52.440713421921 27.270000000000 1.219551474928
3341 2 -1.200000000000 51.017903367837 26.815500000000 23.781253761104
3342 2 -1.200000000000 51.830937684456 25.906500000000 21.342150811247
3343 2 -1.200000000000 52.643972001075 24.997500000000 0.609775737464
3344 2 -1.200000000000 53.457006317694 24.088500000000 22.561702286175
3345 2 -1.200000000000 53.050489159385 28.633500000000 23.781253761104
3346 2 -1.200000000000 53.863523476004 27.724500000000 21.342150811247
3347 2 -1.200000000000 54.676557792623 26.815500000000 0.609775737464
3348 2 -1.200000000000 55.489592109242 25.906500000000 22.561702286175
3349 1 2.400000000000 45.529921730660 30.906000000000 21.951926548711
3350 1 2.400000000000 47.969024680516 28.179000000000 20.732375073783
3351 1 2.400000000000 48.375541838826 31.815000000000 19.512823598854
3352 1 2.400000000000 49.188576155445 30.906000000000 23.171478023639
3353 2 -1.200000000000 47.765766101362 30.451500000000 21.342150811247
3354 2 -1.200000000000 48.578800417981 29.542500000000 18.903047861390
3355 2 -1.200000000000 49.391834734600 28.633500000000 22.561702286175
3356 2 -1.200000000000 50.204869051219 27.724500000000 20.122599336318
3357 2 -1.200000000000 49.798351892909 32.269500000000 21.342150811247
3358 2 -1.200000000000 50.611386209528 31.360500000000 18.903047861390
3359 2 -1.200000000000 51.424420526147 30.451500000000 22.561702286175
3360 2 -1.200000000000 52.237454842766 29.542500000000 20.122599336318
3361 1 2.400000000000 47.155990363898 29.088000000000 17.073720648997
3362 1 2.400000000000 49.595093313754 26.361000000000 15.854169174069
3363 1 2.400000000000 50.001610472064 29.997000000000 14.634617699141
3364 1 2.400000000000 50.814644788683 29.088000000000 18.293272123926
3365 2 -1.200000000000 49.391834734600 28.633500000000 16.463944911533
3366 2 -1.200000000000 50.204869051219 27.724500000000 14.024841961676
3367 2 -1.200000000000 51.017903367837 26.815500000000 17.683496386462
3368 2 -1.200000000000 51.830937684456 25.906500000000 15.244393436605
3369 2 -1.200000000000 51.424420526147 30.451500000000 16.463944911533
3370 2 -1.200000000000 52.237454842766 29.542500000000 14.024841961676
3371 2 -1.200000000000 53.050489159385 28.633500000000 17.683496386462
3372 2 -1.200000000000 53.863523476004 27.724500000000 15.244393436605
3373 1 2.400000000000 48.782058997135 27.270000000000 12.195514749284
3374 1 2.400000000000 51.221161946992 24.543000000000 10.975963274355
3375 1 2.400000000000 51.627679105302 28.179000000000 9.756411799427
3376 1 2.400000000000 52.440713421921 27.270000000000 13.415066224212
3377 2 -1.200000000000 51.017903367837 26.815500000000 11.585739011820
3378 2 -1.200000000000 51.830937684456 25.906500000000 9.146636061963
3379 2 -1.200000000000 52.643972001075 24.997500000000 12.805290486748
3380 2 -1.200000000000 53.457006317694 24.088500000000 10.366187536891
3381 2 -1.200000000000 53.050489159385 28.633500000000 11.585739011820
3382 2 -1.200000000000 53.863523476004 27.724500000000 9.146636061963
3383 2 -1.200000000000 54.676557792623 26.815500000000 12.805290486748
3384 2 -1.200000000000 55.489592109242 25.906500000000 10.366187536891
3385 1 2.400000000000 50.408127630373 25.452000000000 7.317308849570
3386 1 2.400000000000 52.847230580230 22.725000000000 6.097757374642
3387 1 2.400000000000 53.253747738539 26.361000000000 4.878205899714
3388 1 2.400000000000 54.066782055158 25.452000000000 8.536860324499
3389 2 -1.200000000000 52.643972001075 24.997500000000 6.707533112106
3390 2 -1.200000000000 53.457006317694 24.088500000000 4.268430162249
3391 2 -1.200000000000 54.270040634313 23.179500000000 7.927084587035
3392 2 -1.200000000000 55.083074950932 22.270500000000 5.487981637178
3393 2 -1.200000000000 54.676557792623 26.815500000000 6.707533112106
3394 2 -1.200000000000 55.489592109242 25.906500000000 4.268430162249
3395 2 -1.200000000000 56.302626425860 24.997500000000 7.927084587035
3396 2 -1.200000000000 57.115660742479 24.088500000000 5.487981637178
3397 1 2.400000000000 52.034196263611 23.634000000000 2.439102949857
3398 1 2.400000000000 54.473299213468 20.907000000000 1.219551474928
3399 1 2.400000000000 54.879816371777 24.543000000000 0.000000000000
3400 1 2.400000000000 55.692850688396 23.634000000000 3.658654424785
3401 2 -1.200000000000 54.270040634313 23.179500000000 1.829327212393
3402 2 -1.200000000000 55.083074950932 22.270500000000 23.781253761104
3403 2 -1.200000000000 55.896109267551 21.361500000000 3.048878687321
3404 2 -1.200000000000 56.709143584170 20.452500000000 0.609775737464
3405 2 -1.200000000000 56.302626425860 24.997500000000 1.829327212393
3406 2 -1.200000000000 57.115660742479 24.088500000000 23.781253761104
3407 2 -1.200000000000 57.928695059098 23.179500000000 3.048878687321
3408 2 -1.200000000000 58.741729375717 22.270500000000 0.609775737464
3409 1 2.400000000000 50.408127630373 25.452000000000 19.512823598854
3410 1 2.400000000000 52.847230580230 22.725000000000 18.293272123926
3411 1 2.400000000000 53.253747738539 26.361000000000 17.073720648997
3412 1 2.400000000000 54.066782055158 25.452000000000 20.732375073783
3413 2 -1.200000000000 52.643972001075 24.997500000000 18.903047861390
3414 2 -1.200000000000 53.457006317694 24.088500000000 16.463944911533
3415 2 -1.200000000000 54.270040634313 23.179500000000 20.122599336318
3416 2 -1.200000000000 55.083074950932 22.270500000000 17.683496386462
3417 2 -1.200000000000 54.676557792623 26.815500000000 18.903047861390
3418 2 -1.200000000000 55.489592109242 25.906500000000 16.463944911533
3419 2 -1.200000000000 56.302626425860 24.997500000000 20.122599336318
3420 2 -1.200000000000 57.115660742479 24.088500000000 17.683496386462
3421 1 2.400000000000 52.034196263611 23.634000000000 14.634617699141
3422 1 2.400000000000 54.473299213468 20.907000000000 13.415066224212
3423 1 2.400000000000 54.879816371777 24.543000000000 12.195514749284
3424 1 2.400000000000 55.692850688396 23.634000000000 15.854169174069
3425 2 -1.200000000000 54.270040634313 23.179500000000 14.024841961676
3426 2 -1.200000000000 55.083074950932 22.270500000000 11.585739011820
3427 2 -1.200000000000 55.896109267551 21.361500000000 15.244393436605
3428 2 -1.200000000000 56.709143584170 20.452500000000 12.805290486748
3429 2 -1.200000000000 56.302626425860 24.997500000000 14.024841961676
3430 2 -1.200000000000 57.115660742479 24.088500000000 11.585739011820
3431 2 -1.200000000000 57.928695059098 23.179500000000 15.244393436605
3432 2 -1.200000000000 58.741729375717 22.270500000000 12.805290486748
3433 1 2.400000000000 53.660264896849 21.816000000000 9.756411799427
3434 1 2.400000000000 56.099367846706 19.089000000000 8.536860324499
3435 1 2.400000000000 56.505885005015 22.725000000000 7.317308849570
3436 1 2.400000000000 57.318919321634 21.816000000000 10.975963274355
3437 2 -1.200000000000 55.896109267551 21.361500000000 9.146636061963
3438 2 -1.200000000000 56.709143584170 20.452500000000 6.707533112106
3439 2 -1.200000000000 57.522177900789 19.543500000000 10.366187536891
3440 2 -1.200000000000 58.335212217408 18.634500000000 7.927084587035
3441 2 -1.200000000000 57.928695059098 23.179500000000 9.146636061963
3442 2 -1.200000000000 58.741729375717 22.270500000000 6.707533112106
3443 2 -1.200000000000 59.554763692336 21.361500000000 10.366187536891
3444 2 -1.200000000000 60.367798008955 20.452500000000 7.927084587035
3445 1 2.400000000000 55.286333530087 19.998000000000 4.878205899714
3446 1 2.400000000000 57.725436479944 17.271000000000 3.658654424785
3447 1 2.400000000000 58.131953638253 20.907000000000 2.439102949857
3448 1 2.400000000000 58.944987954872 19.998000000000 6.097757374642
3449 2 -1.200000000000 57.522177900789 19.543500000000 4.268430162249
3450 2 -1.200000000000 58.335212217408 18.634500000000 1.829327212393
3451 2 -1.200000000000 59.148246534027 17.725500000000 5.487981637178
3452 2 -1.200000000000 59.961280850646 16.816500000000 3.048878687321
3453 2 -1.200000000000 59.554763692336 21.361500000000 4.268430162249
3454 2 -1.200000000000 60.367798008955 20.452500000000 1.829327212393
3455 2 -1.200000000000 61.180832325574 19.543500000000 5.487981637178
3456 2 -1.200000000000 61.993866642193 18.634500000000 3.048878687321
3457 1 2.400000000000 56.912402163325 18.180000000000 0.000000000000
3458 1 2.400000000000 59.351505113181 15.453000000000 23.171478023639
3459 1 2.400000000000 59.758022271491 19.089000000000 21.951926548711
3460 1 2.400000000000 60.571056588110 18.180000000000 1.219551474928
3461 2 -1.200000000000 59.148246534027 17.725500000000 23.781253761104
3462 2 -1.200000000000 59.961280850646 16.816500000000 21.342150811247
3463 2 -1.200000000000 60.774315167265 15.907500000000 0.609775737464
3464 2 -1.200000000000 61.587349483883 14.998500000000 22.561702286175
3465 2 -1.200000000000 61.180832325574 19.543500000000 23.781253761104
3466 2 -1.200000000000 61.993866642193 18.634500000000 21.342150811247
3467 2 -1.200000000000 62.806900958812 17.725500000000 0.609775737464
3468 2 -1.200000000000 63.619935275431 16.816500000000 22.561702286175
3469 1 2.400000000000 53.660264896849 21.816000000000 21.951926548711
3470 1 2.400000000000 56.099367846706 19.089000000000 20.732375073783
3471 1 2.400000000000 56.505885005015 22.725000000000 19.512823598854
3472 1 2.400000000000 57.318919321634 21.816000000000 23.171478023639
3473 2 -1.200000000000 55.896109267551 21.361500000000 21.342150811247
3474 2 -1.200000000000 56.709143584170 20.452500000000 18.903047861390
3475 2 -1.200000000000 57.522177900789 19.543500000000 22.561702286175
3476 2 -1.200000000000 58.335212217408 18.634500000000 20.122599336318
3477 2 -1.200000000000 57.928695059098 23.179500000000 21.342150811247
3478 2 -1.200000000000 58.741729375717 22.270500000000 18.903047861390
3479 2 -1.200000000000 59.554763692336 21.361500000000 22.561702286175
3480 2 -1.200000000000 60.367798008955 20.452500000000 20.122599336318
3481 1 2.400000000000 55.286333530087 19.998000000000 17.073720648997
3482 1 2.400000000000 57.725436479944 17.271000000000 15.854169174069
3483 1 2.400000000000 58.131953638253 20.907000000000 14.634617699141
3484 1 2.400000000000 58.944987954872 19.998000000000 18.293272123926
3485 2 -1.200000000000 57.522177900789 19.543500000000 16.463944911533
3486 2 -1.200000000000 58.335212217408 18.634500000000 14.024841961676
3487 2 -1.200000000000 59.148246534027 17.725500000000 17.683496386462
3488 2 -1.200000000000 59.961280850646 16.816500000000 15.244393436605
3489 2 -1.200000000000 59.554763692336 21.361500000000 16.463944911533
3490 2 -1.200000000000 60.367798008955 20.452500000000 14.024841961676
3491 2 -1.200000000000 61.180832325574 19.543500000000 17.683496386462
3492 2 -1.200000000000 61.993866642193 18.634500000000 15.244393436605
3493 1 2.400000000000 56.912402163325 18.180000000000 12.195514749284
3494 1 2.400000000000 59.351505113181 15.453000000000 10.975963274355
3495 1 2.400000000000 59.758022271491 19.089000000000 9.756411799427
3496 1 2.400000000000 60.571056588110 18.180000000000 13.415066224212
3497 2 -1.200000000000 59.148246534027 17.725500000000 11.585739011820
3498 2 -1.200000000000 59.961280850646 16.816500000000 9.146636061963
3499 2 -1.200000000000 60.774315167265 15.907500000000 12.805290486748
3500 2 -1.200000000000 61.587349483883 14.998500000000 10.366187536891
3501 2 -1.200000000000 61.180832325574 19.543500000000 11.585739011820
3502 2 -1.200000000000 61.993866642193 18.634500000000 9.146636061963
3503 2 -1.200000000000 62.806900958812 17.725500000000 12.805290486748
3504 2 -1.200000000000 63.619935275431 16.816500000000 10.366187536891
3505 1 2.400000000000 58.538470796562 16.362000000000 7.317308849570
3506 1 2.400000000000 60.977573746419 13.635000000000 6.097757374642
3507 1 2.400000000000 61.384090904729 17.271000000000 4.878205899714
3508 1 2.400000000000 62.197125221348 16.362000000000 8.536860324499
3509 2 -1.200000000000 60.774315167265 15.907500000000 6.707533112106
3510 2 -1.200000000000 61.587349483883 14.998500000000 4.268430162249
3511 2 -1.200000000000 62.400383800502 14.089500000000 7.927084587035
3512 2 -1.200000000000 63.213418117121 13.180500000000 5.487981637178
3513 2 -1.200000000000 62.806900958812 17.725500000000 6.707533112106
3514 2 -1.200000000000 63.619935275431 16.816500000000 4.268430162249
3515 2 -1.200000000000 64.432969592050 15.907500000000 7.927084587035
3516 2 -1.200000000000 65.246003908669 14.998500000000 5.487981637178
3517 1 2.400000000000 60.164539429800 14.544000000000 2.439102949857
3518 1 2.400000000000 62.603642379657 11.817000000000 1.219551474928
3519 1 2.400000000000 63.010159537967 15.453000000000 0.000000000000
3520 1 2.400000000000 63.823193854585 14.544000000000 3.658654424785
3521 2 -1.200000000000 62.400383800502 14.089500000000 1.829327212393
3522 2 -1.200000000000 63.213418117121 13.180500000000 23.781253761104
3523 2 -1.200000000000 64.026452433740 12.271500000000 3.048878687321
3524 2 -1.200000000000 64.839486750359 11.362500000000 0.609775737464
3525 2 -1.200000000000 64.432969592050 15.907500000000 1.829327212393
3526 2 -1.200000000000 65.246003908669 14.998500000000 23.781253761104
3527 2 -1.200000000000 66.059038225288 14.089500000000 3.048878687321
3528 2 -1.200000000000 66.872072541906 13.180500000000 0.609775737464
3529 1 2.400000000000 58.538470796562 16.362000000000 19.512823598854
3530 1 2.400000000000 60.977573746419 13.635000000000 18.293272123926
3531 1 2.400000000000 61.384090904729 17.271000000000 17.073720648997
3532 1 2.400000000000 62.197125221348 16.362000000000 20.732375073783
3533 2 -1.200000000000 60.774315167265 15.907500000000 18.903047861390
3534 2 -1.200000000000 61.587349483883 14.998500000000 16.463944911533
3535 2 -1.200000000000 62.400383800502 14.089500000000 20.122599336318
3536 2 -1.200000000000 63.213418117121 13.180500000000 17.683496386462
3537 2 -1.200000000000 62.806900958812 17.725500000000 18.903047861390
3538 2 -1.200000000000 63.619935275431 16.816500000000 16.463944911533
3539 2 -1.200000000000 64.432969592050 15.907500000000 20.122599336318
3540 2 -1.200000000000 65.246003908669 14.998500000000 17.683496386462
3541 1 2.400000000000 60.164539429800 14.544000000000 14.634617699141
3542 1 2.400000000000 62.603642379657 11.817000000000 13.415066224212
3543 1 2.400000000000 63.010159537967 15.453000000000 12.195514749284
3544 1 2.400000000000 63.823193854585 14.544000000000 15.854169174069
3545 2 -1.200000000000 62.400383800502 14.089500000000 14.024841961676
3546 2 -1.200000000000 63.213418117121 13.180500000000 11.585739011820
3547 2 -1.200000000000 64.026452433740 12.271500000000 15.244393436605
3548 2 -1.200000000000 64.839486750359 11.362500000000 12.805290486748
3549 2 -1.200000000000 64.432969592050 15.907500000000 14.024841961676
3550 2 -1.200000000000 65.246003908669 14.998500000000 11.585739011820
3551 2 -1.200000000000 66.059038225288 14.089500000000 15.244393436605
3552 2 -1.200000000000 66.872072541906 13.180500000000 12.805290486748
3553 1 2.400000000000 61.790608063038 12.726000000000 9.756411799427
3554 1 2.400000000000 64.229711012895 9.999000000000 8.536860324499
3555 1 2.400000000000 64.636228171204 13.635000000000 7.317308849570
3556 1 2.400000000000 65.449262487823 12.726000000000 10.975963274355
3557 2 -1.200000000000 64.026452433740 12.271500000000 9.146636061963
3558 2 -1.200000000000 64.839486750359 11.362500000000 6.707533112106
3559 2 -1.200000000000 65.652521066978 10.453500000000 10.366187536891
3560 2 -1.200000000000 66.465555383597 9.544500000000 7.927084587035
3561 2 -1.200000000000 66.059038225288 14.089500000000 9.146636061963
3562 2 -1.200000000000 66.872072541906 13.180500000000 6.707533112106
3563 2 -1.200000000000 67.685106858525 12.271500000000 10.366187536891
3564 2 -1.200000000000 68.498141175144 11.362500000000 7.927084587035
3565 1 2.400000000000 63.416676696276 10.908000000000 4.878205899714
3566 1 2.400000000000 65.855779646133 8.181000000000 3.658654424785
3567 1 2.400000000000 66.262296804442 11.817000000000 2.439102949857
3568 1 2.400000000000 67.075331121061 10.908000000000 6.097757374642
3569 2 -1.200000000000 65.652521066978 10.453500000000 4.268430162249
3570 2 -1.200000000000 66.465555383597 9.544500000000 1.829327212393
3571 2 -1.200000000000 67.278589700216 8.635500000000 5.487981637178
3572 2 -1.200000000000 68.091624016835 7.726500000000 3.048878687321
3573 2 -1.200000000000 67.685106858525 12.271500000000 4.268430162249
3574 2 -1.200000000000 68.498141175144 11.362500000000 1.829327212393
3575 2 -1.200000000000 69.311175491763 10.453500000000 5.487981637178
3576 2 -1.200000000000 70.124209808382 9.544500000000 3.048878687321
3577 1 2.400000000000 65.042745329514 9.090000000000 0.000000000000
3578 1 2.400000000000 67.481848279371 6.363000000000 23.171478023639
3579 1 2.400000000000 67.888365437680 9.999000000000 21.951926548711
3580 1 2.400000000000 68.701399754299 9.090000000000 1.219551474928
3581 2 -1.200000000000 67.278589700216 8.635500000000 23.781253761104
3582 2 -1.200000000000 68.091624016835 7.726500000000 21.342150811247
3583 2 -1.200000000000 68.904658333454 6.817500000000 0.609775737464
3584 2 -1.200000000000 69.717692650073 5.908500000000 22.561702286175
3585 2 -1.200000000000 69.311175491763 10.453500000000 23.781253761104
3586 2 -1.200000000000 70.124209808382 9.544500000000 21.342150811247
3587 2 -1.200000000000 70.937244125001 8.635500000000 0.609775737464
3588 2 -1.200000000000 71.750278441620 7.726500000000 22.561702286175
3589 1 2.400000000000 61.790608063038 12.726000000000 21.951926548711
3590 1 2.400000000000 64.229711012895 9.999000000000 20.732375073783
3591 1 2.400000000000 64.636228171204 13.635000000000 19.512823598854
3592 1 2.400000000000 65.449262487823 12.726000000000 23.171478023639
3593 2 -1.200000000000 64.026452433740 12.271500000000 21.342150811247
3594 2 -1.200000000000 64.839486750359 11.362500000000 18.903047861390
3595 2 -1.200000000000 65.652521066978 10.453500000000 22.561702286175
3596 2 -1.200000000000 66.465555383597 9.544500000000 20.122599336318
3597 2 -1.200000000000 66.059038225288 14.089500000000 21.342150811247
3598 2 -1.200000000000 66.872072541906 13.180500000000 18.903047861390
3599 2 -1.200000000000 67.685106858525 12.271500000000 22.561702286175
3600 2 -1.200000000000 68.498141175144 11.362500000000 20.122599336318
3601 1 2.400000000000 63.416676696276 10.908000000000 17.073720648997
3602 1 2.400000000000 65.855779646133 8.181000000000 15.854169174069
3603 1 2.400000000000 66.262296804442 11.817000000000 14.634617699141
3604 1 2.400000000000 67.075331121061 10.908000000000 18.293272123926
3605 2 -1.200000000000 65.652521066978 10.453500000000 16.463944911533
3606 2 -1.200000000000 66.465555383597 9.544500000000 14.024841961676
3607 2 -1.200000000000 67.278589700216 8.635500000000 17.683496386462
3608 2 -1.200000000000 68.091624016835 7.726500000000 15.244393436605
3609 2 -1.200000000000 67.685106858525 12.271500000000 16.463944911533
3610 2 -1.200000000000 68.498141175144 11.362500000000 14.024841961676
3611 2 -1.200000000000 69.311175491763 10.453500000000 17.683496386462
3612 2 -1.200000000000 70.124209808382 9.544500000000 15.244393436605
3613 1 2.400000000000 65.042745329514 9.090000000000 12.195514749284
3614 1 2.400000000000 67.481848279371 6.363000000000 10.975963274355
3615 1 2.400000000000 67.888365437680 9.999000000000 9.756411799427
3616 1 2.400000000000 68.701399754299 9.090000000000 13.415066224212
3617 2 -1.200000000000 67.278589700216 8.635500000000 11.585739011820
3618 2 -1.200000000000 68.091624016835 7.726500000000 9.146636061963
3619 2 -1.200000000000 68.904658333454 6.817500000000 12.805290486748
3620 2 -1.200000000000 69.717692650073 5.908500000000 10.366187536891
3621 2 -1.200000000000 69.311175491763 10.453500000000 11.585739011820
3622 2 -1.200000000000 70.124209808382 9.544500000000 9.146636061963
3623 2 -1.200000000000 70.937244125001 8.635500000000 12.805290486748
3624 2 -1.200000000000 71.750278441620 7.726500000000 10.366187536891
3625 1 2.400000000000 52.847230580230 30.906000000000 0.000000000000
3626 1 2.400000000000 55.286333530087 28.179000000000 23.171478023639
3627 1 2.400000000000 55.692850688396 31.815000000000 21.951926548711
3628 1 2.400000000000 56.505885005015 30.906000000000 1.219551474928
3629 2 -1.200000000000 55.083074950932 30.451500000000 23.781253761104
3630 2 -1.200000000000 55.896109267551 29.542500000000 21.342150811247
3631 2 -1.200000000000 56.709143584170 28.633500000000 0.609775737464
3632 2 -1.200000000000 57.522177900789 27.724500000000 22.561702286175
3633 2 -1.200000000000 57.115660742479 32.269500000000 23.781253761104
3634 2 -1.200000000000 57.928695059098 31.360500000000 21.342150811247
3635 2 -1.200000000000 58.741729375717 30.451500000000 0.609775737464
3636 2 -1.200000000000 59.554763692336 29.542500000000 22.561702286175
3637 1 2.400000000000 52.847230580230 30.906000000000 12.195514749284
3638 1 2.400000000000 55.286333530087 28.179000000000 10.975963274355
3639 1 2.400000000000 55.692850688396 31.815000000000 9.756411799427
3640 1 2.400000000000 56.505885005015 30.906000000000 13.415066224212
3641 2 -1.200000000000 55.083074950932 30.451500000000 11.585739011820
3642 2 -1.200000000000 55.896109267551 29.542500000000 9.146636061963
3643 2 -1.200000000000 56.709143584170 28.633500000000 12.805290486748
3644 2 -1.200000000000 57.522177900789 27.724500000000 10.366187536891
3645 2 -1.200000000000 57.115660742479 32.269500000000 11.585739011820
3646 2 -1.200000000000 57.928695059098 31.360500000000 9.146636061963
3647 2 -1.200000000000 58.741729375717 30.451500000000 12.805290486748
3648 2 -1.200000000000 59.554763692336 29.542500000000 10.366187536891
3649 1 2.400000000000 54.473299213468 29.088000000000 7.317308849570
3650 1 2.400000000000 56.912402163325 26.361000000000 6.097757374642
3651 1 2.400000000000 57.318919321634 29.997000000000 4.878205899714
3652 1 2.400000000000 58.131953638253 29.088000000000 8.536860324499
3653 2 -1.200000000000 56.709143584170 28.633500000000 6.707533112106
3654 2 -1.200000000000 57.522177900789 27.724500000000 4.268430162249
3655 2 -1.200000000000 58.335212217408 26.815500000000 7.927084587035
3656 2 -1.200000000000 59.148246534027 25.906500000000 5.487981637178
3657 2 -1.200000000000 58.741729375717 30.451500000000 6.707533112106
3658 2 -1.200000000000 59.554763692336 29.542500000000 4.268430162249
3659 2 -1.200000000000 60.367798008955 28.633500000000 7.927084587035
3660 2 -1.200000000000 61.180832325574 27.724500000000 5.487981637178
3661 1 2.400000000000 56.099367846706 27.270000000000 2.439102949857
3662 1 2.400000000000 58.538470796562 24.543000000000 1.219551474928
3663 1 2.400000000000 58.944987954872 28.179000000000 0.000000000000
3664 1 2.400000000000 59.758022271491 27.270000000000 3.658654424785
3665 2 -1.200000000000 58.335212217408 26.815500000000 1.829327212393
3666 2 -1.200000000000 59.148246534027 25.906500000000 23.781253761104
3667 2 -1.200000000000 59.961280850646 24.997500000000 3.048878687321
3668 2 -1.200000000000 60.774315167265 24.088500000000 0.609775737464
3669 2 -1.200000000000 60.367798008955 28.633500000000 1.829327212393
3670 2 -1.200000000000 61.180832325574 27.724500000000 23.781253761104
3671 2 -1.200000000000 61.993866642193 26.815500000000 3.048878687321
3672 2 -1.200000000000 62.806900958812 25.906500000000 0.609775737464
3673 1 2.400000000000 54.473299213468 29.088000000000 19.512823598854
3674 1 2.400000000000 56.912402163325 26.361000000000 18.293272123926
3675 1 2.400000000000 57.318919321634 29.997000000000 17.073720648997
3676 1 2.400000000000 58.131953638253 29.088000000000 20.732375073783
3677 2 -1.200000000000 56.709143584170 28.633500000000 18.903047861390
3678 2 -1.200000000000 57.522177900789 27.724500000000 16.463944911533
3679 2 -1.200000000000 58.335212217408 26.815500000000 20.122599336318
3680 2 -1.200000000000 59.148246534027 25.906500000000 17.683496386462
3681 2 -1.200000000000 58.741729375717 30.451500000000 18.903047861390
3682 2 -1.200000000000 59.554763692336 29.542500000000 16.463944911533
3683 2 -1.200000000000 60.367798008955 28.633500000000 20.122599336318
3684 2 -1.200000000000 61.180832325574 27.724500000000 17.683496386462
3685 1 2.400000000000 56.099367846706 27.270000000000 14.634617699141
3686 1 2.400000000000 58.538470796562 24.543000000000 13.415066224212
3687 1 2.400000000000 58.944987954872 28.179000000000 12.195514749284
3688 1 2.400000000000 59.758022271491 27.270000000000 15.854169174069
3689 2 -1.200000000000 58.335212217408 26.815500000000 14.024841961676
3690 2 -1.200000000000 59.148246534027 25.906500000000 11.585739011820
3691 2 -1.200000000000 59.961280850646 24.997500000000 15.244393436605
3692 2 -1.200000000000 60.774315167265 24.088500000000 12.805290486748
3693 2 -1.200000000000 60.367798008955 28.633500000000 14.024841961676
3694 2 -1.200000000000 61.180832325574 27.724500000000 11.585739011820
3695 2 -1.200000000000 61.993866642193 26.815500000000 15.244393436605
3696 2 -1.200000000000 62.806900958812 25.906500000000 12.805290486748
3697 1 2.400000000000 57.725436479944 25.452000000000 9.756411799427
3698 1 2.400000000000 60.164539429800 22.725000000000 8.536860324499
3699 1 2.400000000000 60.571056588110 26.361000000000 7.317308849570
3700 1 2.400000000000 61.384090904729 25.452000000000 10.975963274355
3701 2 -1.200000000000 59.961280850646 24.997500000000 9.146636061963
3702 2 -1.200000000000 60.774315167265 24.088500000000 6.707533112106
3703 2 -1.200000000000 61.587349483883 23.179500000000 10.366187536891
3704 2 -1.200000000000 62.400383800502 22.270500000000 7.927084587035
3705 2 -1.200000000000 61.993866642193 26.815500000000 9.146636061963
3706 2 -1.200000000000 62.806900958812 25.906500000000 6.707533112106
3707 2 -1.200000000000 63.619935275431 24.997500000000 10.366187536891
3708 2 -1.200000000000 64.432969592050 24.088500000000 7.927084587035
3709 1 2.400000000000 59.351505113181 23.634000000000 4.878205899714
3710 1 2.400000000000 61.790608063038 20.907000000000 3.658654424785
3711 1 2.400000000000 62.197125221348 24.543000000000 2.439102949857
3712 1 2.400000000000 63.010159537967 23.634000000000 6.097757374642
3713 2 -1.200000000000 61.587349483883 23.179500000000 4.268430162249
3714 2 -1.200000000000 62.400383800502 22.270500000000 1.829327212393
3715 2 -1.200000000000 63.213418117121 21.361500000000 5.487981637178
3716 2 -1.200000000000 64.026452433740 20.452500000000 3.048878687321
3717 2 -1.200000000000 63.619935275431 24.997500000000 4.268430162249
3718 2 -1.200000000000 64.432969592050 24.088500000000 1.829327212393
3719 2 -1.200000000000 65.246003908669 23.179500000000 5.487981637178
3720 2 -1.200000000000 66.059038225288 22.270500000000 3.048878687321
3721 1 2.400000000000 60.977573746419 21.816000000000 0.000000000000
3722 1 2.400000000000 63.416676696276 19.089000000000 23.171478023639
3723 1 2.400000000000 63.823193854585 22.725000000000 21.951926548711
3724 1 2.400000000000 64.636228171204 21.816000000000 1.219551474928
3725 2 -1.200000000000 63.213418117121 21.361500000000 23.781253761104
3726 2 -1.200000000000 64.026452433740 20.452500000000 21.342150811247
3727 2 -1.200000000000 64.839486750359 19.543500000000 0.609775737464
3728 2 -1.200000000000 65.652521066978 18.634500000000 22.561702286175
3729 2 -1.200000000000 65.246003908669 23.179500000000 23.781253761104
3730 2 -1.200000000000 66.059038225288 22.270500000000 21.342150811247
3731 2 -1.200000000000 66.872072541906 21.361500000000 0.609775737464
3732 2 -1.200000000000 67.685106858525 20.452500000000 22.561702286175
3733 1 2.400000000000 57.725436479944 25.452000000000 21.951926548711
3734 1 2.400000000000 60.164539429800 22.725000000000 20.732375073783
3735 1 2.400000000000 60.571056588110 26.361000000000 19.512823598854
3736 1 2.400000000000 61.384090904729 25.452000000000 23.171478023639
3737 2 -1.200000000000 59.961280850646 24.997500000000 21.342150811247
3738 2 -1.200000000000 60.774315167265 24.088500000000 18.903047861390
3739 2 -1.200000000000 61.587349483883 23.179500000000 22.561702286175
3740 2 -1.200000000000 62.400383800502 22.270500000000 20.122599336318
3741 2 -1.200000000000 61.993866642193 26.815500000000 21.342150811247
3742 2 -1.200000000000 62.806900958812 25.906500000000 18.903047861390
3743 2 -1.200000000000 63.619935275431 24.997500000000 22.561702286175
3744 2 -1.200000000000 64.432969592050 24.088500000000 20.122599336318
3745 1 2.400000000000 59.351505113181 23.634000000000 17.073720648997
3746 1 2.400000000000 61.790608063038 20.907000000000 15.854169174069
3747 1 2.400000000000 62.197125221348 24.543000000000 14.634617699141
3748 1 2.400000000000 63.010159537967 23.634000000000 18.293272123926
3749 2 -1.200000000000 61.587349483883 23.179500000000 16.463944911533
3750 2 -1.200000000000 62.400383800502 22.270500000000 14.024841961676
3751 2 -1.200000000000 63.213418117121 21.361500000000 17.683496386462
3752 2 -1.200000000000 64.026452433740 20.452500000000 15.244393436605
3753 2 -1.200000000000 63.619935275431 24.997500000000 16.463944911533
3754 2 -1.200000000000 64.432969592050 24.088500000000 14.024841961676
3755 2 -1.200000000000 65.246003908669 23.179500000000 17.683496386462
3756 2 -1.200000000000 66.059038225288 22.270500000000 15.244393436605
3757 1 2.400000000000 60.977573746419 21.816000000000 12.195514749284
3758 1 2.400000000000 63.416676696276 19.089000000000 10.975963274355
3759 1 2.400000000000 63.823193854585 22.725000000000 9.756411799427
3760 1 2.400000000000 64.636228171204 21.816000000000 13.415066224212
3761 2 -1.200000000000 63.213418117121 21.361500000000 11.585739011820
3762 2 -1.200000000000 64.026452433740 20.452500000000 9.146636061963
3763 2 -1.200000000000 64.839486750359 19.543500000000 12.805290486748
3764 2 -1.200000000000 65.652521066978 18.634500000000 10.366187536891
3765 2 -1.200000000000 65.246003908669 23.179500000000 11.585739011820
3766 2 -1.200000000000 66.059038225288 22.270500000000 9.146636061963
3767 2 -1.200000000000 66.872072541906 21.361500000000 12.805290486748
3768 2 -1.200000000000 67.685106858525 20.452500000000 10.366187536891
3769 1 2.400000000000 62.603642379657 19.998000000000 7.317308849570
3770 1 2.400000000000 65.042745329514 17.271000000000 6.097757374642
3771 1 2.400000000000 65.449262487823 20.907000000000 4.878205899714
3772 1 2.400000000000 66.262296804442 19.998000000000 8.536860324499
3773 2 -1.200000000000 64.839486750359 19.543500000000 6.707533112106
3774 2 -1.200000000000 65.652521066978 18.634500000000 4.268430162249
3775 2 -1.200000000000 66.465555383597 17.725500000000 7.927084587035
3776 2 -1.200000000000 67.278589700216 16.816500000000 5.487981637178
3777 2 -1.200000000000 66.872072541906 21.361500000000 6.707533112106
3778 2 -1.200000000000 67.685106858525 20.452500000000 4.268430162249
3779 2 -1.200000000000 68.498141175144 19.543500000000 7.927084587035
3780 2 -1.200000000000 69.311175491763 18.634500000000 5.487981637178
3781 1 2.400000000000 64.229711012895 18.180000000000 2.439102949857
3782 1 2.400000000000 66.668813962752 15.453000000000 1.219551474928
3783 1 2.400000000000 67.075331121061 19.089000000000 0.000000000000
3784 1 2.400000000000 67.888365437680 18.180000000000 3.658654424785
3785 2 -1.200000000000 66.465555383597 17.725500000000 1.829327212393
3786 2 -1.200000000000 67.278589700216 16.816500000000 23.781253761104
3787 2 -1.200000000000 68.091624016835 15.907500000000 3.048878687321
3788 2 -1.200000000000 68.904658333454 14.998500000000 0.609775737464
3789 2 -1.200000000000 68.498141175144 19.543500000000 1.829327212393
3790 2 -1.200000000000 69.311175491763 18.634500000000 23.781253761104
3791 2 -1.200000000000 70.124209808382 17.725500000000 3.048878687321
3792 2 -1.200000000000 70.937244125001 16.816500000000 0.609775737464
3793 1 2.400000000000 62.603642379657 19.998000000000 19.512823598854
3794 1 2.400000000000 65.042745329514 17.271000000000 18.293272123926
3795 1 2.400000000000 65.449262487823 20.907000000000 17.073720648997
3796 1 2.400000000000 66.262296804442 19.998000000000 20.732375073783
3797 2 -1.200000000000 64.839486750359 19.543500000000 18.903047861390
3798 2 -1.200000000000 65.652521066978 18.634500000000 16.463944911533
3799 2 -1.200000000000 66.465555383597 17.725500000000 20.122599336318
3800 2 -1.200000000000 67.278589700216 16.816500000000 17.683496386462
3801 2 -1.200000000000 66.872072541906 21.361500000000 18.903047861390
3802 2 -1.200000000000 67.685106858525 20.452500000000 16.463944911533
3803 2 -1.200000000000 68.498141175144 19.543500000000 20.122599336318
3804 2 -1.200000000000 69.311175491763 18.634500000000 17.683496386462
3805 1 2.400000000000 64.229711012895 18.180000000000 14.634617699141
3806 1 2.400000000000 66.668813962752 15.453000000000 13.415066224212
3807 1 2.400000000000 67.075331121061 19.089000000000 12.195514749284
3808 1 2.400000000000 67.888365437680 18.180000000000 15.854169174069
3809 2 -1.200000000000 66.465555383597 17.725500000000 14.024841961676
3810 2 -1.200000000000 67.278589700216 16.816500000000 11.585739011820
3811 2 -1.200000000000 68.091624016835 15.907500000000 15.244393436605
3812 2 -1.200000000000 68.904658333454 14.998500000000 12.805290486748
3813 2 -1.200000000000 68.498141175144 19.543500000000 14.024841961676
3814 2 -1.200000000000 69.311175491763 18.634500000000 11.585739011820
3815 2 -1.200000000000 70.124209808382 17.725500000000 15.244393436605
3816 2 -1.200000000000 70.937244125001 16.816500000000 12.805290486748
3817 1 2.400000000000 65.855779646133 16.362000000000 9.756411799427
3818 1 2.400000000000 68.294882595990 13.635000000000 8.536860324499
3819 1 2.400000000000 68.701399754299 17.271000000000 7.317308849570
3820 1 2.400000000000 69.514434070918 16.362000000000 10.975963274355
3821 2 -1.200000000000 68.091624016835 15.907500000000 9.146636061963
3822 2 -1.200000000000 68.904658333454 14.998500000000 6.707533112106
3823 2 -1.200000000000 69.717692650073 14.089500000000 10.366187536891
3824 2 -1.200000000000 70.530726966692 13.180500000000 7.927084587035
3825 2 -1.200000000000 70.124209808382 17.725500000000 9.146636061963
3826 2 -1.200000000000 70.937244125001 16.816500000000 6.707533112106
3827 2 -1.200000000000 71.750278441620 15.907500000000 10.366187536891
3828 2 -1.200000000000 72.563312758239 14.998500000000 7.927084587035
3829 1 2.400000000000 65.855779646133 16.362000000000 21.951926548711
3830 1 2.400000000000 68.294882595990 13.635000000000 20.732375073783
3831 1 2.400000000000 68.701399754299 17.271000000000 19.512823598854
3832 1 2.400000000000 69.514434070918 16.362000000000 23.171478023639
3833 2 -1.200000000000 68.091624016835 15.907500000000 21.342150811247
3834 2 -1.200000000000 68.904658333454 14.998500000000 18.903047861390
3835 2 -1.200000000000 69.717692650073 14.089500000000 22.561702286175
3836 2 -1.200000000000 70.530726966692 13.180500000000 20.122599336318
3837 2 -1.200000000000 70.124209808382 17.725500000000 21.342150811247
3838 2 -1.200000000000 70.937244125001 16.816500000000 18.903047861390
3839 2 -1.200000000000 71.750278441620 15.907500000000 22.561702286175
3840 2 -1.200000000000 72.563312758239 14.998500000000 20.122599336318
3841 1 2.400000000000 60.164539429800 30.906000000000 2.439102949857
3842 1 2.400000000000 62.603642379657 28.179000000000 1.219551474928
3843 1 2.400000000000 63.010159537967 31.815000000000 0.000000000000
3844 1 2.400000000000 63.823193854585 30.906000000000 3.658654424785
3845 2 -1.200000000000 62.400383800502 30.451500000000 1.829327212393
3846 2 -1.200000000000 63.213418117121 29.542500000000 23.781253761104
3847 2 -1.200000000000 64.026452433740 28.633500000000 3.048878687321
3848 2 -1.200000000000 64.839486750359 27.724500000000 0.609775737464
3849 2 -1.200000000000 64.432969592050 32.269500000000 1.829327212393
3850 2 -1.200000000000 65.246003908669 31.360500000000 23.781253761104
3851 2 -1.200000000000 66.059038225288 30.451500000000 3.048878687321
3852 2 -1.200000000000 66.872072541906 29.542500000000 0.609775737464
3853 1 2.400000000000 60.164539429800 30.906000000000 14.634617699141
3854 1 2.400000000000 62.603642379657 28.179000000000 13.415066224212
3855 1 2.400000000000 63.010159537967 31.815000000000 12.195514749284
3856 1 2.400000000000 63.823193854585 30.906000000000 15.854169174069
3857 2 -1.200000000000 62.400383800502 30.451500000000 14.024841961676
3858 2 -1.200000000000 63.213418117121 29.542500000000 11.585739011820
3859 2 -1.200000000000 64.026452433740 28.633500000000 15.244393436605
3860 2 -1.200000000000 64.839486750359 27.724500000000 12.805290486748
3861 2 -1.200000000000 64.432969592050 32.269500000000 14.024841961676
3862 2 -1.200000000000 65.246003908669 31.360500000000 11.585739011820
3863 2 -1.200000000000 66.059038225288 30.451500000000 15.244393436605
3864 2 -1.200000000000 66.872072541906 29.542500000000 12.805290486748
3865 1 2.400000000000 61.790608063038 29.088000000000 9.756411799427
3866 1 2.400000000000 64.229711012895 26.361000000000 8.536860324499
3867 1 2.400000000000 64.636228171204 29.997000000000 7.317308849570
3868 1 2.400000000000 65.449262487823 29.088000000000 10.975963274355
3869 2 -1.200000000000 64.026452433740 28.633500000000 9.146636061963
3870 2 -1.200000000000 64.839486750359 27.724500000000 6.707533112106
3871 2 -1.200000000000 65.652521066978 26.815500000000 10.366187536891
3872 2 -1.200000000000 66.465555383597 25.906500000000 7.927084587035
3873 2 -1.200000000000 66.059038225288 30.451500000000 9.146636061963
3874 2 -1.200000000000 66.872072541906 29.542500000000 6.707533112106
3875 2 -1.200000000000 67.685106858525 28.633500000000 10.366187536891
3876 2 -1.200000000000 68.498141175144 27.724500000000 7.927084587035
3877 1 2.400000000000 63.416676696276 27.270000000000 4.878205899714
3878 1 2.400000000000 65.855779646133 24.543000000000 3.658654424785
3879 1 2.400000000000 66.262296804442 28.179000000000 2.439102949857
3880 1 2.400000000000 67.075331121061 27.270000000000 6.097757374642
3881 2 -1.200000000000 65.652521066978 26.815500000000 4.268430162249
3882 2 -1.200000000000 66.465555383597 25.906500000000 1.829327212393
3883 2 -1.200000000000 67.278589700216 24.997500000000 5.487981637178
3884 2 -1.200000000000 68.091624016835 24.088500000000 3.048878687321
3885 2 -1.200000000000 67.685106858525 28.633500000000 4.268430162249
3886 2 -1.200000000000 68.498141175144 27.724500000000 1.829327212393
3887 2 -1.200000000000 69.311175491763 26.815500000000 5.487981637178
3888 2 -1.200000000000 70.124209808382 25.906500000000 3.048878687321
3889 1 2.400000000000 65.042745329514 25.452000000000 0.000000000000
3890 1 2.400000000000 67.481848279371 22.725000000000 23.171478023639
3891 1 2.400000000000 67.888365437680 26.361000000000 21.951926548711
3892 1 2.400000000000 68.701399754299 25.452000000000 1.219551474928
3893 2 -1.200000000000 67.278589700216 24.997500000000 23.781253761104
3894 2 -1.200000000000 68.091624016835 24.088500000000 21.342150811247
3895 2 -1.200000000000 68.904658333454 23.179500000000 0.609775737464
3896 2 -1.200000000000 69.717692650073 22.270500000000 22.561702286175
3897 2 -1.200000000000 69.311175491763 26.815500000000 23.781253761104
3898 2 -1.200000000000 70.124209808382 25.906500000000 21.342150811247
3899 2 -1.200000000000 70.937244125001 24.997500000000 0.609775737464
3900 2 -1.200000000000 71.750278441620 24.088500000000 22.561702286175
3901 1 2.400000000000 61.790608063038 29.088000000000 21.951926548711
3902 1 2.400000000000 64.229711012895 26.361000000000 20.732375073783
3903 1 2.400000000000 64.636228171204 29.997000000000 19.512823598854
3904 1 2.400000000000 65.449262487823 29.088000000000 23.171478023639
3905 2 -1.200000000000 64.026452433740 28.633500000000 21.342150811247
3906 2 -1.200000000000 64.839486750359 27.724500000000 18.903047861390
3907 2 -1.200000000000 65.652521066978 26.815500000000 22.561702286175
3908 2 -1.200000000000 66.465555383597 25.906500000000 20.122599336318
3909 2 -1.200000000000 66.059038225288 30.451500000000 21.342150811247
3910 2 -1.200000000000 66.872072541906 29.542500000000 18.903047861390
3911 2 -1.200000000000 67.685106858525 28.633500000000 22.561702286175
3912 2 -1.200000000000 68.498141175144 27.724500000000 20.122599336318
3913 1 2.400000000000 63.416676696276 27.270000000000 17.073720648997
3914 1 2.400000000000 65.855779646133 24.543000000000 15.854169174069
3915 1 2.400000000000 66.262296804442 28.179000000000 14.634617699141
3916 1 2.400000000000 67.075331121061 27.270000000000 18.293272123926
3917 2 -1.200000000000 65.652521066978 26.815500000000 16.463944911533
3918 2 -1.200000000000 66.465555383597 25.906500000000 14.024841961676
3919 2 -1.200000000000 67.278589700216 24.997500000000 17.683496386462
3920 2 -1.200000000000 68.091624016835 24.088500000000 15.244393436605
3921 2 -1.200000000000 67.685106858525 28.633500000000 16.463944911533
3922 2 -1.200000000000 68.498141175144 27.724500000000 14.024841961676
3923 2 -1.200000000000 69.311175491763 26.815500000000 17.683496386462
3924 2 -1.200000000000 70.124209808382 25.906500000000 15.244393436605
3925 1 2.400000000000 65.042745329514 25.452000000000 12.195514749284
3926 1 2.400000000000 67.481848279371 22.725000000000 10.975963274355
3927 1 2.400000000000 67.888365437680 26.361000000000 9.756411799427
3928 1 2.400000000000 68.701399754299 25.452000000000 13.415066224212
3929 2 -1.200000000000 67.278589700216 24.997500000000 11.585739011820
3930 2 -1.200000000000 68.091624016835 24.088500000000 9.146636061963
3931 2 -1.200000000000 68.904658333454 23.179500000000 12.805290486748
3932 2 -1.200000000000 69.717692650073 22.270500000000 10.366187536891
3933 2 -1.200000000000 69.311175491763 26.815500000000 11.585739011820
3934 2 -1.200000000000 70.124209808382 25.906500000000 9.146636061963
3935 2 -1.200000000000 70.937244125001 24.997500000000 12.805290486748
3936 2 -1.200000000000 71.750278441620 24.088500000000 10.366187536891
3937 1 2.400000000000 73.173088495703 0.000000000000 12.195514749284
3938 1 2.400000000000 73.986122812322 31.815000000000 8.536860324499
3939 1 2.400000000000 74.392639970631 2.727000000000 9.756411799427
3940 1 2.400000000000 76.831742920488 0.000000000000 10.975963274355
3941 2 -1.200000000000 74.595898549786 0.454500000000 10.366187536891
3942 2 -1.200000000000 73.782864233167 1.363500000000 7.927084587035
3943 2 -1.200000000000 76.221967183024 31.360500000000 9.146636061963
3944 2 -1.200000000000 75.408932866405 32.269500000000 6.707533112106
3945 2 -1.200000000000 76.628484341334 2.272500000000 10.366187536891
3946 2 -1.200000000000 75.815450024715 3.181500000000 7.927084587035
3947 2 -1.200000000000 78.254552974571 0.454500000000 9.146636061963
3948 2 -1.200000000000 77.441518657952 1.363500000000 6.707533112106
3949 1 2.400000000000 73.173088495703 0.000000000000 0.000000000000
3950 1 2.400000000000 73.986122812322 31.815000000000 20.732375073783
3951 1 2.400000000000 74.392639970631 2.727000000000 21.951926548711
3952 1 2.400000000000 76.831742920488 0.000000000000 23.171478023639
3953 2 -1.200000000000 74.595898549786 0.454500000000 22.561702286175
3954 2 -1.200000000000 73.782864233167 1.363500000000 20.122599336318
3955 2 -1.200000000000 76.221967183024 31.360500000000 21.342150811247
3956 2 -1.200000000000 75.408932866405 32.269500000000 18.903047861390
3957 2 -1.200000000000 76.628484341334 2.272500000000 22.561702286175
3958 2 -1.200000000000 75.815450024715 3.181500000000 20.122599336318
3959 2 -1.200000000000 78.254552974571 0.454500000000 21.342150811247
3960 2 -1.200000000000 77.441518657952 1.363500000000 18.903047861390
3961 1 2.400000000000 75.612191445560 5.454000000000 19.512823598854
3962 1 2.400000000000 76.425225762179 4.545000000000 15.854169174069
3963 1 2.400000000000 76.831742920488 8.181000000000 17.073720648997
3964 1 2.400000000000 79.270845870345 5.454000000000 18.293272123926
3965 2 -1.200000000000 77.035001499643 5.908500000000 17.683496386462
3966 2 -1.200000000000 76.221967183024 6.817500000000 15.244393436605
3967 2 -1.200000000000 78.661070132881 4.090500000000 16.463944911533
3968 2 -1.200000000000 77.848035816262 4.999500000000 14.024841961676
3969 2 -1.200000000000 79.067587291190 7.726500000000 17.683496386462
3970 2 -1.200000000000 78.254552974571 8.635500000000 15.244393436605
3971 2 -1.200000000000 80.693655924428 5.908500000000 16.463944911533
3972 2 -1.200000000000 79.880621607809 6.817500000000 14.024841961676
3973 1 2.400000000000 73.986122812322 7.272000000000 14.634617699141
3974 1 2.400000000000 74.799157128941 6.363000000000 10.975963274355
3975 1 2.400000000000 75.205674287250 9.999000000000 12.195514749284
3976 1 2.400000000000 77.644777237107 7.272000000000 13.415066224212
3977 2 -1.200000000000 75.408932866405 7.726500000000 12.805290486748
3978 2 -1.200000000000 74.595898549786 8.635500000000 10.366187536891
3979 2 -1.200000000000 77.035001499643 5.908500000000 11.585739011820
3980 2 -1.200000000000 76.221967183024 6.817500000000 9.146636061963
3981 2 -1.200000000000 77.441518657952 9.544500000000 12.805290486748
3982 2 -1.200000000000 76.628484341334 10.453500000000 10.366187536891
3983 2 -1.200000000000 79.067587291190 7.726500000000 11.585739011820
3984 2 -1.200000000000 78.254552974571 8.635500000000 9.146636061963
3985 1 2.400000000000 80.490397345273 0.000000000000 21.951926548711
3986 1 2.400000000000 81.303431661892 31.815000000000 18.293272123926
3987 1 2.400000000000 81.709948820202 2.727000000000 19.512823598854
3988 1 2.400000000000 84.149051770059 0.000000000000 20.732375073783
3989 2 -1.200000000000 81.913207399357 0.454500000000 20.122599336318
3990 2 -1.200000000000 81.100173082738 1.363500000000 17.683496386462
3991 2 -1.200000000000 83.539276032594 31.360500000000 18.903047861390
3992 2 -1.200000000000 82.726241715975 32.269500000000 16.463944911533
3993 2 -1.200000000000 83.945793190904 2.272500000000 20.122599336318
3994 2 -1.200000000000 83.132758874285 3.181500000000 17.683496386462
3995 2 -1.200000000000 85.571861824142 0.454500000000 18.903047861390
3996 2 -1.200000000000 84.758827507523 1.363500000000 16.463944911533
3997 1 2.400000000000 78.864328712036 1.818000000000 17.073720648997
3998 1 2.400000000000 79.677363028654 0.909000000000 13.415066224212
3999 1 2.400000000000 80.083880186964 4.545000000000 14.634617699141
4000 1 2.400000000000 82.522983136821 1.818000000000 15.854169174069
4001 2 -1.200000000000 80.287138766119 2.272500000000 15.244393436605
4002 2 -1.200000000000 79.474104449500 3.181500000000 12.805290486748
4003 2 -1.200000000000 81.913207399357 0.454500000000 14.024841961676
4004 2 -1.200000000000 81.100173082738 1.363500000000 11.585739011820
4005 2 -1.200000000000 82.319724557666 4.090500000000 15.244393436605
4006 2 -1.200000000000 81.506690241047 4.999500000000 12.805290486748
4007 2 -1.200000000000 83.945793190904 2.272500000000 14.024841961676
4008 2 -1.200000000000 83.132758874285 3.181500000000 11.585739011820
4009 1 2.400000000000 77.238260078798 3.636000000000 12.195514749284
4010 1 2.400000000000 78.051294395417 2.727000000000 8.536860324499
4011 1 2.400000000000 78.457811553726 6.363000000000 9.756411799427
4012 1 2.400000000000 80.896914503583 3.636000000000 10.975963274355
4013 2 -1.200000000000 78.661070132881 4.090500000000 10.366187536891
4014 2 -1.200000000000 77.848035816262 4.999500000000 7.927084587035
4015 2 -1.200000000000 80.287138766119 2.272500000000 9.146636061963
4016 2 -1.200000000000 79.474104449500 3.181500000000 6.707533112106
4017 2 -1.200000000000 80.693655924428 5.908500000000 10.366187536891
4018 2 -1.200000000000 79.880621607809 6.817500000000 7.927084587035
4019 2 -1.200000000000 82.319724557666 4.090500000000 9.146636061963
4020 2 -1.200000000000 81.506690241047 4.999500000000 6.707533112106
4021 1 2.400000000000 75.612191445560 5.454000000000 7.317308849570
4022 1 2.400000000000 76.425225762179 4.545000000000 3.658654424785
4023 1 2.400000000000 76.831742920488 8.181000000000 4.878205899714
4024 1 2.400000000000 79.270845870345 5.454000000000 6.097757374642
4025 2 -1.200000000000 77.035001499643 5.908500000000 5.487981637178
4026 2 -1.200000000000 76.221967183024 6.817500000000 3.048878687321
4027 2 -1.200000000000 78.661070132881 4.090500000000 4.268430162249
4028 2 -1.200000000000 77.848035816262 4.999500000000 1.829327212393
4029 2 -1.200000000000 79.067587291190 7.726500000000 5.487981637178
4030 2 -1.200000000000 78.254552974571 8.635500000000 3.048878687321
4031 2 -1.200000000000 80.693655924428 5.908500000000 4.268430162249
4032 2 -1.200000000000 79.880621607809 6.817500000000 1.829327212393
4033 1 2.400000000000 73.986122812322 7.272000000000 2.439102949857
4034 1 2.400000000000 74.799157128941 6.363000000000 23.171478023639
4035 1 2.400000000000 75.205674287250 9.999000000000 0.000000000000
4036 1 2.400000000000 77.644777237107 7.272000000000 1.219551474928
4037 2 -1.200000000000 75.408932866405 7.726500000000 0.609775737464
4038 2 -1.200000000000 74.595898549786 8.635500000000 22.561702286175
4039 2 -1.200000000000 77.035001499643 5.908500000000 23.781253761104
4040 2 -1.200000000000 76.221967183024 6.817500000000 21.342150811247
4041 2 -1.200000000000 77.441518657952 9.544500000000 0.609775737464
4042 2 -1.200000000000 76.628484341334 10.453500000000 22.561702286175
4043 2 -1.200000000000 79.067587291190 7.726500000000 23.781253761104
4044 2 -1.200000000000 78.254552974571 8.635500000000 21.342150811247
4045 1 2.400000000000 80.490397345273 0.000000000000 9.756411799427
4046 1 2.400000000000 81.303431661892 31.815000000000 6.097757374642
4047 1 2.400000000000 81.709948820202 2.727000000000 7.317308849570
4048 1 2.400000000000 84.149051770059 0.000000000000 8.536860324499
4049 2 -1.200000000000 81.913207399357 0.454500000000 7.927084587035
4050 2 -1.200000000000 81.100173082738 1.363500000000 5.487981637178
4051 2 -1.200000000000 83.539276032594 31.360500000000 6.707533112106
4052 2 -1.200000000000 82.726241715975 32.269500000000 4.268430162249
4053 2 -1.200000000000 83.945793190904 2.272500000000 7.927084587035
4054 2 -1.200000000000 83.132758874285 3.181500000000 5.487981637178
4055 2 -1.200000000000 85.571861824142 0.454500000000 6.707533112106
4056 2 -1.200000000000 84.758827507523 1.363500000000 4.268430162249
4057 1 2.400000000000 78.864328712036 1.818000000000 4.878205899714
4058 1 2.400000000000 79.677363028654 0.909000000000 1.219551474928
4059 1 2.400000000000 80.083880186964 4.545000000000 2.439102949857
4060 1 2.400000000000 82.522983136821 1.818000000000 3.658654424785
4061 2 -1.200000000000 80.287138766119 2.272500000000 3.048878687321
4062 2 -1.200000000000 79.474104449500 3.181500000000 0.609775737464
4063 2 -1.200000000000 81.913207399357 0.454500000000 1.829327212393
4064 2 -1.200000000000 81.100173082738 1.363500000000 23.781253761104
4065 2 -1.200000000000 82.319724557666 4.090500000000 3.048878687321
4066 2 -1.200000000000 81.506690241047 4.999500000000 0.609775737464
4067 2 -1.200000000000 83.945793190904 2.272500000000 1.829327212393
4068 2 -1.200000000000 83.132758874285 3.181500000000 23.781253761104
4069 1 2.400000000000 77.238260078798 3.636000000000 0.000000000000
4070 1 2.400000000000 78.051294395417 2.727000000000 20.732375073783
4071 1 2.400000000000 78.457811553726 6.363000000000 21.951926548711
4072 1 2.400000000000 80.896914503583 3.636000000000 23.171478023639
4073 2 -1.200000000000 78.661070132881 4.090500000000 22.561702286175
4074 2 -1.200000000000 77.848035816262 4.999500000000 20.122599336318
4075 2 -1.200000000000 80.287138766119 2.272500000000 21.342150811247
4076 2 -1.200000000000 79.474104449500 3.181500000000 18.903047861390
4077 2 -1.200000000000 80.693655924428 5.908500000000 22.561702286175
4078 2 -1.200000000000 79.880621607809 6.817500000000 20.122599336318
4079 2 -1.200000000000 82.319724557666 4.090500000000 21.342150811247
4080 2 -1.200000000000 81.506690241047 4.999500000000 18.903047861390
4081 1 2.400000000000 76.425225762179 12.726000000000 21.951926548711
4082 1 2.400000000000 77.238260078798 11.817000000000 18.293272123926
4083 1 2.400000000000 77.644777237107 15.453000000000 19.512823598854
4084 1 2.400000000000 80.083880186964 12.726000000000 20.732375073783
4085 2 -1.200000000000 77.848035816262 13.180500000000 20.122599336318
4086 2 -1.200000000000 77.035001499643 14.089500000000 17.683496386462
4087 2 -1.200000000000 79.474104449500 11.362500000000 18.903047861390
4088 2 -1.200000000000 78.661070132881 12.271500000000 16.463944911533
4089 2 -1.200000000000 79.880621607809 14.998500000000 20.122599336318
4090 2 -1.200000000000 79.067587291190 15.907500000000 17.683496386462
4091 2 -1.200000000000 81.506690241047 13.180500000000 18.903047861390
4092 2 -1.200000000000 80.693655924428 14.089500000000 16.463944911533
4093 1 2.400000000000 74.799157128941 14.544000000000 17.073720648997
4094 1 2.400000000000 75.612191445560 13.635000000000 13.415066224212
4095 1 2.400000000000 76.018708603869 17.271000000000 14.634617699141
4096 1 2.400000000000 78.457811553726 14.544000000000 15.854169174069
4097 2 -1.200000000000 76.221967183024 14.998500000000 15.244393436605
4098 2 -1.200000000000 75.408932866405 15.907500000000 12.805290486748
4099 2 -1.200000000000 77.848035816262 13.180500000000 14.024841961676
4100 2 -1.200000000000 77.035001499643 14.089500000000 11.585739011820
4101 2 -1.200000000000 78.254552974571 16.816500000000 15.244393436605
4102 2 -1.200000000000 77.441518657952 17.725500000000 12.805290486748
4103 2 -1.200000000000 79.880621607809 14.998500000000 14.024841961676
4104 2 -1.200000000000 79.067587291190 15.907500000000 11.585739011820
4105 1 2.400000000000 73.173088495703 16.362000000000 12.195514749284
4106 1 2.400000000000 73.986122812322 15.453000000000 8.536860324499
4107 1 2.400000000000 74.392639970631 19.089000000000 9.756411799427
4108 1 2.400000000000 76.831742920488 16.362000000000 10.975963274355
4109 2 -1.200000000000 74.595898549786 16.816500000000 10.366187536891
4110 2 -1.200000000000 73.782864233167 17.725500000000 7.927084587035
4111 2 -1.200000000000 76.221967183024 14.998500000000 9.146636061963
4112 2 -1.200000000000 75.408932866405 15.907500000000 6.707533112106
4113 2 -1.200000000000 76.628484341334 18.634500000000 10.366187536891
4114 2 -1.200000000000 75.815450024715 19.543500000000 7.927084587035
4115 2 -1.200000000000 78.254552974571 16.816500000000 9.146636061963
4116 2 -1.200000000000 77.441518657952 17.725500000000 6.707533112106
4117 1 2.400000000000 79.677363028654 9.090000000000 19.512823598854
4118 1 2.400000000000 80.490397345273 8.181000000000 15.854169174069
4119 1 2.400000000000 80.896914503583 11.817000000000 17.073720648997
4120 1 2.400000000000 83.336017453440 9.090000000000 18.293272123926
4121 2 -1.200000000000 81.100173082738 9.544500000000 17.683496386462
4122 2 -1.200000000000 80.287138766119 10.453500000000 15.244393436605
4123 2 -1.200000000000 82.726241715975 7.726500000000 16.463944911533
4124 2 -1.200000000000 81.913207399357 8.635500000000 14.024841961676
4125 2 -1.200000000000 83.132758874285 11.362500000000 17.683496386462
4126 2 -1.200000000000 82.319724557666 12.271500000000 15.244393436605
4127 2 -1.200000000000 84.758827507523 9.544500000000 16.463944911533
4128 2 -1.200000000000 83.945793190904 10.453500000000 14.024841961676
4129 1 2.400000000000 78.051294395417 10.908000000000 14.634617699141
4130 1 2.400000000000 78.864328712036 9.999000000000 10.975963274355
4131 1 2.400000000000 79.270845870345 13.635000000000 12.195514749284
4132 1 2.400000000000 81.709948820202 10.908000000000 13.415066224212
4133 2 -1.200000000000 79.474104449500 11.362500000000 12.805290486748
4134 2 -1.200000000000 78.661070132881 12.271500000000 10.366187536891
4135 2 -1.200000000000 81.100173082738 9.544500000000 11.585739011820
4136 2 -1.200000000000 80.287138766119 10.453500000000 9.146636061963
4137 2 -1.200000000000 81.506690241047 13.180500000000 12.805290486748
4138 2 -1.200000000000 80.693655924428 14.089500000000 10.366187536891
4139 2 -1.200000000000 83.132758874285 11.362500000000 11.585739011820
4140 2 -1.200000000000 82.319724557666 12.271500000000 9.146636061963
4141 1 2.400000000000 76.425225762179 12.726000000000 9.756411799427
4142 1 2.400000000000 77.238260078798 11.817000000000 6.097757374642
4143 1 2.400000000000 77.644777237107 15.453000000000 7.317308849570
4144 1 2.400000000000 80.083880186964 12.726000000000 8.536860324499
4145 2 -1.200000000000 77.848035816262 13.180500000000 7.927084587035
4146 2 -1.200000000000 77.035001499643 14.089500000000 5.487981637178
4147 2 -1.200000000000 79.474104449500 11.362500000000 6.707533112106
4148 2 -1.200000000000 78.661070132881 12.271500000000 4.268430162249
4149 2 -1.200000000000 79.880621607809 14.998500000000 7.927084587035
4150 2 -1.200000000000 79.067587291190 15.907500000000 5.487981637178
4151 2 -1.200000000000 81.506690241047 13.180500000000 6.707533112106
4152 2 -1.200000000000 80.693655924428 14.089500000000 4.268430162249
4153 1 2.400000000000 74.799157128941 14.544000000000 4.878205899714
4154 1 2.400000000000 75.612191445560 13.635000000000 1.219551474928
4155 1 2.400000000000 76.018708603869 17.271000000000 2.439102949857
4156 1 2.400000000000 78.457811553726 14.544000000000 3.658654424785
4157 2 -1.200000000000 76.221967183024 14.998500000000 3.048878687321
4158 2 -1.200000000000 75.408932866405 15.907500000000 0.609775737464
4159 2 -1.200000000000 77.848035816262 13.180500000000 1.829327212393
4160 2 -1.200000000000 77.035001499643 14.089500000000 23.781253761104
4161 2 -1.200000000000 78.254552974571 16.816500000000 3.048878687321
4162 2 -1.200000000000 77.441518657952 17.725500000000 0.609775737464
4163 2 -1.200000000000 79.880621607809 14.998500000000 1.829327212393
4164 2 -1.200000000000 79.067587291190 15.907500000000 23.781253761104
4165 1 2.400000000000 73.173088495703 16.362000000000 0.000000000000
4166 1 2.400000000000 73.986122812322 15.453000000000 20.732375073783
4167 1 2.400000000000 74.392639970631 19.089000000000 21.951926548711
4168 1 2.400000000000 76.831742920488 16.362000000000 23.171478023639
4169 2 -1.200000000000 74.595898549786 16.816500000000 22.561702286175
4170 2 -1.200000000000 73.782864233167 17.725500000000 20.122599336318
4171 2 -1.200000000000 76.221967183024 14.998500000000 21.342150811247
4172 2 -1.200000000000 75.408932866405 15.907500000000 18.903047861390
4173 2 -1.200000000000 76.628484341334 18.634500000000 22.561702286175
4174 2 -1.200000000000 75.815450024715 19.543500000000 20.122599336318
4175 2 -1.200000000000 78.254552974571 16.816500000000 21.342150811247
4176 2 -1.200000000000 77.441518657952 17.725500000000 18.903047861390
4177 1 2.400000000000 84.555568928368 3.636000000000 21.951926548711
4178 1 2.400000000000 85.368603244987 2.727000000000 18.293272123926
4179 1 2.400000000000 85.775120403296 6.363000000000 19.512823598854
4180 1 2.400000000000 88.214223353153 3.636000000000 20.732375073783
4181 2 -1.200000000000 85.978378982451 4.090500000000 20.122599336318
4182 2 -1.200000000000 85.165344665832 4.999500000000 17.683496386462
4183 2 -1.200000000000 87.604447615689 2.272500000000 18.903047861390
4184 2 -1.200000000000 86.791413299070 3.181500000000 16.463944911533
4185 2 -1.200000000000 88.010964773998 5.908500000000 20.122599336318
4186 2 -1.200000000000 87.197930457380 6.817500000000 17.683496386462
4187 2 -1.200000000000 89.637033407236 4.090500000000 18.903047861390
4188 2 -1.200000000000 88.823999090617 4.999500000000 16.463944911533
4189 1 2.400000000000 82.929500295130 5.454000000000 17.073720648997
4190 1 2.400000000000 83.742534611749 4.545000000000 13.415066224212
4191 1 2.400000000000 84.149051770059 8.181000000000 14.634617699141
4192 1 2.400000000000 86.588154719915 5.454000000000 15.854169174069
4193 2 -1.200000000000 84.352310349213 5.908500000000 15.244393436605
4194 2 -1.200000000000 83.539276032594 6.817500000000 12.805290486748
4195 2 -1.200000000000 85.978378982451 4.090500000000 14.024841961676
4196 2 -1.200000000000 85.165344665832 4.999500000000 11.585739011820
4197 2 -1.200000000000 86.384896140761 7.726500000000 15.244393436605
4198 2 -1.200000000000 85.571861824142 8.635500000000 12.805290486748
4199 2 -1.200000000000 88.010964773998 5.908500000000 14.024841961676
4200 2 -1.200000000000 87.197930457380 6.817500000000 11.585739011820
4201 1 2.400000000000 81.303431661892 7.272000000000 12.195514749284
4202 1 2.400000000000 82.116465978511 6.363000000000 8.536860324499
4203 1 2.400000000000 82.522983136821 9.999000000000 9.756411799427
4204 1 2.400000000000 84.962086086678 7.272000000000 10.975963274355
4205 2 -1.200000000000 82.726241715975 7.726500000000 10.366187536891
4206 2 -1.200000000000 81.913207399357 8.635500000000 7.927084587035
4207 2 -1.200000000000 84.352310349213 5.908500000000 9.146636061963
4208 2 -1.200000000000 83.539276032594 6.817500000000 6.707533112106
4209 2 -1.200000000000 84.758827507523 9.544500000000 10.366187536891
4210 2 -1.200000000000 83.945793190904 10.453500000000 7.927084587035
4211 2 -1.200000000000 86.384896140761 7.726500000000 9.146636061963
4212 2 -1.200000000000 85.571861824142 8.635500000000 6.707533112106
4213 1 2.400000000000 79.677363028654 9.090000000000 7.317308849570
4214 1 2.400000000000 80.490397345273 8.181000000000 3.658654424785
4215 1 2.400000000000 80.896914503583 11.817000000000 4.878205899714
4216 1 2.400000000000 83.336017453440 9.090000000000 6.097757374642
4217 2 -1.200000000000 81.100173082738 9.544500000000 5.487981637178
4218 2 -1.200000000000 80.287138766119 10.453500000000 3.048878687321
4219 2 -1.200000000000 82.726241715975 7.726500000000 4.268430162249
4220 2 -1.200000000000 81.913207399357 8.635500000000 1.829327212393
4221 2 -1.200000000000 83.132758874285 11.362500000000 5.487981637178
4222 2 -1.200000000000 82.319724557666 12.271500000000 3.048878687321
4223 2 -1.200000000000 84.758827507523 9.544500000000 4.268430162249
4224 2 -1.200000000000 83.945793190904 10.453500000000 1.829327212393
4225 1 2.400000000000 78.051294395417 10.908000000000 2.439102949857
4226 1 2.400000000000 78.864328712036 9.999000000000 23.171478023639
4227 1 2.400000000000 79.270845870345 13.635000000000 0.000000000000
4228 1 2.400000000000 81.709948820202 10.908000000000 1.219551474928
4229 2 -1.200000000000 79.474104449500 11.362500000000 0.609775737464
4230 2 -1.200000000000 78.661070132881 12.271500000000 22.561702286175
4231 2 -1.200000000000 81.100173082738 9.544500000000 23.781253761104
4232 2 -1.200000000000 80.287138766119 10.453500000000 21.342150811247
4233 2 -1.200000000000 81.506690241047 13.180500000000 0.609775737464
4234 2 -1.200000000000 80.693655924428 14.089500000000 22.561702286175
4235 2 -1.200000000000 83.132758874285 11.362500000000 23.781253761104
4236 2 -1.200000000000 82.319724557666 12.271500000000 21.342150811247
4237 1 2.400000000000 87.807706194844 0.000000000000 19.512823598854
4238 1 2.400000000000 88.620740511463 31.815000000000 15.854169174069
4239 1 2.400000000000 89.027257669772 2.727000000000 17.073720648997
4240 1 2.400000000000 91.466360619629 0.000000000000 18.293272123926
4241 2 -1.200000000000 89.230516248927 0.454500000000 17.683496386462
4242 2 -1.200000000000 88.417481932308 1.363500000000 15.244393436605
4243 2 -1.200000000000 90.856584882165 31.360500000000 16.463944911533
4244 2 -1.200000000000 90.043550565546 32.269500000000 14.024841961676
4245 2 -1.200000000000 91.263102040474 2.272500000000 17.683496386462
4246 2 -1.200000000000 90.450067723855 3.181500000000 15.244393436605
4247 2 -1.200000000000 92.889170673712 0.454500000000 16.463944911533
4248 2 -1.200000000000 92.076136357093 1.363500000000 14.024841961676
4249 1 2.400000000000 86.181637561606 1.818000000000 14.634617699141
4250 1 2.400000000000 86.994671878225 0.909000000000 10.975963274355
4251 1 2.400000000000 87.401189036534 4.545000000000 12.195514749284
4252 1 2.400000000000 89.840291986391 1.818000000000 13.415066224212
4253 2 -1.200000000000 87.604447615689 2.272500000000 12.805290486748
4254 2 -1.200000000000 86.791413299070 3.181500000000 10.366187536891
4255 2 -1.200000000000 89.230516248927 0.454500000000 11.585739011820
4256 2 -1.200000000000 88.417481932308 1.363500000000 9.146636061963
4257 2 -1.200000000000 89.637033407236 4.090500000000 12.805290486748
4258 2 -1.200000000000 88.823999090617 4.999500000000 10.366187536891
4259 2 -1.200000000000 91.263102040474 2.272500000000 11.585739011820
4260 2 -1.200000000000 90.450067723855 3.181500000000 9.146636061963
4261 1 2.400000000000 84.555568928368 3.636000000000 9.756411799427
4262 1 2.400000000000 85.368603244987 2.727000000000 6.097757374642
4263 1 2.400000000000 85.775120403296 6.363000000000 7.317308849570
4264 1 2.400000000000 88.214223353153 3.636000000000 8.536860324499
4265 2 -1.200000000000 85.978378982451 4.090500000000 7.927084587035
4266 2 -1.200000000000 85.165344665832 4.999500000000 5.487981637178
4267 2 -1.200000000000 87.604447615689 2.272500000000 6.707533112106
4268 2 -1.200000000000 86.791413299070 3.181500000000 4.268430162249
4269 2 -1.200000000000 88.010964773998 5.908500000000 7.927084587035
4270 2 -1.200000000000 87.197930457380 6.817500000000 5.487981637178
4271 2 -1.200000000000 89.637033407236 4.090500000000 6.707533112106
4272 2 -1.200000000000 88.823999090617 4.999500000000 4.268430162249
4273 1 2.400000000000 82.929500295130 5.454000000000 4.878205899714
4274 1 2.400000000000 83.742534611749 4.545000000000 1.219551474928
4275 1 2.400000000000 84.149051770059 8.181000000000 2.439102949857
4276 1 2.400000000000 86.588154719915 5.454000000000 3.658654424785
4277 2 -1.200000000000 84.352310349213 5.908500000000 3.048878687321
4278 2 -1.200000000000 83.539276032594 6.817500000000 0.609775737464
4279 2 -1.200000000000 85.978378982451 4.090500000000 1.829327212393
4280 2 -1.200000000000 85.165344665832 4.999500000000 23.781253761104
4281 2 -1.200000000000 86.384896140761 7.726500000000 3.048878687321
4282 2 -1.200000000000 85.571861824142 8.635500000000 0.609775737464
4283 2 -1.200000000000 88.010964773998 5.908500000000 1.829327212393
4284 2 -1.200000000000 87.197930457380 6.817500000000 23.781253761104
4285 1 2.400000000000 81.303431661892 7.272000000000 0.000000000000
4286 1 2.400000000000 82.116465978511 6.363000000000 20.732375073783
4287 1 2.400000000000 82.522983136821 9.999000000000 21.951926548711
4288 1 2.400000000000 84.962086086678 7.272000000000 23.171478023639
4289 2 -1.200000000000 82.726241715975 7.726500000000 22.561702286175
4290 2 -1.200000000000 81.913207399357 8.635500000000 20.122599336318
4291 2 -1.200000000000 84.352310349213 5.908500000000 21.342150811247
4292 2 -1.200000000000 83.539276032594 6.817500000000 18.903047861390
4293 2 -1.200000000000 84.758827507523 9.544500000000 22.561702286175
4294 2 -1.200000000000 83.945793190904 10.453500000000 20.122599336318
4295 2 -1.200000000000 86.384896140761 7.726500000000 21.342150811247
4296 2 -1.200000000000 85.571861824142 8.635500000000 18.903047861390
4297 1 2.400000000000 87.807706194844 0.000000000000 7.317308849570
4298 1 2.400000000000 88.620740511463 31.815000000000 3.658654424785
4299 1 2.400000000000 89.027257669772 2.727000000000 4.878205899714
4300 1 2.400000000000 91.466360619629 0.000000000000 6.097757374642
4301 2 -1.200000000000 89.230516248927 0.454500000000 5.487981637178
4302 2 -1.200000000000 88.417481932308 1.363500000000 3.048878687321
4303 2 -1.200000000000 90.856584882165 31.360500000000 4.268430162249
4304 2 -1.200000000000 90.043550565546 32.269500000000 1.829327212393
4305 2 -1.200000000000 91.263102040474 2.272500000000 5.487981637178
4306 2 -1.200000000000 90.450067723855 3.181500000000 3.048878687321
4307 2 -1.200000000000 92.889170673712 0.454500000000 4.268430162249
4308 2 -1.200000000000 92.076136357093 1.363500000000 1.829327212393
4309 1 2.400000000000 86.181637561606 1.818000000000 2.439102949857
4310 1 2.400000000000 86.994671878225 0.909000000000 23.171478023639
4311 1 2.400000000000 87.401189036534 4.545000000000 0.000000000000
4312 1 2.400000000000 89.840291986391 1.818000000000 1.219551474928
4313 2 -1.200000000000 87.604447615689 2.272500000000 0.609775737464
4314 2 -1.200000000000 86.791413299070 3.181500000000 22.561702286175
4315 2 -1.200000000000 89.230516248927 0.454500000000 23.781253761104
4316 2 -1.200000000000 88.417481932308 1.363500000000 21.342150811247
4317 2 -1.200000000000 89.637033407236 4.090500000000 0.609775737464
4318 2 -1.200000000000 88.823999090617 4.999500000000 22.561702286175
4319 2 -1.200000000000 91.263102040474 2.272500000000 23.781253761104
4320 2 -1.200000000000 90.450067723855 3.181500000000 21.342150811247
4321 1 2.400000000000 75.612191445560 21.816000000000 19.512823598854
4322 1 2.400000000000 76.425225762179 20.907000000000 15.854169174069
4323 1 2.400000000000 76.831742920488 24.543000000000 17.073720648997
4324 1 2.400000000000 79.270845870345 21.816000000000 18.293272123926
4325 2 -1.200000000000 77.035001499643 22.270500000000 17.683496386462
4326 2 -1.200000000000 76.221967183024 23.179500000000 15.244393436605
4327 2 -1.200000000000 78.661070132881 20.452500000000 16.463944911533
4328 2 -1.200000000000 77.848035816262 21.361500000000 14.024841961676
4329 2 -1.200000000000 79.067587291190 24.088500000000 17.683496386462
4330 2 -1.200000000000 78.254552974571 24.997500000000 15.244393436605
4331 2 -1.200000000000 80.693655924428 22.270500000000 16.463944911533
4332 2 -1.200000000000 79.880621607809 23.179500000000 14.024841961676
4333 1 2.400000000000 73.986122812322 23.634000000000 14.634617699141
4334 1 2.400000000000 74.799157128941 22.725000000000 10.975963274355
4335 1 2.400000000000 75.205674287250 26.361000000000 12.195514749284
4336 1 2.400000000000 77.644777237107 23.634000000000 13.415066224212
4337 2 -1.200000000000 75.408932866405 24.088500000000 12.805290486748
4338 2 -1.200000000000 74.595898549786 24.997500000000 10.366187536891
4339 2 -1.200000000000 77.035001499643 22.270500000000 11.585739011820
4340 2 -1.200000000000 76.221967183024 23.179500000000 9.146636061963
4341 2 -1.200000000000 77.441518657952 25.906500000000 12.805290486748
4342 2 -1.200000000000 76.628484341334 26.815500000000 10.366187536891
4343 2 -1.200000000000 79.067587291190 24.088500000000 11.585739011820
4344 2 -1.200000000000 78.254552974571 24.997500000000 9.146636061963
4345 1 2.400000000000 80.490397345273 16.362000000000 21.951926548711
4346 1 2.400000000000 81.303431661892 15.453000000000 18.293272123926
4347 1 2.400000000000 81.709948820202 19.089000000000 19.512823598854
4348 1 2.400000000000 84.149051770059 16.362000000000 20.732375073783
4349 2 -1.200000000000 81.913207399357 16.816500000000 20.122599336318
4350 2 -1.200000000000 81.100173082738 17.725500000000 17.683496386462
4351 2 -1.200000000000 83.539276032594 14.998500000000 18.903047861390
4352 2 -1.200000000000 82.726241715975 15.907500000000 16.463944911533
4353 2 -1.200000000000 83.945793190904 18.634500000000 20.122599336318
4354 2 -1.200000000000 83.132758874285 19.543500000000 17.683496386462
4355 2 -1.200000000000 85.571861824142 16.816500000000 18.903047861390
4356 2 -1.200000000000 84.758827507523 17.725500000000 16.463944911533
4357 1 2.400000000000 78.864328712036 18.180000000000 17.073720648997
4358 1 2.400000000000 79.677363028654 17.271000000000 13.415066224212
4359 1 2.400000000000 80.083880186964 20.907000000000 14.634617699141
4360 1 2.400000000000 82.522983136821 18.180000000000 15.854169174069
4361 2 -1.200000000000 80.287138766119 18.634500000000 15.244393436605
4362 2 -1.200000000000 79.474104449500 19.543500000000 12.805290486748
4363 2 -1.200000000000 81.913207399357 16.816500000000 14.024841961676
4364 2 -1.200000000000 81.100173082738 17.725500000000 11.585739011820
4365 2 -1.200000000000 82.319724557666 20.452500000000 15.244393436605
4366 2 -1.200000000000 81.506690241047 21.361500000000 12.805290486748
4367 2 -1.200000000000 83.945793190904 18.634500000000 14.024841961676
4368 2 -1.200000000000 83.132758874285 19.543500000000 11.585739011820
4369 1 2.400000000000 77.238260078798 19.998000000000 12.195514749284
4370 1 2.400000000000 78.051294395417 19.089000000000 8.536860324499
4371 1 2.400000000000 78.457811553726 22.725000000000 9.756411799427
4372 1 2.400000000000 80.896914503583 19.998000000000 10.975963274355
4373 2 -1.200000000000 78.661070132881 20.452500000000 10.366187536891
4374 2 -1.200000000000 77.848035816262 21.361500000000 7.927084587035
4375 2 -1.200000000000 80.287138766119 18.634500000000 9.146636061963
4376 2 -1.200000000000 79.474104449500 19.543500000000 6.707533112106
4377 2 -1.200000000000 80.693655924428 22.270500000000 10.366187536891
4378 2 -1.200000000000 79.880621607809 23.179500000000 7.927084587035
4379 2 -1.200000000000 82.319724557666 20.452500000000 9.146636061963
4380 2 -1.200000000000 81.506690241047 21.361500000000 6.707533112106
4381 1 2.400000000000 75.612191445560 21.816000000000 7.317308849570
4382 1 2.400000000000 76.425225762179 20.907000000000 3.658654424785
4383 1 2.400000000000 76.831742920488 24.543000000000 4.878205899714
4384 1 2.400000000000 79.270845870345 21.816000000000 6.097757374642
4385 2 -1.200000000000 77.035001499643 22.270500000000 5.487981637178
4386 2 -1.200000000000 76.221967183024 23.179500000000 3.048878687321
4387 2 -1.200000000000 78.661070132881 20.452500000000 4.268430162249
4388 2 -1.200000000000 77.848035816262 21.361500000000 1.829327212393
4389 2 -1.200000000000 79.067587291190 24.088500000000 5.487981637178
4390 2 -1.200000000000 78.254552974571 24.997500000000 3.048878687321
4391 2 -1.200000000000 80.693655924428 22.270500000000 4.268430162249
4392 2 -1.200000000000 79.880621607809 23.179500000000 1.829327212393
4393 1 2.400000000000 73.986122812322 23.634000000000 2.439102949857
4394 1 2.400000000000 74.799157128941 22.725000000000 23.171478023639
4395 1 2.400000000000 75.205674287250 26.361000000000 0.000000000000
4396 1 2.400000000000 77.644777237107 23.634000000000 1.219551474928
4397 2 -1.200000000000 75.408932866405 24.088500000000 0.609775737464
4398 2 -1.200000000000 74.595898549786 24.997500000000 22.561702286175
4399 2 -1.200000000000 77.035001499643 22.270500000000 23.781253761104
4400 2 -1.200000000000 76.221967183024 23.179500000000 21.342150811247
4401 2 -1.200000000000 77.441518657952 25.906500000000 0.609775737464
4402 2 -1.200000000000 76.628484341334 26.815500000000 22.561702286175
4403 2 -1.200000000000 79.067587291190 24.088500000000 23.781253761104
4404 2 -1.200000000000 78.254552974571 24.997500000000 21.342150811247
4405 1 2.400000000000 83.742534611749 12.726000000000 19.512823598854
4406 1 2.400000000000 84.555568928368 11.817000000000 15.854169174069
4407 1 2.400000000000 84.962086086678 15.453000000000 17.073720648997
4408 1 2.400000000000 87.401189036534 12.726000000000 18.293272123926
4409 2 -1.200000000000 85.165344665832 13.180500000000 17.683496386462
4410 2 -1.200000000000 84.352310349213 14.089500000000 15.244393436605
4411 2 -1.200000000000 86.791413299070 11.362500000000 16.463944911533
4412 2 -1.200000000000 85.978378982451 12.271500000000 14.024841961676
4413 2 -1.200000000000 87.197930457380 14.998500000000 17.683496386462
4414 2 -1.200000000000 86.384896140761 15.907500000000 15.244393436605
4415 2 -1.200000000000 88.823999090617 13.180500000000 16.463944911533
4416 2 -1.200000000000 88.010964773998 14.089500000000 14.024841961676
4417 1 2.400000000000 82.116465978511 14.544000000000 14.634617699141
4418 1 2.400000000000 82.929500295130 13.635000000000 10.975963274355
4419 1 2.400000000000 83.336017453440 17.271000000000 12.195514749284
4420 1 2.400000000000 85.775120403296 14.544000000000 13.415066224212
4421 2 -1.200000000000 83.539276032594 14.998500000000 12.805290486748
4422 2 -1.200000000000 82.726241715975 15.907500000000 10.366187536891
4423 2 -1.200000000000 85.165344665832 13.180500000000 11.585739011820
4424 2 -1.200000000000 84.352310349213 14.089500000000 9.146636061963
4425 2 -1.200000000000 85.571861824142 16.816500000000 12.805290486748
4426 2 -1.200000000000 84.758827507523 17.725500000000 10.366187536891
4427 2 -1.200000000000 87.197930457380 14.998500000000 11.585739011820
4428 2 -1.200000000000 86.384896140761 15.907500000000 9.146636061963
4429 1 2.400000000000 80.490397345273 16.362000000000 9.756411799427
4430 1 2.400000000000 81.303431661892 15.453000000000 6.097757374642
4431 1 2.400000000000 81.709948820202 19.089000000000 7.317308849570
4432 1 2.400000000000 84.149051770059 16.362000000000 8.536860324499
4433 2 -1.200000000000 81.913207399357 16.816500000000 7.927084587035
4434 2 -1.200000000000 81.100173082738 17.725500000000 5.487981637178
4435 2 -1.200000000000 83.539276032594 14.998500000000 6.707533112106
4436 2 -1.200000000000 82.726241715975 15.907500000000 4.268430162249
4437 2 -1.200000000000 83.945793190904 18.634500000000 7.927084587035
4438 2 -1.200000000000 83.132758874285 19.543500000000 5.487981637178
4439 2 -1.200000000000 85.571861824142 16.816500000000 6.707533112106
4440 2 -1.200000000000 84.758827507523 17.725500000000 4.268430162249
4441 1 2.400000000000 78.864328712036 18.180000000000 4.878205899714
4442 1 2.400000000000 79.677363028654 17.271000000000 1.219551474928
4443 1 2.400000000000 80.083880186964 20.907000000000 2.439102949857
4444 1 2.400000000000 82.522983136821 18.180000000000 3.658654424785
4445 2 -1.200000000000 80.287138766119 18.634500000000 3.048878687321
4446 2 -1.200000000000 79.474104449500 19.543500000000 0.609775737464
4447 2 -1.200000000000 81.913207399357 16.816500000000 1.829327212393
4448 2 -1.200000000000 81.100173082738 17.725500000000 23.781253761104
4449 2 -1.200000000000 82.319724557666 20.452500000000 3.048878687321
4450 2 -1.200000000000 81.506690241047 21.361500000000 0.609775737464
4451 2 -1.200000000000 83.945793190904 18.634500000000 1.829327212393
4452 2 -1.200000000000 83.132758874285 19.543500000000 23.781253761104
4453 1 2.400000000000 77.238260078798 19.998000000000 0.000000000000
4454 1 2.400000000000 78.051294395417 19.089000000000 20.732375073783
4455 1 2.400000000000 78.457811553726 22.725000000000 21.951926548711
4456 1 2.400000000000 80.896914503583 19.998000000000 23.171478023639
4457 2 -1.200000000000 78.661070132881 20.452500000000 22.561702286175
4458 2 -1.200000000000 77.848035816262 21.361500000000 20.122599336318
4459 2 -1.200000000000 80.287138766119 18.634500000000 21.342150811247
4460 2 -1.200000000000 79.474104449500 19.543500000000 18.903047861390
4461 2 -1.200000000000 80.693655924428 22.270500000000 22.561702286175
4462 2 -1.200000000000 79.880621607809 23.179500000000 20.122599336318
4463 2 -1.200000000000 82.319724557666 20.452500000000 21.342150811247
4464 2 -1.200000000000 81.506690241047 21.361500000000 18.903047861390
4465 1 2.400000000000 88.620740511463 7.272000000000 21.951926548711
4466 1 2.400000000000 89.433774828082 6.363000000000 18.293272123926
4467 1 2.400000000000 89.840291986391 9.999000000000 19.512823598854
4468 1 2.400000000000 92.279394936248 7.272000000000 20.732375073783
4469 2 -1.200000000000 90.043550565546 7.726500000000 20.122599336318
4470 2 -1.200000000000 89.230516248927 8.635500000000 17.683496386462
4471 2 -1.200000000000 91.669619198784 5.908500000000 18.903047861390
4472 2 -1.200000000000 90.856584882165 6.817500000000 16.463944911533
4473 2 -1.200000000000 92.076136357093 9.544500000000 20.122599336318
4474 2 -1.200000000000 91.263102040474 10.453500000000 17.683496386462
4475 2 -1.200000000000 93.702204990331 7.726500000000 18.903047861390
4476 2 -1.200000000000 92.889170673712 8.635500000000 16.463944911533
4477 1 2.400000000000 86.994671878225 9.090000000000 17.073720648997
4478 1 2.400000000000 87.807706194844 8.181000000000 13.415066224212
4479 1 2.400000000000 88.214223353153 11.817000000000 14.634617699141
4480 1 2.400000000000 90.653326303010 9.090000000000 15.854169174069
4481 2 -1.200000000000 88.417481932308 9.544500000000 15.244393436605
4482 2 -1.200000000000 87.604447615689 10.453500000000 12.805290486748
4483 2 -1.200000000000 90.043550565546 7.726500000000 14.024841961676
4484 2 -1.200000000000 89.230516248927 8.635500000000 11.585739011820
4485 2 -1.200000000000 90.450067723855 11.362500000000 15.244393436605
4486 2 -1.200000000000 89.637033407236 12.271500000000 12.805290486748
4487 2 -1.200000000000 92.076136357093 9.544500000000 14.024841961676
4488 2 -1.200000000000 91.263102040474 10.453500000000 11.585739011820
4489 1 2.400000000000 85.368603244987 10.908000000000 12.195514749284
4490 1 2.400000000000 86.181637561606 9.999000000000 8.536860324499
4491 1 2.400000000000 86.588154719915 13.635000000000 9.756411799427
4492 1 2.400000000000 89.027257669772 10.908000000000 10.975963274355
4493 2 -1.200000000000 86.791413299070 11.362500000000 10.366187536891
4494 2 -1.200000000000 85.978378982451 12.271500000000 7.927084587035
4495 2 -1.200000000000 88.417481932308 9.544500000000 9.146636061963
4496 2 -1.200000000000 87.604447615689 10.453500000000 6.707533112106
4497 2 -1.200000000000 88.823999090617 13.180500000000 10.366187536891
4498 2 -1.200000000000 88.010964773998 14.089500000000 7.927084587035
4499 2 -1.200000000000 90.450067723855 11.362500000000 9.146636061963
4500 2 -1.200000000000 89.637033407236 12.271500000000 6.707533112106
4501 1 2.400000000000 83.742534611749 12.726000000000 7.317308849570
4502 1 2.400000000000 84.555568928368 11.817000000000 3.658654424785
4503 1 2.400000000000 84.962086086678 15.453000000000 4.878205899714
4504 1 2.400000000000 87.401189036534 12.726000000000 6.097757374642
4505 2 -1.200000000000 85.165344665832 13.180500000000 5.487981637178
4506 2 -1.200000000000 84.352310349213 14.089500000000 3.048878687321
4507 2 -1.200000000000 86.791413299070 11.362500000000 4.268430162249
4508 2 -1.200000000000 85.978378982451 12.271500000000 1.829327212393
4509 2 -1.200000000000 87.197930457380 14.998500000000 5.487981637178
4510 2 -1.200000000000 86.384896140761 15.907500000000 3.048878687321
4511 2 -1.200000000000 88.823999090617 13.180500000000 4.268430162249
4512 2 -1.200000000000 88.010964773998 14.089500000000 1.829327212393
4513 1 2.400000000000 82.116465978511 14.544000000000 2.439102949857
4514 1 2.400000000000 82.929500295130 13.635000000000 23.171478023639
4515 1 2.400000000000 83.336017453440 17.271000000000 0.000000000000
4516 1 2.400000000000 85.775120403296 14.544000000000 1.219551474928
4517 2 -1.200000000000 83.539276032594 14.998500000000 0.609775737464
4518 2 -1.200000000000 82.726241715975 15.907500000000 22.561702286175
4519 2 -1.200000000000 85.165344665832 13.180500000000 23.781253761104
4520 2 -1.200000000000 84.352310349213 14.089500000000 21.342150811247
4521 2 -1.200000000000 85.571861824142 16.816500000000 0.609775737464
4522 2 -1.200000000000 84.758827507523 17.725500000000 22.561702286175
4523 2 -1.200000000000 87.197930457380 14.998500000000 23.781253761104
4524 2 -1.200000000000 86.384896140761 15.907500000000 21.342150811247
4525 1 2.400000000000 91.872877777938 3.636000000000 19.512823598854
4526 1 2.400000000000 92.685912094557 2.727000000000 15.854169174069
4527 1 2.400000000000 93.092429252867 6.363000000000 17.073720648997
4528 1 2.400000000000 95.531532202724 3.636000000000 18.293272123926
4529 2 -1.200000000000 93.295687832021 4.090500000000 17.683496386462
4530 2 -1.200000000000 92.482653515403 4.999500000000 15.244393436605
4531 2 -1.200000000000 94.921756465259 2.272500000000 16.463944911533
4532 2 -1.200000000000 94.108722148640 3.181500000000 14.024841961676
4533 2 -1.200000000000 95.328273623569 5.908500000000 17.683496386462
4534 2 -1.200000000000 94.515239306950 6.817500000000 15.244393436605
4535 2 -1.200000000000 96.954342256807 4.090500000000 16.463944911533
4536 2 -1.200000000000 96.141307940188 4.999500000000 14.024841961676
4537 1 2.400000000000 90.246809144701 5.454000000000 14.634617699141
4538 1 2.400000000000 91.059843461319 4.545000000000 10.975963274355
4539 1 2.400000000000 91.466360619629 8.181000000000 12.195514749284
4540 1 2.400000000000 93.905463569486 5.454000000000 13.415066224212
4541 2 -1.200000000000 91.669619198784 5.908500000000 12.805290486748
4542 2 -1.200000000000 90.856584882165 6.817500000000 10.366187536891
4543 2 -1.200000000000 93.295687832021 4.090500000000 11.585739011820
4544 2 -1.200000000000 92.482653515403 4.999500000000 9.146636061963
4545 2 -1.200000000000 93.702204990331 7.726500000000 12.805290486748
4546 2 -1.200000000000 92.889170673712 8.635500000000 10.366187536891
4547 2 -1.200000000000 95.328273623569 5.908500000000 11.585739011820
4548 2 -1.200000000000 94.515239306950 6.817500000000 9.146636061963
4549 1 2.400000000000 88.620740511463 7.272000000000 9.756411799427
4550 1 2.400000000000 89.433774828082 6.363000000000 6.097757374642
4551 1 2.400000000000 89.840291986391 9.999000000000 7.317308849570
4552 1 2.400000000000 92.279394936248 7.272000000000 8.536860324499
4553 2 -1.200000000000 90.043550565546 7.726500000000 7.927084587035
4554 2 -1.200000000000 89.230516248927 8.635500000000 5.487981637178
4555 2 -1.200000000000 91.669619198784 5.908500000000 6.707533112106
4556 2 -1.200000000000 90.856584882165 6.817500000000 4.268430162249
4557 2 -1.200000000000 92.076136357093 9.544500000000 7.927084587035
4558 2 -1.200000000000 91.263102040474 10.453500000000 5.487981637178
4559 2 -1.200000000000 93.702204990331 7.726500000000 6.707533112106
4560 2 -1.200000000000 92.889170673712 8.635500000000 4.268430162249
4561 1 2.400000000000 86.994671878225 9.090000000000 4.878205899714
4562 1 2.400000000000 87.807706194844 8.181000000000 1.219551474928
4563 1 2.400000000000 88.214223353153 11.817000000000 2.439102949857
4564 1 2.400000000000 90.653326303010 9.090000000000 3.658654424785
4565 2 -1.200000000000 88.417481932308 9.544500000000 3.048878687321
4566 2 -1.200000000000 87.604447615689 10.453500000000 0.609775737464
4567 2 -1.200000000000 90.043550565546 7.726500000000 1.829327212393
4568 2 -1.200000000000 89.230516248927 8.635500000000 23.781253761104
4569 2 -1.200000000000 90.450067723855 11.362500000000 3.048878687321
4570 2 -1.200000000000 89.637033407236 12.271500000000 0.609775737464
4571 2 -1.200000000000 92.076136357093 9.544500000000 1.829327212393
4572 2 -1.200000000000 91.263102040474 10.453500000000 23.781253761104
4573 1 2.400000000000 85.368603244987 10.908000000000 0.000000000000
4574 1 2.400000000000 86.181637561606 9.999000000000 20.732375073783
4575 1 2.400000000000 86.588154719915 13.635000000000 21.951926548711
4576 1 2.400000000000 89.027257669772 10.908000000000 23.171478023639
4577 2 -1.200000000000 86.791413299070 11.362500000000 22.561702286175
4578 2 -1.200000000000 85.978378982451 12.271500000000 20.122599336318
4579 2 -1.200000000000 88.417481932308 9.544500000000 21.342150811247
4580 2 -1.200000000000 87.604447615689 10.453500000000 18.903047861390
4581 2 -1.200000000000 88.823999090617 13.180500000000 22.561702286175
4582 2 -1.200000000000 88.010964773998 14.089500000000 20.122599336318
4583 2 -1.200000000000 90.450067723855 11.362500000000 21.342150811247
4584 2 -1.200000000000 89.637033407236 12.271500000000 18.903047861390
4585 1 2.400000000000 95.125015044414 0.000000000000 17.073720648997
4586 1 2.400000000000 95.938049361033 31.815000000000 13.415066224212
4587 1 2.400000000000 96.344566519342 2.727000000000 14.634617699141
4588 1 2.400000000000 98.783669469199 0.000000000000 15.854169174069
4589 2 -1.200000000000 96.547825098497 0.454500000000 15.244393436605
4590 2 -1.200000000000 95.734790781878 1.363500000000 12.805290486748
4591 2 -1.200000000000 98.173893731735 31.360500000000 14.024841961676
4592 2 -1.200000000000 97.360859415116 32.269500000000 11.585739011820
4593 2 -1.200000000000 98.580410890044 2.272500000000 15.244393436605
4594 2 -1.200000000000 97.767376573426 3.181500000000 12.805290486748
4595 2 -1.200000000000 100.206479523282 0.454500000000 14.024841961676
4596 2 -1.200000000000 99.393445206663 1.363500000000 11.585739011820
4597 1 2.400000000000 93.498946411176 1.818000000000 12.195514749284
4598 1 2.400000000000 94.311980727795 0.909000000000 8.536860324499
4599 1 2.400000000000 94.718497886105 4.545000000000 9.756411799427
4600 1 2.400000000000 97.157600835961 1.818000000000 10.975963274355
4601 2 -1.200000000000 94.921756465259 2.272500000000 10.366187536891
4602 2 -1.200000000000 94.108722148640 3.181500000000 7.927084587035
4603 2 -1.200000000000 96.547825098497 0.454500000000 9.146636061963
4604 2 -1.200000000000 95.734790781878 1.363500000000 6.707533112106
4605 2 -1.200000000000 96.954342256807 4.090500000000 10.366187536891
4606 2 -1.200000000000 96.141307940188 4.999500000000 7.927084587035
4607 2 -1.200000000000 98.580410890044 2.272500000000 9.146636061963
4608 2 -1.200000000000 97.767376573426 3.181500000000 6.707533112106
4609 1 2.400000000000 91.872877777938 3.636000000000 7.317308849570
4610 1 2.400000000000 92.685912094557 2.727000000000 3.658654424785
4611 1 2.400000000000 93.092429252867 6.363000000000 4.878205899714
4612 1 2.400000000000 95.531532202724 3.636000000000 6.097757374642
4613 2 -1.200000000000 93.295687832021 4.090500000000 5.487981637178
4614 2 -1.200000000000 92.482653515403 4.999500000000 3.048878687321
4615 2 -1.200000000000 94.921756465259 2.272500000000 4.268430162249
4616 2 -1.200000000000 94.108722148640 3.181500000000 1.829327212393
4617 2 -1.200000000000 95.328273623569 5.908500000000 5.487981637178
4618 2 -1.200000000000 94.515239306950 6.817500000000 3.048878687321
4619 2 -1.200000000000 96.954342256807 4.090500000000 4.268430162249
4620 2 -1.200000000000 96.141307940188 4.999500000000 1.829327212393
4621 1 2.400000000000 90.246809144701 5.454000000000 2.439102949857
4622 1 2.400000000000 91.059843461319 4.545000000000 23.171478023639
4623 1 2.400000000000 91.466360619629 8.181000000000 0.000000000000
4624 1 2.400000000000 93.905463569486 5.454000000000 1.219551474928
4625 2 -1.200000000000 91.669619198784 5.908500000000 0.609775737464
4626 2 -1.200000000000 90.856584882165 6.817500000000 22.561702286175
4627 2 -1.200000000000 93.295687832021 4.090500000000 23.781253761104
4628 2 -1.200000000000 92.482653515403 4.999500000000 21.342150811247
4629 2 -1.200000000000 93.702204990331 7.726500000000 0.609775737464
4630 2 -1.200000000000 92.889170673712 8.635500000000 22.561702286175
4631 2 -1.200000000000 95.328273623569 5.908500000000 23.781253761104
4632 2 -1.200000000000 94.515239306950 6.817500000000 21.342150811247
4633 1 2.400000000000 95.125015044414 0.000000000000 4.878205899714
4634 1 2.400000000000 95.938049361033 31.815000000000 1.219551474928
4635 1 2.400000000000 96.344566519342 2.727000000000 2.439102949857
4636 1 2.400000000000 98.783669469199 0.000000000000 3.658654424785
4637 2 -1.200000000000 96.547825098497 0.454500000000 3.048878687321
4638 2 -1.200000000000 95.734790781878 1.363500000000 0.609775737464
4639 2 -1.200000000000 98.173893731735 31.360500000000 1.829327212393
4640 2 -1.200000000000 97.360859415116 32.269500000000 23.781253761104
4641 2 -1.200000000000 98.580410890044 2.272500000000 3.048878687321
4642 2 -1.200000000000 97.767376573426 3.181500000000 0.609775737464
4643 2 -1.200000000000 100.206479523282 0.454500000000 1.829327212393
4644 2 -1.200000000000 99.393445206663 1.363500000000 23.781253761104
4645 1 2.400000000000 93.498946411176 1.818000000000 0.000000000000
4646 1 2.400000000000 94.311980727795 0.909000000000 20.732375073783
4647 1 2.400000000000 94.718497886105 4.545000000000 21.951926548711
4648 1 2.400000000000 97.157600835961 1.818000000000 23.171478023639
4649 2 -1.200000000000 94.921756465259 2.272500000000 22.561702286175
4650 2 -1.200000000000 94.108722148640 3.181500000000 20.122599336318
4651 2 -1.200000000000 96.547825098497 0.454500000000 21.342150811247
4652 2 -1.200000000000 95.734790781878 1.363500000000 18.903047861390
4653 2 -1.200000000000 96.954342256807 4.090500000000 22.561702286175
4654 2 -1.200000000000 96.141307940188 4.999500000000 20.122599336318
4655 2 -1.200000000000 98.580410890044 2.272500000000 21.342150811247
4656 2 -1.200000000000 97.767376573426 3.181500000000 18.903047861390
4657 1 2.400000000000 76.425225762179 29.088000000000 21.951926548711
4658 1 2.400000000000 77.238260078798 28.179000000000 18.293272123926
4659 1 2.400000000000 77.644777237107 31.815000000000 19.512823598854
4660 1 2.400000000000 80.083880186964 29.088000000000 20.732375073783
4661 2 -1.200000000000 77.848035816262 29.542500000000 20.122599336318
4662 2 -1.200000000000 77.035001499643 30.451500000000 17.683496386462
4663 2 -1.200000000000 79.474104449500 27.724500000000 18.903047861390
4664 2 -1.200000000000 78.661070132881 28.633500000000 16.463944911533
4665 2 -1.200000000000 79.880621607809 31.360500000000 20.122599336318
4666 2 -1.200000000000 79.067587291190 32.269500000000 17.683496386462
4667 2 -1.200000000000 81.506690241047 29.542500000000 18.903047861390
4668 2 -1.200000000000 80.693655924428 30.451500000000 16.463944911533
4669 1 2.400000000000 74.799157128941 30.906000000000 17.073720648997
4670 1 2.400000000000 75.612191445560 29.997000000000 13.415066224212
4671 1 2.400000000000 76.018708603869 0.909000000000 14.634617699141
4672 1 2.400000000000 78.457811553726 30.906000000000 15.854169174069
4673 2 -1.200000000000 76.221967183024 31.360500000000 15.244393436605
4674 2 -1.200000000000 75.408932866405 32.269500000000 12.805290486748
4675 2 -1.200000000000 77.848035816262 29.542500000000 14.024841961676
4676 2 -1.200000000000 77.035001499643 30.451500000000 11.585739011820
4677 2 -1.200000000000 78.254552974571 0.454500000000 15.244393436605
4678 2 -1.200000000000 77.441518657952 1.363500000000 12.805290486748
4679 2 -1.200000000000 79.880621607809 31.360500000000 14.024841961676
4680 2 -1.200000000000 79.067587291190 32.269500000000 11.585739011820
4681 1 2.400000000000 79.677363028654 25.452000000000 19.512823598854
4682 1 2.400000000000 80.490397345273 24.543000000000 15.854169174069
4683 1 2.400000000000 80.896914503583 28.179000000000 17.073720648997
4684 1 2.400000000000 83.336017453440 25.452000000000 18.293272123926
4685 2 -1.200000000000 81.100173082738 25.906500000000 17.683496386462
4686 2 -1.200000000000 80.287138766119 26.815500000000 15.244393436605
4687 2 -1.200000000000 82.726241715975 24.088500000000 16.463944911533
4688 2 -1.200000000000 81.913207399357 24.997500000000 14.024841961676
4689 2 -1.200000000000 83.132758874285 27.724500000000 17.683496386462
4690 2 -1.200000000000 82.319724557666 28.633500000000 15.244393436605
4691 2 -1.200000000000 84.758827507523 25.906500000000 16.463944911533
4692 2 -1.200000000000 83.945793190904 26.815500000000 14.024841961676
4693 1 2.400000000000 78.051294395417 27.270000000000 14.634617699141
4694 1 2.400000000000 78.864328712036 26.361000000000 10.975963274355
4695 1 2.400000000000 79.270845870345 29.997000000000 12.195514749284
4696 1 2.400000000000 81.709948820202 27.270000000000 13.415066224212
4697 2 -1.200000000000 79.474104449500 27.724500000000 12.805290486748
4698 2 -1.200000000000 78.661070132881 28.633500000000 10.366187536891
4699 2 -1.200000000000 81.100173082738 25.906500000000 11.585739011820
4700 2 -1.200000000000 80.287138766119 26.815500000000 9.146636061963
4701 2 -1.200000000000 81.506690241047 29.542500000000 12.805290486748
4702 2 -1.200000000000 80.693655924428 30.451500000000 10.366187536891
4703 2 -1.200000000000 83.132758874285 27.724500000000 11.585739011820
4704 2 -1.200000000000 82.319724557666 28.633500000000 9.146636061963
4705 1 2.400000000000 76.425225762179 29.088000000000 9.756411799427
4706 1 2.400000000000 77.238260078798 28.179000000000 6.097757374642
4707 1 2.400000000000 77.644777237107 31.815000000000 7.317308849570
4708 1 2.400000000000 80.083880186964 29.088000000000 8.536860324499
4709 2 -1.200000000000 77.848035816262 29.542500000000 7.927084587035
4710 2 -1.200000000000 77.035001499643 30.451500000000 5.487981637178
4711 2 -1.200000000000 79.474104449500 27.724500000000 6.707533112106
4712 2 -1.200000000000 78.661070132881 28.633500000000 4.268430162249
4713 2 -1.200000000000 79.880621607809 31.360500000000 7.927084587035
4714 2 -1.200000000000 79.067587291190 32.269500000000 5.487981637178
4715 2 -1.200000000000 81.506690241047 29.542500000000 6.707533112106
4716 2 -1.200000000000 80.693655924428 30.451500000000 4.268430162249
4717 1 2.400000000000 74.799157128941 30.906000000000 4.878205899714
4718 1 2.400000000000 75.612191445560 29.997000000000 1.219551474928
4719 1 2.400000000000 76.018708603869 0.909000000000 2.439102949857
4720 1 2.400000000000 78.457811553726 30.906000000000 3.658654424785
4721 2 -1.200000000000 76.221967183024 31.360500000000 3.048878687321
4722 2 -1.200000000000 75.408932866405 32.269500000000 0.609775737464
4723 2 -1.200000000000 77.848035816262 29.542500000000 1.829327212393
4724 2 -1.200000000000 77.035001499643 30.451500000000 23.781253761104
4725 2 -1.200000000000 78.254552974571 0.454500000000 3.048878687321
4726 2 -1.200000000000 77.441518657952 1.363500000000 0.609775737464
4727 2 -1.200000000000 79.880621607809 31.360500000000 1.829327212393
4728 2 -1.200000000000 79.067587291190 32.269500000000 23.781253761104
4729 1 2.400000000000 84.555568928368 19.998000000000 21.951926548711
4730 1 2.400000000000 85.368603244987 19.089000000000 18.293272123926
4731 1 2.400000000000 85.775120403296 22.725000000000 19.512823598854
4732 1 2.400000000000 88.214223353153 19.998000000000 20.732375073783
4733 2 -1.200000000000 85.978378982451 20.452500000000 20.122599336318
4734 2 -1.200000000000 85.165344665832 21.361500000000 17.683496386462
4735 2 -1.200000000000 87.604447615689 18.634500000000 18.903047861390
4736 2 -1.200000000000 86.791413299070 19.543500000000 16.463944911533
4737 2 -1.200000000000 88.010964773998 22.270500000000 20.122599336318
4738 2 -1.200000000000 87.197930457380 23.179500000000 17.683496386462
4739 2 -1.200000000000 89.637033407236 20.452500000000 18.903047861390
4740 2 -1.200000000000 88.823999090617 21.361500000000 16.463944911533
4741 1 2.400000000000 82.929500295130 21.816000000000 17.073720648997
4742 1 2.400000000000 83.742534611749 20.907000000000 13.415066224212
4743 1 2.400000000000 84.149051770059 24.543000000000 14.634617699141
4744 1 2.400000000000 86.588154719915 21.816000000000 15.854169174069
4745 2 -1.200000000000 84.352310349213 22.270500000000 15.244393436605
4746 2 -1.200000000000 83.539276032594 23.179500000000 12.805290486748
4747 2 -1.200000000000 85.978378982451 20.452500000000 14.024841961676
4748 2 -1.200000000000 85.165344665832 21.361500000000 11.585739011820
4749 2 -1.200000000000 86.384896140761 24.088500000000 15.244393436605
4750 2 -1.200000000000 85.571861824142 24.997500000000 12.805290486748
4751 2 -1.200000000000 88.010964773998 22.270500000000 14.024841961676
4752 2 -1.200000000000 87.197930457380 23.179500000000 11.585739011820
4753 1 2.400000000000 81.303431661892 23.634000000000 12.195514749284
4754 1 2.400000000000 82.116465978511 22.725000000000 8.536860324499
4755 1 2.400000000000 82.522983136821 26.361000000000 9.756411799427
4756 1 2.400000000000 84.962086086678 23.634000000000 10.975963274355
4757 2 -1.200000000000 82.726241715975 24.088500000000 10.366187536891
4758 2 -1.200000000000 81.913207399357 24.997500000000 7.927084587035
4759 2 -1.200000000000 84.352310349213 22.270500000000 9.146636061963
4760 2 -1.200000000000 83.539276032594 23.179500000000 6.707533112106
4761 2 -1.200000000000 84.758827507523 25.906500000000 10.366187536891
4762 2 -1.200000000000 83.945793190904 26.815500000000 7.927084587035
4763 2 -1.200000000000 86.384896140761 24.088500000000 9.146636061963
4764 2 -1.200000000000 85.571861824142 24.997500000000 6.707533112106
4765 1 2.400000000000 79.677363028654 25.452000000000 7.317308849570
4766 1 2.400000000000 80.490397345273 24.543000000000 3.658654424785
4767 1 2.400000000000 80.896914503583 28.179000000000 4.878205899714
4768 1 2.400000000000 83.336017453440 25.452000000000 6.097757374642
4769 2 -1.200000000000 81.100173082738 25.906500000000 5.487981637178
4770 2 -1.200000000000 80.287138766119 26.815500000000 3.048878687321
4771 2 -1.200000000000 82.726241715975 24.088500000000 4.268430162249
4772 2 -1.200000000000 81.913207399357 24.997500000000 1.829327212393
4773 2 -1.200000000000 83.132758874285 27.724500000000 5.487981637178
4774 2 -1.200000000000 82.319724557666 28.633500000000 3.048878687321
4775 2 -1.200000000000 84.758827507523 25.906500000000 4.268430162249
4776 2 -1.200000000000 83.945793190904 26.815500000000 1.829327212393
4777 1 2.400000000000 78.051294395417 27.270000000000 2.439102949857
4778 1 2.400000000000 78.864328712036 26.361000000000 23.171478023639
4779 1 2.400000000000 79.270845870345 29.997000000000 0.000000000000
4780 1 2.400000000000 81.709948820202 27.270000000000 1.219551474928
4781 2 -1.200000000000 79.474104449500 27.724500000000 0.609775737464
4782 2 -1.200000000000 78.661070132881 28.633500000000 22.561702286175
4783 2 -1.200000000000 81.100173082738 25.906500000000 23.781253761104
4784 2 -1.200000000000 80.287138766119 26.815500000000 21.342150811247
4785 2 -1.200000000000 81.506690241047 29.542500000000 0.609775737464
4786 2 -1.200000000000 80.693655924428 30.451500000000 22.561702286175
4787 2 -1.200000000000 83.132758874285 27.724500000000 23.781253761104
4788 2 -1.200000000000 82.319724557666 28.633500000000 21.342150811247
4789 1 2.400000000000 87.807706194844 16.362000000000 19.512823598854
4790 1 2.400000000000 88.620740511463 15.453000000000 15.854169174069
4791 1 2.400000000000 89.027257669772 19.089000000000 17.073720648997
4792 1 2.400000000000 91.466360619629 16.362000000000 18.293272123926
4793 2 -1.200000000000 89.230516248927 16.816500000000 17.683496386462
4794 2 -1.200000000000 88.417481932308 17.725500000000 15.244393436605
4795 2 -1.200000000000 90.856584882165 14.998500000000 16.463944911533
4796 2 -1.200000000000 90.043550565546 15.907500000000 14.024841961676
4797 2 -1.200000000000 91.263102040474 18.634500000000 17.683496386462
4798 2 -1.200000000000 90.450067723855 19.543500000000 15.244393436605
4799 2 -1.200000000000 92.889170673712 16.816500000000 16.463944911533
4800 2 -1.200000000000 92.076136357093 17.725500000000 14.024841961676
4801 1 2.400000000000 86.181637561606 18.180000000000 14.634617699141
4802 1 2.400000000000 86.994671878225 17.271000000000 10.975963274355
4803 1 2.400000000000 87.401189036534 20.907000000000 12.195514749284
4804 1 2.400000000000 89.840291986391 18.180000000000 13.415066224212
4805 2 -1.200000000000 87.604447615689 18.634500000000 12.805290486748
4806 2 -1.200000000000 86.791413299070 19.543500000000 10.366187536891
4807 2 -1.200000000000 89.230516248927 16.816500000000 11.585739011820
4808 2 -1.200000000000 88.417481932308 17.725500000000 9.146636061963
4809 2 -1.200000000000 89.637033407236 20.452500000000 12.805290486748
4810 2 -1.200000000000 88.823999090617 21.361500000000 10.366187536891
4811 2 -1.200000000000 91.263102040474 18.634500000000 11.585739011820
4812 2 -1.200000000000 90.450067723855 19.543500000000 9.146636061963
4813 1 2.400000000000 84.555568928368 19.998000000000 9.756411799427
4814 1 2.400000000000 85.368603244987 19.089000000000 6.097757374642
4815 1 2.400000000000 85.775120403296 22.725000000000 7.317308849570
4816 1 2.400000000000 88.214223353153 19.998000000000 8.536860324499
4817 2 -1.200000000000 85.978378982451 20.452500000000 7.927084587035
4818 2 -1.200000000000 85.165344665832 21.361500000000 5.487981637178
4819 2 -1.200000000000 87.604447615689 18.634500000000 6.707533112106
4820 2 -1.200000000000 86.791413299070 19.543500000000 4.268430162249
4821 2 -1.200000000000 88.010964773998 22.270500000000 7.927084587035
4822 2 -1.200000000000 87.197930457380 23.179500000000 5.487981637178
4823 2 -1.200000000000 89.637033407236 20.452500000000 6.707533112106
4824 2 -1.200000000000 88.823999090617 21.361500000000 4.268430162249
4825 1 2.400000000000 82.929500295130 21.816000000000 4.878205899714
4826 1 2.400000000000 83.742534611749 20.907000000000 1.219551474928
4827 1 2.400000000000 84.149051770059 24.543000000000 2.439102949857
4828 1 2.400000000000 86.588154719915 21.816000000000 3.658654424785
4829 2 -1.200000000000 84.352310349213 22.270500000000 3.048878687321
4830 2 -1.200000000000 83.539276032594 23.179500000000 0.609775737464
4831 2 -1.200000000000 85.978378982451 20.452500000000 1.829327212393
4832 2 -1.200000000000 85.165344665832 21.361500000000 23.781253761104
4833 2 -1.200000000000 86.384896140761 24.088500000000 3.048878687321
4834 2 -1.200000000000 85.571861824142 24.997500000000 0.609775737464
4835 2 -1.200000000000 88.010964773998 22.270500000000 1.829327212393
4836 2 -1.200000000000 87.197930457380 23.179500000000 23.781253761104
4837 1 2.400000000000 81.303431661892 23.634000000000 0.000000000000
4838 1 2.400000000000 82.116465978511 22.725000000000 20.732375073783
4839 1 2.400000000000 82.522983136821 26.361000000000 21.951926548711
4840 1 2.400000000000 84.962086086678 23.634000000000 23.171478023639
4841 2 -1.200000000000 82.726241715975 24.088500000000 22.561702286175
4842 2 -1.200000000000 81.913207399357 24.997500000000 20.122599336318
4843 2 -1.200000000000 84.352310349213 22.270500000000 21.342150811247
4844 2 -1.200000000000 83.539276032594 23.179500000000 18.903047861390
4845 2 -1.200000000000 84.758827507523 25.906500000000 22.561702286175
4846 2 -1.200000000000 83.945793190904 26.815500000000 20.122599336318
4847 2 -1.200000000000 86.384896140761 24.088500000000 21.342150811247
4848 2 -1.200000000000 85.571861824142 24.997500000000 18.903047861390
4849 1 2.400000000000 92.685912094557 10.908000000000 21.951926548711
4850 1 2.400000000000 93.498946411176 9.999000000000 18.293272123926
4851 1 2.400000000000 93.905463569486 13.635000000000 19.512823598854
4852 1 2.400000000000 96.344566519342 10.908000000000 20.732375073783
4853 2 -1.200000000000 94.108722148640 11.362500000000 20.122599336318
4854 2 -1.200000000000 93.295687832021 12.271500000000 17.683496386462
4855 2 -1.200000000000 95.734790781878 9.544500000000 18.903047861390
4856 2 -1.200000000000 94.921756465259 10.453500000000 16.463944911533
4857 2 -1.200000000000 96.141307940188 13.180500000000 20.122599336318
4858 2 -1.200000000000 95.328273623569 14.089500000000 17.683496386462
4859 2 -1.200000000000 97.767376573426 11.362500000000 18.903047861390
4860 2 -1.200000000000 96.954342256807 12.271500000000 16.463944911533
4861 1 2.400000000000 91.059843461319 12.726000000000 17.073720648997
4862 1 2.400000000000 91.872877777938 11.817000000000 13.415066224212
4863 1 2.400000000000 92.279394936248 15.453000000000 14.634617699141
4864 1 2.400000000000 94.718497886105 12.726000000000 15.854169174069
4865 2 -1.200000000000 92.482653515403 13.180500000000 15.244393436605
4866 2 -1.200000000000 91.669619198784 14.089500000000 12.805290486748
4867 2 -1.200000000000 94.108722148640 11.362500000000 14.024841961676
4868 2 -1.200000000000 93.295687832021 12.271500000000 11.585739011820
4869 2 -1.200000000000 94.515239306950 14.998500000000 15.244393436605
4870 2 -1.200000000000 93.702204990331 15.907500000000 12.805290486748
4871 2 -1.200000000000 96.141307940188 13.180500000000 14.024841961676
4872 2 -1.200000000000 95.328273623569 14.089500000000 11.585739011820
4873 1 2.400000000000 89.433774828082 14.544000000000 12.195514749284
4874 1 2.400000000000 90.246809144701 13.635000000000 8.536860324499
4875 1 2.400000000000 90.653326303010 17.271000000000 9.756411799427
4876 1 2.400000000000 93.092429252867 14.544000000000 10.975963274355
4877 2 -1.200000000000 90.856584882165 14.998500000000 10.366187536891
4878 2 -1.200000000000 90.043550565546 15.907500000000 7.927084587035
4879 2 -1.200000000000 92.482653515403 13.180500000000 9.146636061963
4880 2 -1.200000000000 91.669619198784 14.089500000000 6.707533112106
4881 2 -1.200000000000 92.889170673712 16.816500000000 10.366187536891
4882 2 -1.200000000000 92.076136357093 17.725500000000 7.927084587035
4883 2 -1.200000000000 94.515239306950 14.998500000000 9.146636061963
4884 2 -1.200000000000 93.702204990331 15.907500000000 6.707533112106
4885 1 2.400000000000 87.807706194844 16.362000000000 7.317308849570
4886 1 2.400000000000 88.620740511463 15.453000000000 3.658654424785
4887 1 2.400000000000 89.027257669772 19.089000000000 4.878205899714
4888 1 2.400000000000 91.466360619629 16.362000000000 6.097757374642
4889 2 -1.200000000000 89.230516248927 16.816500000000 5.487981637178
4890 2 -1.200000000000 88.417481932308 17.725500000000 3.048878687321
4891 2 -1.200000000000 90.856584882165 14.998500000000 4.268430162249
4892 2 -1.200000000000 90.043550565546 15.907500000000 1.829327212393
4893 2 -1.200000000000 91.263102040474 18.634500000000 5.487981637178
4894 2 -1.200000000000 90.450067723855 19.543500000000 3.048878687321
4895 2 -1.200000000000 92.889170673712 16.816500000000 4.268430162249
4896 2 -1.200000000000 92.076136357093 17.725500000000 1.829327212393
4897 1 2.400000000000 86.181637561606 18.180000000000 2.439102949857
4898 1 2.400000000000 86.994671878225 17.271000000000 23.171478023639
4899 1 2.400000000000 87.401189036534 20.907000000000 0.000000000000
4900 1 2.400000000000 89.840291986391 18.180000000000 1.219551474928
4901 2 -1.200000000000 87.604447615689 18.634500000000 0.609775737464
4902 2 -1.200000000000 86.791413299070 19.543500000000 22.561702286175
4903 2 -1.200000000000 89.230516248927 16.816500000000 23.781253761104
4904 2 -1.200000000000 88.417481932308 17.725500000000 21.342150811247
4905 2 -1.200000000000 89.637033407236 20.452500000000 0.609775737464
4906 2 -1.200000000000 88.823999090617 21.361500000000 22.561702286175
4907 2 -1.200000000000 91.263102040474 18.634500000000 23.781253761104
4908 2 -1.200000000000 90.450067723855 19.543500000000 21.342150811247
4909 1 2.400000000000 95.938049361033 7.272000000000 19.512823598854
4910 1 2.400000000000 96.751083677652 6.363000000000 15.854169174069
4911 1 2.400000000000 97.157600835961 9.999000000000 17.073720648997
4912 1 2.400000000000 99.596703785818 7.272000000000 18.293272123926
4913 2 -1.200000000000 97.360859415116 7.726500000000 17.683496386462
4914 2 -1.200000000000 96.547825098497 8.635500000000 15.244393436605
4915 2 -1.200000000000 98.986928048354 5.908500000000 16.463944911533
4916 2 -1.200000000000 98.173893731735 6.817500000000 14.024841961676
4917 2 -1.200000000000 99.393445206663 9.544500000000 17.683496386462
4918 2 -1.200000000000 98.580410890044 10.453500000000 15.244393436605
4919 2 -1.200000000000 101.019513839901 7.726500000000 16.463944911533
4920 2 -1.200000000000 100.206479523282 8.635500000000 14.024841961676
4921 1 2.400000000000 94.311980727795 9.090000000000 14.634617699141
4922 1 2.400000000000 95.125015044414 8.181000000000 10.975963274355
4923 1 2.400000000000 95.531532202724 11.817000000000 12.195514749284
4924 1 2.400000000000 97.970635152580 9.090000000000 13.415066224212
4925 2 -1.200000000000 95.734790781878 9.544500000000 12.805290486748
4926 2 -1.200000000000 94.921756465259 10.453500000000 10.366187536891
4927 2 -1.200000000000 97.360859415116 7.726500000000 11.585739011820
4928 2 -1.200000000000 96.547825098497 8.635500000000 9.146636061963
4929 2 -1.200000000000 97.767376573426 11.362500000000 12.805290486748
4930 2 -1.200000000000 96.954342256807 12.271500000000 10.366187536891
4931 2 -1.200000000000 99.393445206663 9.544500000000 11.585739011820
4932 2 -1.200000000000 98.580410890044 10.453500000000 9.146636061963
4933 1 2.400000000000 92.685912094557 10.908000000000 9.756411799427
4934 1 2.400000000000 93.498946411176 9.999000000000 6.097757374642
4935 1 2.400000000000 93.905463569486 13.635000000000 7.317308849570
4936 1 2.400000000000 96.344566519342 10.908000000000 8.536860324499
4937 2 -1.200000000000 94.108722148640 11.362500000000 7.927084587035
4938 2 -1.200000000000 93.295687832021 12.271500000000 5.487981637178
4939 2 -1.200000000000 95.734790781878 9.544500000000 6.707533112106
4940 2 -1.200000000000 94.921756465259 10.453500000000 4.268430162249
4941 2 -1.200000000000 96.141307940188 13.180500000000 7.927084587035
4942 2 -1.200000000000 95.328273623569 14.089500000000 5.487981637178
4943 2 -1.200000000000 97.767376573426 11.362500000000 6.707533112106
4944 2 -1.200000000000 96.954342256807 12.271500000000 4.268430162249
4945 1 2.400000000000 91.059843461319 12.726000000000 4.878205899714
4946 1 2.400000000000 91.872877777938 11.817000000000 1.219551474928
4947 1 2.400000000000 92.279394936248 15.453000000000 2.439102949857
4948 1 2.400000000000 94.718497886105 12.726000000000 3.658654424785
4949 2 -1.200000000000 92.482653515403 13.180500000000 3.048878687321
4950 2 -1.200000000000 91.669619198784 14.089500000000 0.609775737464
4951 2 -1.200000000000 94.108722148640 11.362500000000 1.829327212393
4952 2 -1.200000000000 93.295687832021 12.271500000000 23.781253761104
4953 2 -1.200000000000 94.515239306950 14.998500000000 3.048878687321
4954 2 -1.200000000000 93.702204990331 15.907500000000 0.609775737464
4955 2 -1.200000000000 96.141307940188 13.180500000000 1.829327212393
4956 2 -1.200000000000 95.328273623569 14.089500000000 23.781253761104
4957 1 2.400000000000 89.433774828082 14.544000000000 0.000000000000
4958 1 2.400000000000 90.246809144701 13.635000000000 20.732375073783
4959 1 2.400000000000 90.653326303010 17.271000000000 21.951926548711
4960 1 2.400000000000 93.092429252867 14.544000000000 23.171478023639
4961 2 -1.200000000000 90.856584882165 14.998500000000 22.561702286175
4962 2 -1.200000000000 90.043550565546 15.907500000000 20.122599336318
4963 2 -1.200000000000 92.482653515403 13.180500000000 21.342150811247
4964 2 -1.200000000000 91.669619198784 14.089500000000 18.903047861390
4965 2 -1.200000000000 92.889170673712 16.816500000000 22.561702286175
4966 2 -1.200000000000 92.076136357093 17.725500000000 20.122599336318
4967 2 -1.200000000000 94.515239306950 14.998500000000 21.342150811247
4968 2 -1.200000000000 93.702204990331 15.907500000000 18.903047861390
4969 1 2.400000000000 100.816255260747 1.818000000000 21.951926548711
4970 1 2.400000000000 101.629289577365 0.909000000000 18.293272123926
4971 1 2.400000000000 102.035806735675 4.545000000000 19.512823598854
4972 1 2.400000000000 104.474909685532 1.818000000000 20.732375073783
4973 2 -1.200000000000 102.239065314830 2.272500000000 20.122599336318
4974 2 -1.200000000000 101.426030998211 3.181500000000 17.683496386462
4975 2 -1.200000000000 103.865133948067 0.454500000000 18.903047861390
4976 2 -1.200000000000 103.052099631449 1.363500000000 16.463944911533
4977 2 -1.200000000000 104.271651106377 4.090500000000 20.122599336318
4978 2 -1.200000000000 103.458616789758 4.999500000000 17.683496386462
4979 2 -1.200000000000 105.897719739615 2.272500000000 18.903047861390
4980 2 -1.200000000000 105.084685422996 3.181500000000 16.463944911533
4981 1 2.400000000000 99.190186627509 3.636000000000 17.073720648997
4982 1 2.400000000000 100.003220944128 2.727000000000 13.415066224212
4983 1 2.400000000000 100.409738102437 6.363000000000 14.634617699141
4984 1 2.400000000000 102.848841052294 3.636000000000 15.854169174069
4985 2 -1.200000000000 100.612996681592 4.090500000000 15.244393436605
4986 2 -1.200000000000 99.799962364973 4.999500000000 12.805290486748
4987 2 -1.200000000000 102.239065314830 2.272500000000 14.024841961676
4988 2 -1.200000000000 101.426030998211 3.181500000000 11.585739011820
4989 2 -1.200000000000 102.645582473139 5.908500000000 15.244393436605
4990 2 -1.200000000000 101.832548156520 6.817500000000 12.805290486748
4991 2 -1.200000000000 104.271651106377 4.090500000000 14.024841961676
4992 2 -1.200000000000 103.458616789758 4.999500000000 11.585739011820
4993 1 2.400000000000 97.564117994271 5.454000000000 12.195514749284
4994 1 2.400000000000 98.377152310890 4.545000000000 8.536860324499
4995 1 2.400000000000 98.783669469199 8.181000000000 9.756411799427
4996 1 2.400000000000 101.222772419056 5.454000000000 10.975963274355
4997 2 -1.200000000000 98.986928048354 5.908500000000 10.366187536891
4998 2 -1.200000000000 98.173893731735 6.817500000000 7.927084587035
4999 2 -1.200000000000 100.612996681592 4.090500000000 9.146636061963
5000 2 -1.200000000000 99.799962364973 4.999500000000 6.707533112106
5001 2 -1.200000000000 101.019513839901 7.726500000000 10.366187536891
5002 2 -1.200000000000 100.206479523282 8.635500000000 7.927084587035
5003 2 -1.200000000000 102.645582473139 5.908500000000 9.146636061963
5004 2 -1.200000000000 101.832548156520 6.817500000000 6.707533112106
5005 1 2.400000000000 95.938049361033 7.272000000000 7.317308849570
5006 1 2.400000000000 96.751083677652 6.363000000000 3.658654424785
5007 1 2.400000000000 97.157600835961 9.999000000000 4.878205899714
5008 1 2.400000000000 99.596703785818 7.272000000000 6.097757374642
5009 2 -1.200000000000 97.360859415116 7.726500000000 5.487981637178
5010 2 -1.200000000000 96.547825098497 8.635500000000 3.048878687321
5011 2 -1.200000000000 98.986928048354 5.908500000000 4.268430162249
5012 2 -1.200000000000 98.173893731735 6.817500000000 1.829327212393
5013 2 -1.200000000000 99.393445206663 9.544500000000 5.487981637178
5014 2 -1.200000000000 98.580410890044 10.453500000000 3.048878687321
5015 2 -1.200000000000 101.019513839901 7.726500000000 4.268430162249
5016 2 -1.200000000000 100.206479523282 8.635500000000 1.829327212393
5017 1 2.400000000000 94.311980727795 9.090000000000 2.439102949857
5018 1 2.400000000000 95.125015044414 8.181000000000 23.171478023639
5019 1 2.400000000000 95.531532202724 11.817000000000 0.000000000000
5020 1 2.400000000000 97.970635152580 9.090000000000 1.219551474928
5021 2 -1.200000000000 95.734790781878 9.544500000000 0.609775737464
5022 2 -1.200000000000 94.921756465259 10.453500000000 22.561702286175
5023 2 -1.200000000000 97.360859415116 7.726500000000 23.781253761104
5024 2 -1.200000000000 96.547825098497 8.635500000000 21.342150811247
5025 2 -1.200000000000 97.767376573426 11.362500000000 0.609775737464
5026 2 -1.200000000000 96.954342256807 12.271500000000 22.561702286175
5027 2 -1.200000000000 99.393445206663 9.544500000000 23.781253761104
5028 2 -1.200000000000 98.580410890044 10.453500000000 21.342150811247
5029 1 2.400000000000 102.442323893984 0.000000000000 14.634617699141
5030 1 2.400000000000 103.255358210603 31.815000000000 10.975963274355
5031 1 2.400000000000 103.661875368913 2.727000000000 12.195514749284
5032 1 2.400000000000 106.100978318770 0.000000000000 13.415066224212
5033 2 -1.200000000000 103.865133948067 0.454500000000 12.805290486748
5034 2 -1.200000000000 103.052099631449 1.363500000000 10.366187536891
5035 2 -1.200000000000 105.491202581305 31.360500000000 11.585739011820
5036 2 -1.200000000000 104.678168264686 32.269500000000 9.146636061963
5037 2 -1.200000000000 105.897719739615 2.272500000000 12.805290486748
5038 2 -1.200000000000 105.084685422996 3.181500000000 10.366187536891
5039 2 -1.200000000000 107.523788372853 0.454500000000 11.585739011820
5040 2 -1.200000000000 106.710754056234 1.363500000000 9.146636061963
5041 1 2.400000000000 100.816255260747 1.818000000000 9.756411799427
5042 1 2.400000000000 101.629289577365 0.909000000000 6.097757374642
5043 1 2.400000000000 102.035806735675 4.545000000000 7.317308849570
5044 1 2.400000000000 104.474909685532 1.818000000000 8.536860324499
5045 2 -1.200000000000 102.239065314830 2.272500000000 7.927084587035
5046 2 -1.200000000000 101.426030998211 3.181500000000 5.487981637178
5047 2 -1.200000000000 103.865133948067 0.454500000000 6.707533112106
5048 2 -1.200000000000 103.052099631449 1.363500000000 4.268430162249
5049 2 -1.200000000000 104.271651106377 4.090500000000 7.927084587035
5050 2 -1.200000000000 103.458616789758 4.999500000000 5.487981637178
5051 2 -1.200000000000 105.897719739615 2.272500000000 6.707533112106
5052 2 -1.200000000000 105.084685422996 3.181500000000 4.268430162249
5053 1 2.400000000000 99.190186627509 3.636000000000 4.878205899714
5054 1 2.400000000000 100.003220944128 2.727000000000 1.219551474928
5055 1 2.400000000000 100.409738102437 6.363000000000 2.439102949857
5056 1 2.400000000000 102.848841052294 3.636000000000 3.658654424785
5057 2 -1.200000000000 100.612996681592 4.090500000000 3.048878687321
5058 2 -1.200000000000 99.799962364973 4.999500000000 0.609775737464
5059 2 -1.200000000000 102.239065314830 2.272500000000 1.829327212393
5060 2 -1.200000000000 101.426030998211 3.181500000000 23.781253761104
5061 2 -1.200000000000 102.645582473139 5.908500000000 3.048878687321
5062 2 -1.200000000000 101.832548156520 6.817500000000 0.609775737464
5063 2 -1.200000000000 104.271651106377 4.090500000000 1.829327212393
5064 2 -1.200000000000 103.458616789758 4.999500000000 23.781253761104
5065 1 2.400000000000 97.564117994271 5.454000000000 0.000000000000
5066 1 2.400000000000 98.377152310890 4.545000000000 20.732375073783
5067 1 2.400000000000 98.783669469199 8.181000000000 21.951926548711
5068 1 2.400000000000 101.222772419056 5.454000000000 23.171478023639
5069 2 -1.200000000000 98.986928048354 5.908500000000 22.561702286175
5070 2 -1.200000000000 98.173893731735 6.817500000000 20.122599336318
5071 2 -1.200000000000 100.612996681592 4.090500000000 21.342150811247
5072 2 -1.200000000000 99.799962364973 4.999500000000 18.903047861390
5073 2 -1.200000000000 101.019513839901 7.726500000000 22.561702286175
5074 2 -1.200000000000 100.206479523282 8.635500000000 20.122599336318
5075 2 -1.200000000000 102.645582473139 5.908500000000 21.342150811247
5076 2 -1.200000000000 101.832548156520 6.817500000000 18.903047861390
5077 1 2.400000000000 102.442323893984 0.000000000000 2.439102949857
5078 1 2.400000000000 103.255358210603 31.815000000000 23.171478023639
5079 1 2.400000000000 103.661875368913 2.727000000000 0.000000000000
5080 1 2.400000000000 106.100978318770 0.000000000000 1.219551474928
5081 2 -1.200000000000 103.865133948067 0.454500000000 0.609775737464
5082 2 -1.200000000000 103.052099631449 1.363500000000 22.561702286175
5083 2 -1.200000000000 105.491202581305 31.360500000000 23.781253761104
5084 2 -1.200000000000 104.678168264686 32.269500000000 21.342150811247
5085 2 -1.200000000000 105.897719739615 2.272500000000 0.609775737464
5086 2 -1.200000000000 105.084685422996 3.181500000000 22.561702286175
5087 2 -1.200000000000 107.523788372853 0.454500000000 23.781253761104
5088 2 -1.200000000000 106.710754056234 1.363500000000 21.342150811247
5089 1 2.400000000000 83.742534611749 29.088000000000 19.512823598854
5090 1 2.400000000000 84.555568928368 28.179000000000 15.854169174069
5091 1 2.400000000000 84.962086086678 31.815000000000 17.073720648997
5092 1 2.400000000000 87.401189036534 29.088000000000 18.293272123926
5093 2 -1.200000000000 85.165344665832 29.542500000000 17.683496386462
5094 2 -1.200000000000 84.352310349213 30.451500000000 15.244393436605
5095 2 -1.200000000000 86.791413299070 27.724500000000 16.463944911533
5096 2 -1.200000000000 85.978378982451 28.633500000000 14.024841961676
5097 2 -1.200000000000 87.197930457380 31.360500000000 17.683496386462
5098 2 -1.200000000000 86.384896140761 32.269500000000 15.244393436605
5099 2 -1.200000000000 88.823999090617 29.542500000000 16.463944911533
5100 2 -1.200000000000 88.010964773998 30.451500000000 14.024841961676
5101 1 2.400000000000 82.116465978511 30.906000000000 14.634617699141
5102 1 2.400000000000 82.929500295130 29.997000000000 10.975963274355
5103 1 2.400000000000 83.336017453440 0.909000000000 12.195514749284
5104 1 2.400000000000 85.775120403296 30.906000000000 13.415066224212
5105 2 -1.200000000000 83.539276032594 31.360500000000 12.805290486748
5106 2 -1.200000000000 82.726241715975 32.269500000000 10.366187536891
5107 2 -1.200000000000 85.165344665832 29.542500000000 11.585739011820
5108 2 -1.200000000000 84.352310349213 30.451500000000 9.146636061963
5109 2 -1.200000000000 85.571861824142 0.454500000000 12.805290486748
5110 2 -1.200000000000 84.758827507523 1.363500000000 10.366187536891
5111 2 -1.200000000000 87.197930457380 31.360500000000 11.585739011820
5112 2 -1.200000000000 86.384896140761 32.269500000000 9.146636061963
5113 1 2.400000000000 88.620740511463 23.634000000000 21.951926548711
5114 1 2.400000000000 89.433774828082 22.725000000000 18.293272123926
5115 1 2.400000000000 89.840291986391 26.361000000000 19.512823598854
5116 1 2.400000000000 92.279394936248 23.634000000000 20.732375073783
5117 2 -1.200000000000 90.043550565546 24.088500000000 20.122599336318
5118 2 -1.200000000000 89.230516248927 24.997500000000 17.683496386462
5119 2 -1.200000000000 91.669619198784 22.270500000000 18.903047861390
5120 2 -1.200000000000 90.856584882165 23.179500000000 16.463944911533
5121 2 -1.200000000000 92.076136357093 25.906500000000 20.122599336318
5122 2 -1.200000000000 91.263102040474 26.815500000000 17.683496386462
5123 2 -1.200000000000 93.702204990331 24.088500000000 18.903047861390
5124 2 -1.200000000000 92.889170673712 24.997500000000 16.463944911533
5125 1 2.400000000000 86.994671878225 25.452000000000 17.073720648997
5126 1 2.400000000000 87.807706194844 24.543000000000 13.415066224212
5127 1 2.400000000000 88.214223353153 28.179000000000 14.634617699141
5128 1 2.400000000000 90.653326303010 25.452000000000 15.854169174069
5129 2 -1.200000000000 88.417481932308 25.906500000000 15.244393436605
5130 2 -1.200000000000 87.604447615689 26.815500000000 12.805290486748
5131 2 -1.200000000000 90.043550565546 24.088500000000 14.024841961676
5132 2 -1.200000000000 89.230516248927 24.997500000000 11.585739011820
5133 2 -1.200000000000 90.450067723855 27.724500000000 15.244393436605
5134 2 -1.200000000000 89.637033407236 28.633500000000 12.805290486748
5135 2 -1.200000000000 92.076136357093 25.906500000000 14.024841961676
5136 2 -1.200000000000 91.263102040474 26.815500000000 11.585739011820
5137 1 2.400000000000 85.368603244987 27.270000000000 12.195514749284
5138 1 2.400000000000 86.181637561606 26.361000000000 8.536860324499
5139 1 2.400000000000 86.588154719915 29.997000000000 9.756411799427
5140 1 2.400000000000 89.027257669772 27.270000000000 10.975963274355
5141 2 -1.200000000000 86.791413299070 27.724500000000 10.366187536891
5142 2 -1.200000000000 85.978378982451 28.633500000000 7.927084587035
5143 2 -1.200000000000 88.417481932308 25.906500000000 9.146636061963
5144 2 -1.200000000000 87.604447615689 26.815500000000 6.707533112106
5145 2 -1.200000000000 88.823999090617 29.542500000000 10.366187536891
5146 2 -1.200000000000 88.010964773998 30.451500000000 7.927084587035
5147 2 -1.200000000000 90.450067723855 27.724500000000 9.146636061963
5148 2 -1.200000000000 89.637033407236 28.633500000000 6.707533112106
5149 1 2.400000000000 83.742534611749 29.088000000000 7.317308849570
5150 1 2.400000000000 84.555568928368 28.179000000000 3.658654424785
5151 1 2.400000000000 84.962086086678 31.815000000000 4.878205899714
5152 1 2.400000000000 87.401189036534 29.088000000000 6.097757374642
5153 2 -1.200000000000 85.165344665832 29.542500000000 5.487981637178
5154 2 -1.200000000000 84.352310349213 30.451500000000 3.048878687321
5155 2 -1.200000000000 86.791413299070 27.724500000000 4.268430162249
5156 2 -1.200000000000 85.978378982451 28.633500000000 1.829327212393
5157 2 -1.200000000000 87.197930457380 31.360500000000 5.487981637178
5158 2 -1.200000000000 86.384896140761 32.269500000000 3.048878687321
5159 2 -1.200000000000 88.823999090617 29.542500000000 4.268430162249
5160 2 -1.200000000000 88.010964773998 30.451500000000 1.829327212393
5161 1 2.400000000000 82.116465978511 30.906000000000 2.439102949857
5162 1 2.400000000000 82.929500295130 29.997000000000 23.171478023639
5163 1 2.400000000000 83.336017453440 0.909000000000 0.000000000000
5164 1 2.400000000000 85.775120403296 30.906000000000 1.219551474928
5165 2 -1.200000000000 83.539276032594 31.360500000000 0.609775737464
5166 2 -1.200000000000 82.726241715975 32.269500000000 22.561702286175
5167 2 -1.200000000000 85.165344665832 29.542500000000 23.781253761104
5168 2 -1.200000000000 84.352310349213 30.451500000000 21.342150811247
5169 2 -1.200000000000 85.571861824142 0.454500000000 0.609775737464
5170 2 -1.200000000000 84.758827507523 1.363500000000 22.561702286175
5171 2 -1.200000000000 87.197930457380 31.360500000000 23.781253761104
5172 2 -1.200000000000 86.384896140761 32.269500000000 21.342150811247
5173 1 2.400000000000 91.872877777938 19.998000000000 19.512823598854
5174 1 2.400000000000 92.685912094557 19.089000000000 15.854169174069
5175 1 2.400000000000 93.092429252867 22.725000000000 17.073720648997
5176 1 2.400000000000 95.531532202724 19.998000000000 18.293272123926
5177 2 -1.200000000000 93.295687832021 20.452500000000 17.683496386462
5178 2 -1.200000000000 92.482653515403 21.361500000000 15.244393436605
5179 2 -1.200000000000 94.921756465259 18.634500000000 16.463944911533
5180 2 -1.200000000000 94.108722148640 19.543500000000 14.024841961676
5181 2 -1.200000000000 95.328273623569 22.270500000000 17.683496386462
5182 2 -1.200000000000 94.515239306950 23.179500000000 15.244393436605
5183 2 -1.200000000000 96.954342256807 20.452500000000 16.463944911533
5184 2 -1.200000000000 96.141307940188 21.361500000000 14.024841961676
5185 1 2.400000000000 90.246809144701 21.816000000000 14.634617699141
5186 1 2.400000000000 91.059843461319 20.907000000000 10.975963274355
5187 1 2.400000000000 91.466360619629 24.543000000000 12.195514749284
5188 1 2.400000000000 93.905463569486 21.816000000000 13.415066224212
5189 2 -1.200000000000 91.669619198784 22.270500000000 12.805290486748
5190 2 -1.200000000000 90.856584882165 23.179500000000 10.366187536891
5191 2 -1.200000000000 93.295687832021 20.452500000000 11.585739011820
5192 2 -1.200000000000 92.482653515403 21.361500000000 9.146636061963
5193 2 -1.200000000000 93.702204990331 24.088500000000 12.805290486748
5194 2 -1.200000000000 92.889170673712 24.997500000000 10.366187536891
5195 2 -1.200000000000 95.328273623569 22.270500000000 11.585739011820
5196 2 -1.200000000000 94.515239306950 23.179500000000 9.146636061963
5197 1 2.400000000000 88.620740511463 23.634000000000 9.756411799427
5198 1 2.400000000000 89.433774828082 22.725000000000 6.097757374642
5199 1 2.400000000000 89.840291986391 26.361000000000 7.317308849570
5200 1 2.400000000000 92.279394936248 23.634000000000 8.536860324499
5201 2 -1.200000000000 90.043550565546 24.088500000000 7.927084587035
5202 2 -1.200000000000 89.230516248927 24.997500000000 5.487981637178
5203 2 -1.200000000000 91.669619198784 22.270500000000 6.707533112106
5204 2 -1.200000000000 90.856584882165 23.179500000000 4.268430162249
5205 2 -1.200000000000 92.076136357093 25.906500000000 7.927084587035
5206 2 -1.200000000000 91.263102040474 26.815500000000 5.487981637178
5207 2 -1.200000000000 93.702204990331 24.088500000000 6.707533112106
5208 2 -1.200000000000 92.889170673712 24.997500000000 4.268430162249
5209 1 2.400000000000 86.994671878225 25.452000000000 4.878205899714
5210 1 2.400000000000 87.807706194844 24.543000000000 1.219551474928
5211 1 2.400000000000 88.214223353153 28.179000000000 2.439102949857
5212 1 2.400000000000 90.653326303010 25.452000000000 3.658654424785
5213 2 -1.200000000000 88.417481932308 25.906500000000 3.048878687321
5214 2 -1.200000000000 87.604447615689 26.815500000000 0.609775737464
5215 2 -1.200000000000 90.043550565546 24.088500000000 1.829327212393
5216 2 -1.200000000000 89.230516248927 24.997500000000 23.781253761104
5217 2 -1.200000000000 90.450067723855 27.724500000000 3.048878687321
5218 2 -1.200000000000 89.637033407236 28.633500000000 0.609775737464
5219 2 -1.200000000000 92.076136357093 25.906500000000 1.829327212393
5220 2 -1.200000000000 91.263102040474 26.815500000000 23.781253761104
5221 1 2.400000000000 85.368603244987 27.270000000000 0.000000000000
5222 1 2.400000000000 86.181637561606 26.361000000000 20.732375073783
5223 1 2.400000000000 86.588154719915 29.997000000000 21.951926548711
5224 1 2.400000000000 89.027257669772 27.270000000000 23.171478023639
5225 2 -1.200000000000 86.791413299070 27.724500000000 22.561702286175
5226 2 -1.200000000000 85.978378982451 28.633500000000 20.122599336318
5227 2 -1.200000000000 88.417481932308 25.906500000000 21.342150811247
5228 2 -1.200000000000 87.604447615689 26.815500000000 18.903047861390
5229 2 -1.200000000000 88.823999090617 29.542500000000 22.561702286175
5230 2 -1.200000000000 88.010964773998 30.451500000000 20.122599336318
5231 2 -1.200000000000 90.450067723855 27.724500000000 21.342150811247
5232 2 -1.200000000000 89.637033407236 28.633500000000 18.903047861390
5233 1 2.400000000000 96.751083677652 14.544000000000 21.951926548711
5234 1 2.400000000000 97.564117994271 13.635000000000 18.293272123926
5235 1 2.400000000000 97.970635152580 17.271000000000 19.512823598854
5236 1 2.400000000000 100.409738102437 14.544000000000 20.732375073783
5237 2 -1.200000000000 98.173893731735 14.998500000000 20.122599336318
5238 2 -1.200000000000 97.360859415116 15.907500000000 17.683496386462
5239 2 -1.200000000000 99.799962364973 13.180500000000 18.903047861390
5240 2 -1.200000000000 98.986928048354 14.089500000000 16.463944911533
5241 2 -1.200000000000 100.206479523282 16.816500000000 20.122599336318
5242 2 -1.200000000000 99.393445206663 17.725500000000 17.683496386462
5243 2 -1.200000000000 101.832548156520 14.998500000000 18.903047861390
5244 2 -1.200000000000 101.019513839901 15.907500000000 16.463944911533
5245 1 2.400000000000 95.125015044414 16.362000000000 17.073720648997
5246 1 2.400000000000 95.938049361033 15.453000000000 13.415066224212
5247 1 2.400000000000 96.344566519342 19.089000000000 14.634617699141
5248 1 2.400000000000 98.783669469199 16.362000000000 15.854169174069
5249 2 -1.200000000000 96.547825098497 16.816500000000 15.244393436605
5250 2 -1.200000000000 95.734790781878 17.725500000000 12.805290486748
5251 2 -1.200000000000 98.173893731735 14.998500000000 14.024841961676
5252 2 -1.200000000000 97.360859415116 15.907500000000 11.585739011820
5253 2 -1.200000000000 98.580410890044 18.634500000000 15.244393436605
5254 2 -1.200000000000 97.767376573426 19.543500000000 12.805290486748
5255 2 -1.200000000000 100.206479523282 16.816500000000 14.024841961676
5256 2 -1.200000000000 99.393445206663 17.725500000000 11.585739011820
5257 1 2.400000000000 93.498946411176 18.180000000000 12.195514749284
5258 1 2.400000000000 94.311980727795 17.271000000000 8.536860324499
5259 1 2.400000000000 94.718497886105 20.907000000000 9.756411799427
5260 1 2.400000000000 97.157600835961 18.180000000000 10.975963274355
5261 2 -1.200000000000 94.921756465259 18.634500000000 10.366187536891
5262 2 -1.200000000000 94.108722148640 19.543500000000 7.927084587035
5263 2 -1.200000000000 96.547825098497 16.816500000000 9.146636061963
5264 2 -1.200000000000 95.734790781878 17.725500000000 6.707533112106
5265 2 -1.200000000000 96.954342256807 20.452500000000 10.366187536891
5266 2 -1.200000000000 96.141307940188 21.361500000000 7.927084587035
5267 2 -1.200000000000 98.580410890044 18.634500000000 9.146636061963
5268 2 -1.200000000000 97.767376573426 19.543500000000 6.707533112106
5269 1 2.400000000000 91.872877777938 19.998000000000 7.317308849570
5270 1 2.400000000000 92.685912094557 19.089000000000 3.658654424785
5271 1 2.400000000000 93.092429252867 22.725000000000 4.878205899714
5272 1 2.400000000000 95.531532202724 19.998000000000 6.097757374642
5273 2 -1.200000000000 93.295687832021 20.452500000000 5.487981637178
5274 2 -1.200000000000 92.482653515403 21.361500000000 3.048878687321
5275 2 -1.200000000000 94.921756465259 18.634500000000 4.268430162249
5276 2 -1.200000000000 94.108722148640 19.543500000000 1.829327212393
5277 2 -1.200000000000 95.328273623569 22.270500000000 5.487981637178
5278 2 -1.200000000000 94.515239306950 23.179500000000 3.048878687321
5279 2 -1.200000000000 96.954342256807 20.452500000000 4.268430162249
5280 2 -1.200000000000 96.141307940188 21.361500000000 1.829327212393
5281 1 2.400000000000 90.246809144701 21.816000000000 2.439102949857
5282 1 2.400000000000 91.059843461319 20.907000000000 23.171478023639
5283 1 2.400000000000 91.466360619629 24.543000000000 0.000000000000
5284 1 2.400000000000 93.905463569486 21.816000000000 1.219551474928
5285 2 -1.200000000000 91.669619198784 22.270500000000 0.609775737464
5286 2 -1.200000000000 90.856584882165 23.179500000000 22.561702286175
5287 2 -1.200000000000 93.295687832021 20.452500000000 23.781253761104
5288 2 -1.200000000000 92.482653515403 21.361500000000 21.342150811247
5289 2 -1.200000000000 93.702204990331 24.088500000000 0.609775737464
5290 2 -1.200000000000 92.889170673712 24.997500000000 22.561702286175
5291 2 -1.200000000000 95.328273623569 22.270500000000 23.781253761104
5292 2 -1.200000000000 94.515239306950 23.179500000000 21.342150811247
5293 1 2.400000000000 100.003220944128 10.908000000000 19.512823598854
5294 1 2.400000000000 100.816255260747 9.999000000000 15.854169174069
5295 1 2.400000000000 101.222772419056 13.635000000000 17.073720648997
5296 1 2.400000000000 103.661875368913 10.908000000000 18.293272123926
5297 2 -1.200000000000 101.426030998211 11.362500000000 17.683496386462
5298 2 -1.200000000000 100.612996681592 12.271500000000 15.244393436605
5299 2 -1.200000000000 103.052099631449 9.544500000000 16.463944911533
5300 2 -1.200000000000 102.239065314830 10.453500000000 14.024841961676
5301 2 -1.200000000000 103.458616789758 13.180500000000 17.683496386462
5302 2 -1.200000000000 102.645582473139 14.089500000000 15.244393436605
5303 2 -1.200000000000 105.084685422996 11.362500000000 16.463944911533
5304 2 -1.200000000000 104.271651106377 12.271500000000 14.024841961676
5305 1 2.400000000000 98.377152310890 12.726000000000 14.634617699141
5306 1 2.400000000000 99.190186627509 11.817000000000 10.975963274355
5307 1 2.400000000000 99.596703785818 15.453000000000 12.195514749284
5308 1 2.400000000000 102.035806735675 12.726000000000 13.415066224212
5309 2 -1.200000000000 99.799962364973 13.180500000000 12.805290486748
5310 2 -1.200000000000 98.986928048354 14.089500000000 10.366187536891
5311 2 -1.200000000000 101.426030998211 11.362500000000 11.585739011820
5312 2 -1.200000000000 100.612996681592 12.271500000000 9.146636061963
5313 2 -1.200000000000 101.832548156520 14.998500000000 12.805290486748
5314 2 -1.200000000000 101.019513839901 15.907500000000 10.366187536891
5315 2 -1.200000000000 103.458616789758 13.180500000000 11.585739011820
5316 2 -1.200000000000 102.645582473139 14.089500000000 9.146636061963
5317 1 2.400000000000 96.751083677652 14.544000000000 9.756411799427
5318 1 2.400000000000 97.564117994271 13.635000000000 6.097757374642
5319 1 2.400000000000 97.970635152580 17.271000000000 7.317308849570
5320 1 2.400000000000 100.409738102437 14.544000000000 8.536860324499
5321 2 -1.200000000000 98.173893731735 14.998500000000 7.927084587035
5322 2 -1.200000000000 97.360859415116 15.907500000000 5.487981637178
5323 2 -1.200000000000 99.799962364973 13.180500000000 6.707533112106
5324 2 -1.200000000000 98.986928048354 14.089500000000 4.268430162249
5325 2 -1.200000000000 100.206479523282 16.816500000000 7.927084587035
5326 2 -1.200000000000 99.393445206663 17.725500000000 5.487981637178
5327 2 -1.200000000000 101.832548156520 14.998500000000 6.707533112106
5328 2 -1.200000000000 101.019513839901 15.907500000000 4.268430162249
5329 1 2.400000000000 95.125015044414 16.362000000000 4.878205899714
5330 1 2.400000000000 95.938049361033 15.453000000000 1.219551474928
5331 1 2.400000000000 96.344566519342 19.089000000000 2.439102949857
5332 1 2.400000000000 98.783669469199 16.362000000000 3.658654424785
5333 2 -1.200000000000 96.547825098497 16.816500000000 3.048878687321
5334 2 -1.200000000000 95.734790781878 17.725500000000 0.609775737464
5335 2 -1.200000000000 98.173893731735 14.998500000000 1.829327212393
5336 2 -1.200000000000 97.360859415116 15.907500000000 23.781253761104
5337 2 -1.200000000000 98.580410890044 18.634500000000 3.048878687321
5338 2 -1.200000000000 97.767376573426 19.543500000000 0.609775737464
5339 2 -1.200000000000 100.206479523282 16.816500000000 1.829327212393
5340 2 -1.200000000000 99.393445206663 17.725500000000 23.781253761104
5341 1 2.400000000000 93.498946411176 18.180000000000 0.000000000000
5342 1 2.400000000000 94.311980727795 17.271000000000 20.732375073783
5343 1 2.400000000000 94.718497886105 20.907000000000 21.951926548711
5344 1 2.400000000000 97.157600835961 18.180000000000 23.171478023639
5345 2 -1.200000000000 94.921756465259 18.634500000000 22.561702286175
5346 2 -1.200000000000 94.108722148640 19.543500000000 20.122599336318
5347 2 -1.200000000000 96.547825098497 16.816500000000 21.342150811247
5348 2 -1.200000000000 95.734790781878 17.725500000000 18.903047861390
5349 2 -1.200000000000 96.954342256807 20.452500000000 22.561702286175
5350 2 -1.200000000000 96.141307940188 21.361500000000 20.122599336318
5351 2 -1.200000000000 98.580410890044 18.634500000000 21.342150811247
5352 2 -1.200000000000 97.767376573426 19.543500000000 18.903047861390
5353 1 2.400000000000 104.881426843841 5.454000000000 21.951926548711
5354 1 2.400000000000 105.694461160460 4.545000000000 18.293272123926
5355 1 2.400000000000 106.100978318770 8.181000000000 19.512823598854
5356 1 2.400000000000 108.540081268626 5.454000000000 20.732375073783
5357 2 -1.200000000000 106.304236897924 5.908500000000 20.122599336318
5358 2 -1.200000000000 105.491202581305 6.817500000000 17.683496386462
5359 2 -1.200000000000 107.930305531162 4.090500000000 18.903047861390
5360 2 -1.200000000000 107.117271214543 4.999500000000 16.463944911533
5361 2 -1.200000000000 108.336822689472 7.726500000000 20.122599336318
5362 2 -1.200000000000 107.523788372853 8.635500000000 17.683496386462
5363 2 -1.200000000000 109.962891322709 5.908500000000 18.903047861390
5364 2 -1.200000000000 109.149857006090 6.817500000000 16.463944911533
5365 1 2.400000000000 103.255358210603 7.272000000000 17.073720648997
5366 1 2.400000000000 104.068392527222 6.363000000000 13.415066224212
5367 1 2.400000000000 104.474909685532 9.999000000000 14.634617699141
5368 1 2.400000000000 106.914012635388 7.272000000000 15.854169174069
5369 2 -1.200000000000 104.678168264686 7.726500000000 15.244393436605
5370 2 -1.200000000000 103.865133948067 8.635500000000 12.805290486748
5371 2 -1.200000000000 106.304236897924 5.908500000000 14.024841961676
5372 2 -1.200000000000 105.491202581305 6.817500000000 11.585739011820
5373 2 -1.200000000000 106.710754056234 9.544500000000 15.244393436605
5374 2 -1.200000000000 105.897719739615 10.453500000000 12.805290486748
5375 2 -1.200000000000 108.336822689472 7.726500000000 14.024841961676
5376 2 -1.200000000000 107.523788372853 8.635500000000 11.585739011820
5377 1 2.400000000000 101.629289577365 9.090000000000 12.195514749284
5378 1 2.400000000000 102.442323893984 8.181000000000 8.536860324499
5379 1 2.400000000000 102.848841052294 11.817000000000 9.756411799427
5380 1 2.400000000000 105.287944002151 9.090000000000 10.975963274355
5381 2 -1.200000000000 103.052099631449 9.544500000000 10.366187536891
5382 2 -1.200000000000 102.239065314830 10.453500000000 7.927084587035
5383 2 -1.200000000000 104.678168264686 7.726500000000 9.146636061963
5384 2 -1.200000000000 103.865133948067 8.635500000000 6.707533112106
5385 2 -1.200000000000 105.084685422996 11.362500000000 10.366187536891
5386 2 -1.200000000000 104.271651106377 12.271500000000 7.927084587035
5387 2 -1.200000000000 106.710754056234 9.544500000000 9.146636061963
5388 2 -1.200000000000 105.897719739615 10.453500000000 6.707533112106
5389 1 2.400000000000 100.003220944128 10.908000000000 7.317308849570
5390 1 2.400000000000 100.816255260747 9.999000000000 3.658654424785
5391 1 2.400000000000 101.222772419056 13.635000000000 4.878205899714
5392 1 2.400000000000 103.661875368913 10.908000000000 6.097757374642
5393 2 -1.200000000000 101.426030998211 11.362500000000 5.487981637178
5394 2 -1.200000000000 100.612996681592 12.271500000000 3.048878687321
5395 2 -1.200000000000 103.052099631449 9.544500000000 4.268430162249
5396 2 -1.200000000000 102.239065314830 10.453500000000 1.829327212393
5397 2 -1.200000000000 103.458616789758 13.180500000000 5.487981637178
5398 2 -1.200000000000 102.645582473139 14.089500000000 3.048878687321
5399 2 -1.200000000000 105.084685422996 11.362500000000 4.268430162249
5400 2 -1.200000000000 104.271651106377 12.271500000000 1.829327212393
5401 1 2.400000000000 98.377152310890 12.726000000000 2.439102949857
5402 1 2.400000000000 99.190186627509 11.817000000000 23.171478023639
5403 1 2.400000000000 99.596703785818 15.453000000000 0.000000000000
5404 1 2.400000000000 102.035806735675 12.726000000000 1.219551474928
5405 2 -1.200000000000 99.799962364973 13.180500000000 0.609775737464
5406 2 -1.200000000000 98.986928048354 14.089500000000 22.561702286175
5407 2 -1.200000000000 101.426030998211 11.362500000000 23.781253761104
5408 2 -1.200000000000 100.612996681592 12.271500000000 21.342150811247
5409 2 -1.200000000000 101.832548156520 14.998500000000 0.609775737464
5410 2 -1.200000000000 101.019513839901 15.907500000000 22.561702286175
5411 2 -1.200000000000 103.458616789758 13.180500000000 23.781253761104
5412 2 -1.200000000000 102.645582473139 14.089500000000 21.342150811247
5413 1 2.400000000000 108.133564110317 1.818000000000 19.512823598854
5414 1 2.400000000000 108.946598426936 0.909000000000 15.854169174069
5415 1 2.400000000000 109.353115585245 4.545000000000 17.073720648997
5416 1 2.400000000000 111.792218535102 1.818000000000 18.293272123926
5417 2 -1.200000000000 109.556374164400 2.272500000000 17.683496386462
5418 2 -1.200000000000 108.743339847781 3.181500000000 15.244393436605
5419 2 -1.200000000000 111.182442797638 0.454500000000 16.463944911533
5420 2 -1.200000000000 110.369408481019 1.363500000000 14.024841961676
5421 2 -1.200000000000 111.588959955947 4.090500000000 17.683496386462
5422 2 -1.200000000000 110.775925639328 4.999500000000 15.244393436605
5423 2 -1.200000000000 113.215028589185 2.272500000000 16.463944911533
5424 2 -1.200000000000 112.401994272566 3.181500000000 14.024841961676
5425 1 2.400000000000 106.507495477079 3.636000000000 14.634617699141
5426 1 2.400000000000 107.320529793698 2.727000000000 10.975963274355
5427 1 2.400000000000 107.727046952007 6.363000000000 12.195514749284
5428 1 2.400000000000 110.166149901864 3.636000000000 13.415066224212
5429 2 -1.200000000000 107.930305531162 4.090500000000 12.805290486748
5430 2 -1.200000000000 107.117271214543 4.999500000000 10.366187536891
5431 2 -1.200000000000 109.556374164400 2.272500000000 11.585739011820
5432 2 -1.200000000000 108.743339847781 3.181500000000 9.146636061963
5433 2 -1.200000000000 109.962891322709 5.908500000000 12.805290486748
5434 2 -1.200000000000 109.149857006090 6.817500000000 10.366187536891
5435 2 -1.200000000000 111.588959955947 4.090500000000 11.585739011820
5436 2 -1.200000000000 110.775925639328 4.999500000000 9.146636061963
5437 1 2.400000000000 104.881426843841 5.454000000000 9.756411799427
5438 1 2.400000000000 105.694461160460 4.545000000000 6.097757374642
5439 1 2.400000000000 106.100978318770 8.181000000000 7.317308849570
5440 1 2.400000000000 108.540081268626 5.454000000000 8.536860324499
5441 2 -1.200000000000 106.304236897924 5.908500000000 7.927084587035
5442 2 -1.200000000000 105.491202581305 6.817500000000 5.487981637178
5443 2 -1.200000000000 107.930305531162 4.090500000000 6.707533112106
5444 2 -1.200000000000 107.117271214543 4.999500000000 4.268430162249
5445 2 -1.200000000000 108.336822689472 7.726500000000 7.927084587035
5446 2 -1.200000000000 107.523788372853 8.635500000000 5.487981637178
5447 2 -1.200000000000 109.962891322709 5.908500000000 6.707533112106
5448 2 -1.200000000000 109.149857006090 6.817500000000 4.268430162249
5449 1 2.400000000000 103.255358210603 7.272000000000 4.878205899714
5450 1 2.400000000000 104.068392527222 6.363000000000 1.219551474928
5451 1 2.400000000000 104.474909685532 9.999000000000 2.439102949857
5452 1 2.400000000000 106.914012635388 7.272000000000 3.658654424785
5453 2 -1.200000000000 104.678168264686 7.726500000000 3.048878687321
5454 2 -1.200000000000 103.865133948067 8.635500000000 0.609775737464
5455 2 -1.200000000000 106.304236897924 5.908500000000 1.829327212393
5456 2 -1.200000000000 105.491202581305 6.817500000000 23.781253761104
5457 2 -1.200000000000 106.710754056234 9.544500000000 3.048878687321
5458 2 -1.200000000000 105.897719739615 10.453500000000 0.609775737464
5459 2 -1.200000000000 108.336822689472 7.726500000000 1.829327212393
5460 2 -1.200000000000 107.523788372853 8.635500000000 23.781253761104
5461 1 2.400000000000 101.629289577365 9.090000000000 0.000000000000
5462 1 2.400000000000 102.442323893984 8.181000000000 20.732375073783
5463 1 2.400000000000 102.848841052294 11.817000000000 21.951926548711
5464 1 2.400000000000 105.287944002151 9.090000000000 23.171478023639
5465 2 -1.200000000000 103.052099631449 9.544500000000 22.561702286175
5466 2 -1.200000000000 102.239065314830 10.453500000000 20.122599336318
5467 2 -1.200000000000 104.678168264686 7.726500000000 21.342150811247
5468 2 -1.200000000000 103.865133948067 8.635500000000 18.903047861390
5469 2 -1.200000000000 105.084685422996 11.362500000000 22.561702286175
5470 2 -1.200000000000 104.271651106377 12.271500000000 20.122599336318
5471 2 -1.200000000000 106.710754056234 9.544500000000 21.342150811247
5472 2 -1.200000000000 105.897719739615 10.453500000000 18.903047861390
5473 1 2.400000000000 109.759632743555 0.000000000000 12.195514749284
5474 1 2.400000000000 110.572667060174 31.815000000000 8.536860324499
5475 1 2.400000000000 110.979184218483 2.727000000000 9.756411799427
5476 1 2.400000000000 113.418287168340 0.000000000000 10.975963274355
5477 2 -1.200000000000 111.182442797638 0.454500000000 10.366187536891
5478 2 -1.200000000000 110.369408481019 1.363500000000 7.927084587035
5479 2 -1.200000000000 112.808511430876 31.360500000000 9.146636061963
5480 2 -1.200000000000 111.995477114257 32.269500000000 6.707533112106
5481 2 -1.200000000000 113.215028589185 2.272500000000 10.366187536891
5482 2 -1.200000000000 112.401994272566 3.181500000000 7.927084587035
5483 2 -1.200000000000 114.841097222423 0.454500000000 9.146636061963
5484 2 -1.200000000000 114.028062905804 1.363500000000 6.707533112106
5485 1 2.400000000000 108.133564110317 1.818000000000 7.317308849570
5486 1 2.400000000000 108.946598426936 0.909000000000 3.658654424785
5487 1 2.400000000000 109.353115585245 4.545000000000 4.878205899714
5488 1 2.400000000000 111.792218535102 1.818000000000 6.097757374642
5489 2 -1.200000000000 109.556374164400 2.272500000000 5.487981637178
5490 2 -1.200000000000 108.743339847781 3.181500000000 3.048878687321
5491 2 -1.200000000000 111.182442797638 0.454500000000 4.268430162249
5492 2 -1.200000000000 110.369408481019 1.363500000000 1.829327212393
5493 2 -1.200000000000 111.588959955947 4.090500000000 5.487981637178
5494 2 -1.200000000000 110.775925639328 4.999500000000 3.048878687321
5495 2 -1.200000000000 113.215028589185 2.272500000000 4.268430162249
5496 2 -1.200000000000 112.401994272566 3.181500000000 1.829327212393
5497 1 2.400000000000 106.507495477079 3.636000000000 2.439102949857
5498 1 2.400000000000 107.320529793698 2.727000000000 23.171478023639
5499 1 2.400000000000 107.727046952007 6.363000000000 0.000000000000
5500 1 2.400000000000 110.166149901864 3.636000000000 1.219551474928
5501 2 -1.200000000000 107.930305531162 4.090500000000 0.609775737464
5502 2 -1.200000000000 107.117271214543 4.999500000000 22.561702286175
5503 2 -1.200000000000 109.556374164400 2.272500000000 23.781253761104
5504 2 -1.200000000000 108.743339847781 3.181500000000 21.342150811247
5505 2 -1.200000000000 109.962891322709 5.908500000000 0.609775737464
5506 2 -1.200000000000 109.149857006090 6.817500000000 22.561702286175
5507 2 -1.200000000000 111.588959955947 4.090500000000 23.781253761104
5508 2 -1.200000000000 110.775925639328 4.999500000000 21.342150811247
5509 1 2.400000000000 109.759632743555 0.000000000000 0.000000000000
5510 1 2.400000000000 110.572667060174 31.815000000000 20.732375073783
5511 1 2.400000000000 110.979184218483 2.727000000000 21.951926548711
5512 1 2.400000000000 113.418287168340 0.000000000000 23.171478023639
5513 2 -1.200000000000 111.182442797638 0.454500000000 22.561702286175
5514 2 -1.200000000000 110.369408481019 1.363500000000 20.122599336318
5515 2 -1.200000000000 112.808511430876 31.360500000000 21.342150811247
5516 2 -1.200000000000 111.995477114257 32.269500000000 18.903047861390
5517 2 -1.200000000000 113.215028589185 2.272500000000 22.561702286175
5518 2 -1.200000000000 112.401994272566 3.181500000000 20.122599336318
5519 2 -1.200000000000 114.841097222423 0.454500000000 21.342150811247
5520 2 -1.200000000000 114.028062905804 1.363500000000 18.903047861390
5521 1 2.400000000000 92.685912094557 27.270000000000 21.951926548711
5522 1 2.400000000000 93.498946411176 26.361000000000 18.293272123926
5523 1 2.400000000000 93.905463569486 29.997000000000 19.512823598854
5524 1 2.400000000000 96.344566519342 27.270000000000 20.732375073783
5525 2 -1.200000000000 94.108722148640 27.724500000000 20.122599336318
5526 2 -1.200000000000 93.295687832021 28.633500000000 17.683496386462
5527 2 -1.200000000000 95.734790781878 25.906500000000 18.903047861390
5528 2 -1.200000000000 94.921756465259 26.815500000000 16.463944911533
5529 2 -1.200000000000 96.141307940188 29.542500000000 20.122599336318
5530 2 -1.200000000000 95.328273623569 30.451500000000 17.683496386462
5531 2 -1.200000000000 97.767376573426 27.724500000000 18.903047861390
5532 2 -1.200000000000 96.954342256807 28.633500000000 16.463944911533
5533 1 2.400000000000 91.059843461319 29.088000000000 17.073720648997
5534 1 2.400000000000 91.872877777938 28.179000000000 13.415066224212
5535 1 2.400000000000 92.279394936248 31.815000000000 14.634617699141
5536 1 2.400000000000 94.718497886105 29.088000000000 15.854169174069
5537 2 -1.200000000000 92.482653515403 29.542500000000 15.244393436605
5538 2 -1.200000000000 91.669619198784 30.451500000000 12.805290486748
5539 2 -1.200000000000 94.108722148640 27.724500000000 14.024841961676
5540 2 -1.200000000000 93.295687832021 28.633500000000 11.585739011820
5541 2 -1.200000000000 94.515239306950 31.360500000000 15.244393436605
5542 2 -1.200000000000 93.702204990331 32.269500000000 12.805290486748
5543 2 -1.200000000000 96.141307940188 29.542500000000 14.024841961676
5544 2 -1.200000000000 95.328273623569 30.451500000000 11.585739011820
5545 1 2.400000000000 89.433774828082 30.906000000000 12.195514749284
5546 1 2.400000000000 90.246809144701 29.997000000000 8.536860324499
5547 1 2.400000000000 90.653326303010 0.909000000000 9.756411799427
5548 1 2.400000000000 93.092429252867 30.906000000000 10.975963274355
5549 2 -1.200000000000 90.856584882165 31.360500000000 10.366187536891
5550 2 -1.200000000000 90.043550565546 32.269500000000 7.927084587035
5551 2 -1.200000000000 92.482653515403 29.542500000000 9.146636061963
5552 2 -1.200000000000 91.669619198784 30.451500000000 6.707533112106
5553 2 -1.200000000000 92.889170673712 0.454500000000 10.366187536891
5554 2 -1.200000000000 92.076136357093 1.363500000000 7.927084587035
5555 2 -1.200000000000 94.515239306950 31.360500000000 9.146636061963
5556 2 -1.200000000000 93.702204990331 32.269500000000 6.707533112106
5557 1 2.400000000000 95.938049361033 23.634000000000 19.512823598854
5558 1 2.400000000000 96.751083677652 22.725000000000 15.854169174069
5559 1 2.400000000000 97.157600835961 26.361000000000 17.073720648997
5560 1 2.400000000000 99.596703785818 23.634000000000 18.293272123926
5561 2 -1.200000000000 97.360859415116 24.088500000000 17.683496386462
5562 2 -1.200000000000 96.547825098497 24.997500000000 15.244393436605
5563 2 -1.200000000000 98.986928048354 22.270500000000 16.463944911533
5564 2 -1.200000000000 98.173893731735 23.179500000000 14.024841961676
5565 2 -1.200000000000 99.393445206663 25.906500000000 17.683496386462
5566 2 -1.200000000000 98.580410890044 26.815500000000 15.244393436605
5567 2 -1.200000000000 101.019513839901 24.088500000000 16.463944911533
5568 2 -1.200000000000 100.206479523282 24.997500000000 14.024841961676
5569 1 2.400000000000 94.311980727795 25.452000000000 14.634617699141
5570 1 2.400000000000 95.125015044414 24.543000000000 10.975963274355
5571 1 2.400000000000 95.531532202723 28.179000000000 12.195514749284
5572 1 2.400000000000 97.970635152580 25.452000000000 13.415066224212
5573 2 -1.200000000000 95.734790781878 25.906500000000 12.805290486748
5574 2 -1.200000000000 94.921756465259 26.815500000000 10.366187536891
5575 2 -1.200000000000 97.360859415116 24.088500000000 11.585739011820
5576 2 -1.200000000000 96.547825098497 24.997500000000 9.146636061963
5577 2 -1.200000000000 97.767376573426 27.724500000000 12.805290486748
5578 2 -1.200000000000 96.954342256807 28.633500000000 10.366187536891
5579 2 -1.200000000000 99.393445206663 25.906500000000 11.585739011820
5580 2 -1.200000000000 98.580410890044 26.815500000000 9.146636061963
5581 1 2.400000000000 92.685912094557 27.270000000000 9.756411799427
5582 1 2.400000000000 93.498946411176 26.361000000000 6.097757374642
5583 1 2.400000000000 93.905463569486 29.997000000000 7.317308849570
5584 1 2.400000000000 96.344566519342 27.270000000000 8.536860324499
5585 2 -1.200000000000 94.108722148640 27.724500000000 7.927084587035
5586 2 -1.200000000000 93.295687832021 28.633500000000 5.487981637178
5587 2 -1.200000000000 95.734790781878 25.906500000000 6.707533112106
5588 2 -1.200000000000 94.921756465259 26.815500000000 4.268430162249
5589 2 -1.200000000000 96.141307940188 29.542500000000 7.927084587035
5590 2 -1.200000000000 95.328273623569 30.451500000000 5.487981637178
5591 2 -1.200000000000 97.767376573426 27.724500000000 6.707533112106
5592 2 -1.200000000000 96.954342256807 28.633500000000 4.268430162249
5593 1 2.400000000000 91.059843461319 29.088000000000 4.878205899714
5594 1 2.400000000000 91.872877777938 28.179000000000 1.219551474928
5595 1 2.400000000000 92.279394936248 31.815000000000 2.439102949857
5596 1 2.400000000000 94.718497886105 29.088000000000 3.658654424785
5597 2 -1.200000000000 92.482653515403 29.542500000000 3.048878687321
5598 2 -1.200000000000 91.669619198784 30.451500000000 0.609775737464
5599 2 -1.200000000000 94.108722148640 27.724500000000 1.829327212393
5600 2 -1.200000000000 93.295687832021 28.633500000000 23.781253761104
5601 2 -1.200000000000 94.515239306950 31.360500000000 3.048878687321
5602 2 -1.200000000000 93.702204990331 32.269500000000 0.609775737464
5603 2 -1.200000000000 96.141307940188 29.542500000000 1.829327212393
5604 2 -1.200000000000 95.328273623569 30.451500000000 23.781253761104
5605 1 2.400000000000 89.433774828082 30.906000000000 0.000000000000
5606 1 2.400000000000 90.246809144701 29.997000000000 20.732375073783
5607 1 2.400000000000 90.653326303010 0.909000000000 21.951926548711
5608 1 2.400000000000 93.092429252867 30.906000000000 23.171478023639
5609 2 -1.200000000000 90.856584882165 31.360500000000 22.561702286175
5610 2 -1.200000000000 90.043550565546 32.269500000000 20.122599336318
5611 2 -1.200000000000 92.482653515403 29.542500000000 21.342150811247
5612 2 -1.200000000000 91.669619198784 30.451500000000 18.903047861390
5613 2 -1.200000000000 92.889170673712 0.454500000000 22.561702286175
5614 2 -1.200000000000 92.076136357093 1.363500000000 20.122599336318
5615 2 -1.200000000000 94.515239306950 31.360500000000 21.342150811247
5616 2 -1.200000000000 93.702204990331 32.269500000000 18.903047861390
5617 1 2.400000000000 100.816255260747 18.180000000000 21.951926548711
5618 1 2.400000000000 101.629289577365 17.271000000000 18.293272123926
5619 1 2.400000000000 102.035806735675 20.907000000000 19.512823598854
5620 1 2.400000000000 104.474909685532 18.180000000000 20.732375073783
5621 2 -1.200000000000 102.239065314830 18.634500000000 20.122599336318
5622 2 -1.200000000000 101.426030998211 19.543500000000 17.683496386462
5623 2 -1.200000000000 103.865133948067 16.816500000000 18.903047861390
5624 2 -1.200000000000 103.052099631449 17.725500000000 16.463944911533
5625 2 -1.200000000000 104.271651106377 20.452500000000 20.122599336318
5626 2 -1.200000000000 103.458616789758 21.361500000000 17.683496386462
5627 2 -1.200000000000 105.897719739615 18.634500000000 18.903047861390
5628 2 -1.200000000000 105.084685422996 19.543500000000 16.463944911533
5629 1 2.400000000000 99.190186627509 19.998000000000 17.073720648997
5630 1 2.400000000000 100.003220944128 19.089000000000 13.415066224212
5631 1 2.400000000000 100.409738102437 22.725000000000 14.634617699141
5632 1 2.400000000000 102.848841052294 19.998000000000 15.854169174069
5633 2 -1.200000000000 100.612996681592 20.452500000000 15.244393436605
5634 2 -1.200000000000 99.799962364973 21.361500000000 12.805290486748
5635 2 -1.200000000000 102.239065314830 18.634500000000 14.024841961676
5636 2 -1.200000000000 101.426030998211 19.543500000000 11.585739011820
5637 2 -1.200000000000 102.645582473139 22.270500000000 15.244393436605
5638 2 -1.200000000000 101.832548156520 23.179500000000 12.805290486748
5639 2 -1.200000000000 104.271651106377 20.452500000000 14.024841961676
5640 2 -1.200000000000 103.458616789758 21.361500000000 11.585739011820
5641 1 2.400000000000 97.564117994271 21.816000000000 12.195514749284
5642 1 2.400000000000 98.377152310890 20.907000000000 8.536860324499
5643 1 2.400000000000 98.783669469199 24.543000000000 9.756411799427
5644 1 2.400000000000 101.222772419056 21.816000000000 10.975963274355
5645 2 -1.200000000000 98.986928048354 22.270500000000 10.366187536891
5646 2 -1.200000000000 98.173893731735 23.179500000000 7.927084587035
5647 2 -1.200000000000 100.612996681592 20.452500000000 9.146636061963
5648 2 -1.200000000000 99.799962364973 21.361500000000 6.707533112106
5649 2 -1.200000000000 101.019513839901 24.088500000000 10.366187536891
5650 2 -1.200000000000 100.206479523282 24.997500000000 7.927084587035
5651 2 -1.200000000000 102.645582473139 22.270500000000 9.146636061963
5652 2 -1.200000000000 101.832548156520 23.179500000000 6.707533112106
5653 1 2.400000000000 95.938049361033 23.634000000000 7.317308849570
5654 1 2.400000000000 96.751083677652 22.725000000000 3.658654424785
5655 1 2.400000000000 97.157600835961 26.361000000000 4.878205899714
5656 1 2.400000000000 99.596703785818 23.634000000000 6.097757374642
5657 2 -1.200000000000 97.360859415116 24.088500000000 5.487981637178
5658 2 -1.200000000000 96.547825098497 24.997500000000 3.048878687321
5659 2 -1.200000000000 98.986928048354 22.270500000000 4.268430162249
5660 2 -1.200000000000 98.173893731735 23.179500000000 1.829327212393
5661 2 -1.200000000000 99.393445206663 25.906500000000 5.487981637178
5662 2 -1.200000000000 98.580410890044 26.815500000000 3.048878687321
5663 2 -1.200000000000 101.019513839901 24.088500000000 4.268430162249
5664 2 -1.200000000000 100.206479523282 24.997500000000 1.829327212393
5665 1 2.400000000000 94.311980727795 25.452000000000 2.439102949857
5666 1 2.400000000000 95.125015044414 24.543000000000 23.171478023639
5667 1 2.400000000000 95.531532202723 28.179000000000 0.000000000000
5668 1 2.400000000000 97.970635152580 25.452000000000 1.219551474928
5669 2 -1.200000000000 95.734790781878 25.906500000000 0.609775737464
5670 2 -1.200000000000 94.921756465259 26.815500000000 22.561702286175
5671 2 -1.200000000000 97.360859415116 24.088500000000 23.781253761104
5672 2 -1.200000000000 96.547825098497 24.997500000000 21.342150811247
5673 2 -1.200000000000 97.767376573426 27.724500000000 0.609775737464
5674 2 -1.200000000000 96.954342256807 28.633500000000 22.561702286175
5675 2 -1.200000000000 99.393445206663 25.906500000000 23.781253761104
5676 2 -1.200000000000 98.580410890044 26.815500000000 21.342150811247
5677 1 2.400000000000 104.068392527222 14.544000000000 19.512823598854
5678 1 2.400000000000 104.881426843841 13.635000000000 15.854169174069
5679 1 2.400000000000 105.287944002151 17.271000000000 17.073720648997
5680 1 2.400000000000 107.727046952007 14.544000000000 18.293272123926
5681 2 -1.200000000000 105.491202581305 14.998500000000 17.683496386462
5682 2 -1.200000000000 104.678168264686 15.907500000000 15.244393436605
5683 2 -1.200000000000 107.117271214543 13.180500000000 16.463944911533
5684 2 -1.200000000000 106.304236897924 14.089500000000 14.024841961676
5685 2 -1.200000000000 107.523788372853 16.816500000000 17.683496386462
5686 2 -1.200000000000 106.710754056234 17.725500000000 15.244393436605
5687 2 -1.200000000000 109.149857006090 14.998500000000 16.463944911533
5688 2 -1.200000000000 108.336822689472 15.907500000000 14.024841961676
5689 1 2.400000000000 102.442323893984 16.362000000000 14.634617699141
5690 1 2.400000000000 103.255358210603 15.453000000000 10.975963274355
5691 1 2.400000000000 103.661875368913 19.089000000000 12.195514749284
5692 1 2.400000000000 106.100978318770 16.362000000000 13.415066224212
5693 2 -1.200000000000 103.865133948067 16.816500000000 12.805290486748
5694 2 -1.200000000000 103.052099631449 17.725500000000 10.366187536891
5695 2 -1.200000000000 105.491202581305 14.998500000000 11.585739011820
5696 2 -1.200000000000 104.678168264686 15.907500000000 9.146636061963
5697 2 -1.200000000000 105.897719739615 18.634500000000 12.805290486748
5698 2 -1.200000000000 105.084685422996 19.543500000000 10.366187536891
5699 2 -1.200000000000 107.523788372853 16.816500000000 11.585739011820
5700 2 -1.200000000000 106.710754056234 17.725500000000 9.146636061963
5701 1 2.400000000000 100.816255260747 18.180000000000 9.756411799427
5702 1 2.400000000000 101.629289577365 17.271000000000 6.097757374642
5703 1 2.400000000000 102.035806735675 20.907000000000 7.317308849570
5704 1 2.400000000000 104.474909685532 18.180000000000 8.536860324499
5705 2 -1.200000000000 102.239065314830 18.634500000000 7.927084587035
5706 2 -1.200000000000 101.426030998211 19.543500000000 5.487981637178
5707 2 -1.200000000000 103.865133948067 16.816500000000 6.707533112106
5708 2 -1.200000000000 103.052099631449 17.725500000000 4.268430162249
5709 2 -1.200000000000 104.271651106377 20.452500000000 7.927084587035
5710 2 -1.200000000000 103.458616789758 21.361500000000 5.487981637178
5711 2 -1.200000000000 105.897719739615 18.634500000000 6.707533112106
5712 2 -1.200000000000 105.084685422996 19.543500000000 4.268430162249
5713 1 2.400000000000 99.190186627509 19.998000000000 4.878205899714
5714 1 2.400000000000 100.003220944128 19.089000000000 1.219551474928
5715 1 2.400000000000 100.409738102437 22.725000000000 2.439102949857
5716 1 2.400000000000 102.848841052294 19.998000000000 3.658654424785
5717 2 -1.200000000000 100.612996681592 20.452500000000 3.048878687321
5718 2 -1.200000000000 99.799962364973 21.361500000000 0.609775737464
5719 2 -1.200000000000 102.239065314830 18.634500000000 1.829327212393
5720 2 -1.200000000000 101.426030998211 19.543500000000 23.781253761104
5721 2 -1.200000000000 102.645582473139 22.270500000000 3.048878687321
5722 2 -1.200000000000 101.832548156520 23.179500000000 0.609775737464
5723 2 -1.200000000000 104.271651106377 20.452500000000 1.829327212393
5724 2 -1.200000000000 103.458616789758 21.361500000000 23.781253761104
5725 1 2.400000000000 97.564117994271 21.816000000000 0.000000000000
5726 1 2.400000000000 98.377152310890 20.907000000000 20.732375073783
5727 1 2.400000000000 98.783669469199 24.543000000000 21.951926548711
5728 1 2.400000000000 101.222772419056 21.816000000000 23.171478023639
5729 2 -1.200000000000 98.986928048354 22.270500000000 22.561702286175
5730 2 -1.200000000000 98.173893731735 23.179500000000 20.122599336318
5731 2 -1.200000000000 100.612996681592 20.452500000000 21.342150811247
5732 2 -1.200000000000 99.799962364973 21.361500000000 18.903047861390
5733 2 -1.200000000000 101.019513839901 24.088500000000 22.561702286175
5734 2 -1.200000000000 100.206479523282 24.997500000000 20.122599336318
5735 2 -1.200000000000 102.645582473139 22.270500000000 21.342150811247
5736 2 -1.200000000000 101.832548156520 23.179500000000 18.903047861390
5737 1 2.400000000000 108.946598426936 9.090000000000 21.951926548711
5738 1 2.400000000000 109.759632743555 8.181000000000 18.293272123926
5739 1 2.400000000000 110.166149901864 11.817000000000 19.512823598854
5740 1 2.400000000000 112.605252851721 9.090000000000 20.732375073783
5741 2 -1.200000000000 110.369408481019 9.544500000000 20.122599336318
5742 2 -1.200000000000 109.556374164400 10.453500000000 17.683496386462
5743 2 -1.200000000000 111.995477114257 7.726500000000 18.903047861390
5744 2 -1.200000000000 111.182442797638 8.635500000000 16.463944911533
5745 2 -1.200000000000 112.401994272566 11.362500000000 20.122599336318
5746 2 -1.200000000000 111.588959955947 12.271500000000 17.683496386462
5747 2 -1.200000000000 114.028062905804 9.544500000000 18.903047861390
5748 2 -1.200000000000 113.215028589185 10.453500000000 16.463944911533
5749 1 2.400000000000 107.320529793698 10.908000000000 17.073720648997
5750 1 2.400000000000 108.133564110317 9.999000000000 13.415066224212
5751 1 2.400000000000 108.540081268626 13.635000000000 14.634617699141
5752 1 2.400000000000 110.979184218483 10.908000000000 15.854169174069
5753 2 -1.200000000000 108.743339847781 11.362500000000 15.244393436605
5754 2 -1.200000000000 107.930305531162 12.271500000000 12.805290486748
5755 2 -1.200000000000 110.369408481019 9.544500000000 14.024841961676
5756 2 -1.200000000000 109.556374164400 10.453500000000 11.585739011820
5757 2 -1.200000000000 110.775925639328 13.180500000000 15.244393436605
5758 2 -1.200000000000 109.962891322709 14.089500000000 12.805290486748
5759 2 -1.200000000000 112.401994272566 11.362500000000 14.024841961676
5760 2 -1.200000000000 111.588959955947 12.271500000000 11.585739011820
5761 1 2.400000000000 105.694461160460 12.726000000000 12.195514749284
5762 1 2.400000000000 106.507495477079 11.817000000000 8.536860324499
5763 1 2.400000000000 106.914012635388 15.453000000000 9.756411799427
5764 1 2.400000000000 109.353115585245 12.726000000000 10.975963274355
5765 2 -1.200000000000 107.117271214543 13.180500000000 10.366187536891
5766 2 -1.200000000000 106.304236897924 14.089500000000 7.927084587035
5767 2 -1.200000000000 108.743339847781 11.362500000000 9.146636061963
5768 2 -1.200000000000 107.930305531162 12.271500000000 6.707533112106
5769 2 -1.200000000000 109.149857006090 14.998500000000 10.366187536891
5770 2 -1.200000000000 108.336822689472 15.907500000000 7.927084587035
5771 2 -1.200000000000 110.775925639328 13.180500000000 9.146636061963
5772 2 -1.200000000000 109.962891322709 14.089500000000 6.707533112106
5773 1 2.400000000000 104.068392527222 14.544000000000 7.317308849570
5774 1 2.400000000000 104.881426843841 13.635000000000 3.658654424785
5775 1 2.400000000000 105.287944002151 17.271000000000 4.878205899714
5776 1 2.400000000000 107.727046952007 14.544000000000 6.097757374642
5777 2 -1.200000000000 105.491202581305 14.998500000000 5.487981637178
5778 2 -1.200000000000 104.678168264686 15.907500000000 3.048878687321
5779 2 -1.200000000000 107.117271214543 13.180500000000 4.268430162249
5780 2 -1.200000000000 106.304236897924 14.089500000000 1.829327212393
5781 2 -1.200000000000 107.523788372853 16.816500000000 5.487981637178
5782 2 -1.200000000000 106.710754056234 17.725500000000 3.048878687321
5783 2 -1.200000000000 109.149857006090 14.998500000000 4.268430162249
5784 2 -1.200000000000 108.336822689472 15.907500000000 1.829327212393
5785 1 2.400000000000 102.442323893984 16.362000000000 2.439102949857
5786 1 2.400000000000 103.255358210603 15.453000000000 23.171478023639
5787 1 2.400000000000 103.661875368913 19.089000000000 0.000000000000
5788 1 2.400000000000 106.100978318770 16.362000000000 1.219551474928
5789 2 -1.200000000000 103.865133948067 16.816500000000 0.609775737464
5790 2 -1.200000000000 103.052099631449 17.725500000000 22.561702286175
5791 2 -1.200000000000 105.491202581305 14.998500000000 23.781253761104
5792 2 -1.200000000000 104.678168264686 15.907500000000 21.342150811247
5793 2 -1.200000000000 105.897719739615 18.634500000000 0.609775737464
5794 2 -1.200000000000 105.084685422996 19.543500000000 22.561702286175
5795 2 -1.200000000000 107.523788372853 16.816500000000 23.781253761104
5796 2 -1.200000000000 106.710754056234 17.725500000000 21.342150811247
5797 1 2.400000000000 112.198735693411 5.454000000000 19.512823598854
5798 1 2.400000000000 113.011770010030 4.545000000000 15.854169174069
5799 1 2.400000000000 113.418287168340 8.181000000000 17.073720648997
5800 1 2.400000000000 115.857390118197 5.454000000000 18.293272123926
5801 2 -1.200000000000 113.621545747495 5.908500000000 17.683496386462
5802 2 -1.200000000000 112.808511430876 6.817500000000 15.244393436605
5803 2 -1.200000000000 115.247614380732 4.090500000000 16.463944911533
5804 2 -1.200000000000 114.434580064113 4.999500000000 14.024841961676
5805 2 -1.200000000000 115.654131539042 7.726500000000 17.683496386462
5806 2 -1.200000000000 114.841097222423 8.635500000000 15.244393436605
5807 2 -1.200000000000 117.280200172280 5.908500000000 16.463944911533
5808 2 -1.200000000000 116.467165855661 6.817500000000 14.024841961676
5809 1 2.400000000000 110.572667060174 7.272000000000 14.634617699141
5810 1 2.400000000000 111.385701376793 6.363000000000 10.975963274355
5811 1 2.400000000000 111.792218535102 9.999000000000 12.195514749284
5812 1 2.400000000000 114.231321484959 7.272000000000 13.415066224212
5813 2 -1.200000000000 111.995477114257 7.726500000000 12.805290486748
5814 2 -1.200000000000 111.182442797638 8.635500000000 10.366187536891
5815 2 -1.200000000000 113.621545747495 5.908500000000 11.585739011820
5816 2 -1.200000000000 112.808511430876 6.817500000000 9.146636061963
5817 2 -1.200000000000 114.028062905804 9.544500000000 12.805290486748
5818 2 -1.200000000000 113.215028589185 10.453500000000 10.366187536891
5819 2 -1.200000000000 115.654131539042 7.726500000000 11.585739011820
5820 2 -1.200000000000 114.841097222423 8.635500000000 9.146636061963
5821 1 2.400000000000 108.946598426936 9.090000000000 9.756411799427
5822 1 2.400000000000 109.759632743555 8.181000000000 6.097757374642
5823 1 2.400000000000 110.166149901864 11.817000000000 7.317308849570
5824 1 2.400000000000 112.605252851721 9.090000000000 8.536860324499
5825 2 -1.200000000000 110.369408481019 9.544500000000 7.927084587035
5826 2 -1.200000000000 109.556374164400 10.453500000000 5.487981637178
5827 2 -1.200000000000 111.995477114257 7.726500000000 6.707533112106
5828 2 -1.200000000000 111.182442797638 8.635500000000 4.268430162249
5829 2 -1.200000000000 112.401994272566 11.362500000000 7.927084587035
5830 2 -1.200000000000 111.588959955947 12.271500000000 5.487981637178
5831 2 -1.200000000000 114.028062905804 9.544500000000 6.707533112106
5832 2 -1.200000000000 113.215028589185 10.453500000000 4.268430162249
5833 1 2.400000000000 107.320529793698 10.908000000000 4.878205899714
5834 1 2.400000000000 108.133564110317 9.999000000000 1.219551474928
5835 1 2.400000000000 108.540081268626 13.635000000000 2.439102949857
5836 1 2.400000000000 110.979184218483 10.908000000000 3.658654424785
5837 2 -1.200000000000 108.743339847781 11.362500000000 3.048878687321
5838 2 -1.200000000000 107.930305531162 12.271500000000 0.609775737464
5839 2 -1.200000000000 110.369408481019 9.544500000000 1.829327212393
5840 2 -1.200000000000 109.556374164400 10.453500000000 23.781253761104
5841 2 -1.200000000000 110.775925639328 13.180500000000 3.048878687321
5842 2 -1.200000000000 109.962891322709 14.089500000000 0.609775737464
5843 2 -1.200000000000 112.401994272566 11.362500000000 1.829327212393
5844 2 -1.200000000000 111.588959955947 12.271500000000 23.781253761104
5845 1 2.400000000000 105.694461160460 12.726000000000 0.000000000000
5846 1 2.400000000000 106.507495477079 11.817000000000 20.732375073783
5847 1 2.400000000000 106.914012635388 15.453000000000 21.951926548711
5848 1 2.400000000000 109.353115585245 12.726000000000 23.171478023639
5849 2 -1.200000000000 107.117271214543 13.180500000000 22.561702286175
5850 2 -1.200000000000 106.304236897924 14.089500000000 20.122599336318
5851 2 -1.200000000000 108.743339847781 11.362500000000 21.342150811247
5852 2 -1.200000000000 107.930305531162 12.271500000000 18.903047861390
5853 2 -1.200000000000 109.149857006090 14.998500000000 22.561702286175
5854 2 -1.200000000000 108.336822689472 15.907500000000 20.122599336318
5855 2 -1.200000000000 110.775925639328 13.180500000000 21.342150811247
5856 2 -1.200000000000 109.962891322709 14.089500000000 18.903047861390
5857 1 2.400000000000 117.076941593125 0.000000000000 21.951926548711
5858 1 2.400000000000 117.889975909744 31.815000000000 18.293272123926
5859 1 2.400000000000 118.296493068053 2.727000000000 19.512823598854
5860 1 2.400000000000 120.735596017910 0.000000000000 20.732375073783
5861 2 -1.200000000000 118.499751647208 0.454500000000 20.122599336318
5862 2 -1.200000000000 117.686717330589 1.363500000000 17.683496386462
5863 2 -1.200000000000 120.125820280446 31.360500000000 18.903047861390
5864 2 -1.200000000000 119.312785963827 32.269500000000 16.463944911533
5865 2 -1.200000000000 120.532337438755 2.272500000000 20.122599336318
5866 2 -1.200000000000 119.719303122136 3.181500000000 17.683496386462
5867 2 -1.200000000000 122.158406071993 0.454500000000 18.903047861390
5868 2 -1.200000000000 121.345371755374 1.363500000000 16.463944911533
5869 1 2.400000000000 115.450872959887 1.818000000000 17.073720648997
5870 1 2.400000000000 116.263907276506 0.909000000000 13.415066224212
5871 1 2.400000000000 116.670424434816 4.545000000000 14.634617699141
5872 1 2.400000000000 119.109527384672 1.818000000000 15.854169174069
5873 2 -1.200000000000 116.873683013970 2.272500000000 15.244393436605
5874 2 -1.200000000000 116.060648697351 3.181500000000 12.805290486748
5875 2 -1.200000000000 118.499751647208 0.454500000000 14.024841961676
5876 2 -1.200000000000 117.686717330589 1.363500000000 11.585739011820
5877 2 -1.200000000000 118.906268805518 4.090500000000 15.244393436605
5878 2 -1.200000000000 118.093234488899 4.999500000000 12.805290486748
5879 2 -1.200000000000 120.532337438755 2.272500000000 14.024841961676
5880 2 -1.200000000000 119.719303122136 3.181500000000 11.585739011820
5881 1 2.400000000000 113.824804326649 3.636000000000 12.195514749284
5882 1 2.400000000000 114.637838643268 2.727000000000 8.536860324499
5883 1 2.400000000000 115.044355801578 6.363000000000 9.756411799427
5884 1 2.400000000000 117.483458751434 3.636000000000 10.975963274355
5885 2 -1.200000000000 115.247614380732 4.090500000000 10.366187536891
5886 2 -1.200000000000 114.434580064113 4.999500000000 7.927084587035
5887 2 -1.200000000000 116.873683013970 2.272500000000 9.146636061963
5888 2 -1.200000000000 116.060648697351 3.181500000000 6.707533112106
5889 2 -1.200000000000 117.280200172280 5.908500000000 10.366187536891
5890 2 -1.200000000000 116.467165855661 6.817500000000 7.927084587035
5891 2 -1.200000000000 118.906268805518 4.090500000000 9.146636061963
5892 2 -1.200000000000 118.093234488899 4.999500000000 6.707533112106
5893 1 2.400000000000 112.198735693411 5.454000000000 7.317308849570
5894 1 2.400000000000 113.011770010030 4.545000000000 3.658654424785
5895 1 2.400000000000 113.418287168340 8.181000000000 4.878205899714
5896 1 2.400000000000 115.857390118197 5.454000000000 6.097757374642
5897 2 -1.200000000000 113.621545747495 5.908500000000 5.487981637178
5898 2 -1.200000000000 112.808511430876 6.817500000000 3.048878687321
5899 2 -1.200000000000 115.247614380732 4.090500000000 4.268430162249
5900 2 -1.200000000000 114.434580064113 4.999500000000 1.829327212393
5901 2 -1.200000000000 115.654131539042 7.726500000000 5.487981637178
5902 2 -1.200000000000 114.841097222423 8.635500000000 3.048878687321
5903 2 -1.200000000000 117.280200172280 5.908500000000 4.268430162249
5904 2 -1.200000000000 116.467165855661 6.817500000000 1.829327212393
5905 1 2.400000000000 110.572667060174 7.272000000000 2.439102949857
5906 1 2.400000000000 111.385701376793 6.363000000000 23.171478023639
5907 1 2.400000000000 111.792218535102 9.999000000000 0.000000000000
5908 1 2.400000000000 114.231321484959 7.272000000000 1.219551474928
5909 2 -1.200000000000 111.995477114257 7.726500000000 0.609775737464
5910 2 -1.200000000000 111.182442797638 8.635500000000 22.561702286175
5911 2 -1.200000000000 113.621545747495 5.908500000000 23.781253761104
5912 2 -1.200000000000 112.808511430876 6.817500000000 21.342150811247
5913 2 -1.200000000000 114.028062905804 9.544500000000 0.609775737464
5914 2 -1.200000000000 113.215028589185 10.453500000000 22.561702286175
5915 2 -1.200000000000 115.654131539042 7.726500000000 23.781253761104
5916 2 -1.200000000000 114.841097222423 8.635500000000 21.342150811247
5917 1 2.400000000000 117.076941593125 0.000000000000 9.756411799427
5918 1 2.400000000000 117.889975909744 31.815000000000 6.097757374642
5919 1 2.400000000000 118.296493068053 2.727000000000 7.317308849570
5920 1 2.400000000000 120.735596017910 0.000000000000 8.536860324499
5921 2 -1.200000000000 118.499751647208 0.454500000000 7.927084587035
5922 2 -1.200000000000 117.686717330589 1.363500000000 5.487981637178
5923 2 -1.200000000000 120.125820280446 31.360500000000 6.707533112106
5924 2 -1.200000000000 119.312785963827 32.269500000000 4.268430162249
5925 2 -1.200000000000 120.532337438755 2.272500000000 7.927084587035
5926 2 -1.200000000000 119.719303122136 3.181500000000 5.487981637178
5927 2 -1.200000000000 122.158406071993 0.454500000000 6.707533112106
5928 2 -1.200000000000 121.345371755374 1.363500000000 4.268430162249
5929 1 2.400000000000 115.450872959887 1.818000000000 4.878205899714
5930 1 2.400000000000 116.263907276506 0.909000000000 1.219551474928
5931 1 2.400000000000 116.670424434816 4.545000000000 2.439102949857
5932 1 2.400000000000 119.109527384672 1.818000000000 3.658654424785
5933 2 -1.200000000000 116.873683013970 2.272500000000 3.048878687321
5934 2 -1.200000000000 116.060648697351 3.181500000000 0.609775737464
5935 2 -1.200000000000 118.499751647208 0.454500000000 1.829327212393
5936 2 -1.200000000000 117.686717330589 1.363500000000 23.781253761104
5937 2 -1.200000000000 118.906268805518 4.090500000000 3.048878687321
5938 2 -1.200000000000 118.093234488899 4.999500000000 0.609775737464
5939 2 -1.200000000000 120.532337438755 2.272500000000 1.829327212393
5940 2 -1.200000000000 119.719303122136 3.181500000000 23.781253761104
5941 1 2.400000000000 113.824804326649 3.636000000000 0.000000000000
5942 1 2.400000000000 114.637838643268 2.727000000000 20.732375073783
5943 1 2.400000000000 115.044355801578 6.363000000000 21.951926548711
5944 1 2.400000000000 117.483458751434 3.636000000000 23.171478023639
5945 2 -1.200000000000 115.247614380732 4.090500000000 22.561702286175
5946 2 -1.200000000000 114.434580064113 4.999500000000 20.122599336318
5947 2 -1.200000000000 116.873683013970 2.272500000000 21.342150811247
5948 2 -1.200000000000 116.060648697351 3.181500000000 18.903047861390
5949 2 -1.200000000000 117.280200172280 5.908500000000 22.561702286175
5950 2 -1.200000000000 116.467165855661 6.817500000000 20.122599336318
5951 2 -1.200000000000 118.906268805518 4.090500000000 21.342150811247
5952 2 -1.200000000000 118.093234488899 4.999500000000 18.903047861390
5953 1 2.400000000000 96.751083677652 30.906000000000 21.951926548711
5954 1 2.400000000000 97.564117994271 29.997000000000 18.293272123926
5955 1 2.400000000000 97.970635152580 0.909000000000 19.512823598854
5956 1 2.400000000000 100.409738102437 30.906000000000 20.732375073783
5957 2 -1.200000000000 98.173893731735 31.360500000000 20.122599336318
5958 2 -1.200000000000 97.360859415116 32.269500000000 17.683496386462
5959 2 -1.200000000000 99.799962364973 29.542500000000 18.903047861390
5960 2 -1.200000000000 98.986928048354 30.451500000000 16.463944911533
5961 2 -1.200000000000 100.206479523282 0.454500000000 20.122599336318
5962 2 -1.200000000000 99.393445206663 1.363500000000 17.683496386462
5963 2 -1.200000000000 101.832548156520 31.360500000000 18.903047861390
5964 2 -1.200000000000 101.019513839901 32.269500000000 16.463944911533
5965 1 2.400000000000 100.003220944128 27.270000000000 19.512823598854
5966 1 2.400000000000 100.816255260747 26.361000000000 15.854169174069
5967 1 2.400000000000 101.222772419056 29.997000000000 17.073720648997
5968 1 2.400000000000 103.661875368913 27.270000000000 18.293272123926
5969 2 -1.200000000000 101.426030998211 27.724500000000 17.683496386462
5970 2 -1.200000000000 100.612996681592 28.633500000000 15.244393436605
5971 2 -1.200000000000 103.052099631449 25.906500000000 16.463944911533
5972 2 -1.200000000000 102.239065314830 26.815500000000 14.024841961676
5973 2 -1.200000000000 103.458616789758 29.542500000000 17.683496386462
5974 2 -1.200000000000 102.645582473139 30.451500000000 15.244393436605
5975 2 -1.200000000000 105.084685422996 27.724500000000 16.463944911533
5976 2 -1.200000000000 104.271651106377 28.633500000000 14.024841961676
5977 1 2.400000000000 98.377152310890 29.088000000000 14.634617699141
5978 1 2.400000000000 99.190186627509 28.179000000000 10.975963274355
5979 1 2.400000000000 99.596703785818 31.815000000000 12.195514749284
5980 1 2.400000000000 102.035806735675 29.088000000000 13.415066224212
5981 2 -1.200000000000 99.799962364973 29.542500000000 12.805290486748
5982 2 -1.200000000000 98.986928048354 30.451500000000 10.366187536891
5983 2 -1.200000000000 101.426030998211 27.724500000000 11.585739011820
5984 2 -1.200000000000 100.612996681592 28.633500000000 9.146636061963
5985 2 -1.200000000000 101.832548156520 31.360500000000 12.805290486748
5986 2 -1.200000000000 101.019513839901 32.269500000000 10.366187536891
5987 2 -1.200000000000 103.458616789758 29.542500000000 11.585739011820
5988 2 -1.200000000000 102.645582473139 30.451500000000 9.146636061963
5989 1 2.400000000000 96.751083677652 30.906000000000 9.756411799427
5990 1 2.400000000000 97.564117994271 29.997000000000 6.097757374642
5991 1 2.400000000000 97.970635152580 0.909000000000 7.317308849570
5992 1 2.400000000000 100.409738102437 30.906000000000 8.536860324499
5993 2 -1.200000000000 98.173893731735 31.360500000000 7.927084587035
5994 2 -1.200000000000 97.360859415116 32.269500000000 5.487981637178
5995 2 -1.200000000000 99.799962364973 29.542500000000 6.707533112106
5996 2 -1.200000000000 98.986928048354 30.451500000000 4.268430162249
5997 2 -1.200000000000 100.206479523282 0.454500000000 7.927084587035
5998 2 -1.200000000000 99.393445206663 1.363500000000 5.487981637178
5999 2 -1.200000000000 101.832548156520 31.360500000000 6.707533112106
6000 2 -1.200000000000 101.019513839901 32.269500000000 4.268430162249
6001 1 2.400000000000 104.881426843841 21.816000000000 21.951926548711
6002 1 2.400000000000 105.694461160460 20.907000000000 18.293272123926
6003 1 2.400000000000 106.100978318770 24.543000000000 19.512823598854
6004 1 2.400000000000 108.540081268626 21.816000000000 20.732375073783
6005 2 -1.200000000000 106.304236897924 22.270500000000 20.122599336318
6006 2 -1.200000000000 105.491202581305 23.179500000000 17.683496386462
6007 2 -1.200000000000 107.930305531162 20.452500000000 18.903047861390
6008 2 -1.200000000000 107.117271214543 21.361500000000 16.463944911533
6009 2 -1.200000000000 108.336822689472 24.088500000000 20.122599336318
6010 2 -1.200000000000 107.523788372853 24.997500000000 17.683496386462
6011 2 -1.200000000000 109.962891322709 22.270500000000 18.903047861390
6012 2 -1.200000000000 109.149857006090 23.179500000000 16.463944911533
6013 1 2.400000000000 103.255358210603 23.634000000000 17.073720648997
6014 1 2.400000000000 104.068392527222 22.725000000000 13.415066224212
6015 1 2.400000000000 104.474909685532 26.361000000000 14.634617699141
6016 1 2.400000000000 106.914012635388 23.634000000000 15.854169174069
6017 2 -1.200000000000 104.678168264686 24.088500000000 15.244393436605
6018 2 -1.200000000000 103.865133948067 24.997500000000 12.805290486748
6019 2 -1.200000000000 106.304236897924 22.270500000000 14.024841961676
6020 2 -1.200000000000 105.491202581305 23.179500000000 11.585739011820
6021 2 -1.200000000000 106.710754056234 25.906500000000 15.244393436605
6022 2 -1.200000000000 105.897719739615 26.815500000000 12.805290486748
6023 2 -1.200000000000 108.336822689472 24.088500000000 14.024841961676
6024 2 -1.200000000000 107.523788372853 24.997500000000 11.585739011820
6025 1 2.400000000000 101.629289577365 25.452000000000 12.195514749284
6026 1 2.400000000000 102.442323893984 24.543000000000 8.536860324499
6027 1 2.400000000000 102.848841052294 28.179000000000 9.756411799427
6028 1 2.400000000000 105.287944002151 25.452000000000 10.975963274355
6029 2 -1.200000000000 103.052099631449 25.906500000000 10.366187536891
6030 2 -1.200000000000 102.239065314830 26.815500000000 7.927084587035
6031 2 -1.200000000000 104.678168264686 24.088500000000 9.146636061963
6032 2 -1.200000000000 103.865133948067 24.997500000000 6.707533112106
6033 2 -1.200000000000 105.084685422996 27.724500000000 10.366187536891
6034 2 -1.200000000000 104.271651106377 28.633500000000 7.927084587035
6035 2 -1.200000000000 106.710754056234 25.906500000000 9.146636061963
6036 2 -1.200000000000 105.897719739615 26.815500000000 6.707533112106
6037 1 2.400000000000 100.003220944128 27.270000000000 7.317308849570
6038 1 2.400000000000 100.816255260747 26.361000000000 3.658654424785
6039 1 2.400000000000 101.222772419056 29.997000000000 4.878205899714
6040 1 2.400000000000 103.661875368913 27.270000000000 6.097757374642
6041 2 -1.200000000000 101.426030998211 27.724500000000 5.487981637178
6042 2 -1.200000000000 100.612996681592 28.633500000000 3.048878687321
6043 2 -1.200000000000 103.052099631449 25.906500000000 4.268430162249
6044 2 -1.200000000000 102.239065314830 26.815500000000 1.829327212393
6045 2 -1.200000000000 103.458616789758 29.542500000000 5.487981637178
6046 2 -1.200000000000 102.645582473139 30.451500000000 3.048878687321
6047 2 -1.200000000000 105.084685422996 27.724500000000 4.268430162249
6048 2 -1.200000000000 104.271651106377 28.633500000000 1.829327212393
6049 1 2.400000000000 98.377152310890 29.088000000000 2.439102949857
6050 1 2.400000000000 99.190186627509 28.179000000000 23.171478023639
6051 1 2.400000000000 99.596703785818 31.815000000000 0.000000000000
6052 1 2.400000000000 102.035806735675 29.088000000000 1.219551474928
6053 2 -1.200000000000 99.799962364973 29.542500000000 0.609775737464
6054 2 -1.200000000000 98.986928048354 30.451500000000 22.561702286175
6055 2 -1.200000000000 101.426030998211 27.724500000000 23.781253761104
6056 2 -1.200000000000 100.612996681592 28.633500000000 21.342150811247
6057 2 -1.200000000000 101.832548156520 31.360500000000 0.609775737464
6058 2 -1.200000000000 101.019513839901 32.269500000000 22.561702286175
6059 2 -1.200000000000 103.458616789758 29.542500000000 23.781253761104
6060 2 -1.200000000000 102.645582473139 30.451500000000 21.342150811247
6061 1 2.400000000000 108.133564110317 18.180000000000 19.512823598854
6062 1 2.400000000000 108.946598426936 17.271000000000 15.854169174069
6063 1 2.400000000000 109.353115585245 20.907000000000 17.073720648997
6064 1 2.400000000000 111.792218535102 18.180000000000 18.293272123926
6065 2 -1.200000000000 109.556374164400 18.634500000000 17.683496386462
6066 2 -1.200000000000 108.743339847781 19.543500000000 15.244393436605
6067 2 -1.200000000000 111.182442797638 16.816500000000 16.463944911533
6068 2 -1.200000000000 110.369408481019 17.725500000000 14.024841961676
6069 2 -1.200000000000 111.588959955947 20.452500000000 17.683496386462
6070 2 -1.200000000000 110.775925639328 21.361500000000 15.244393436605
6071 2 -1.200000000000 113.215028589185 18.634500000000 16.463944911533
6072 2 -1.200000000000 112.401994272566 19.543500000000 14.024841961676
6073 1 2.400000000000 106.507495477079 19.998000000000 14.634617699141
6074 1 2.400000000000 107.320529793698 19.089000000000 10.975963274355
6075 1 2.400000000000 107.727046952007 22.725000000000 12.195514749284
6076 1 2.400000000000 110.166149901864 19.998000000000 13.415066224212
6077 2 -1.200000000000 107.930305531162 20.452500000000 12.805290486748
6078 2 -1.200000000000 107.117271214543 21.361500000000 10.366187536891
6079 2 -1.200000000000 109.556374164400 18.634500000000 11.585739011820
6080 2 -1.200000000000 108.743339847781 19.543500000000 9.146636061963
6081 2 -1.200000000000 109.962891322709 22.270500000000 12.805290486748
6082 2 -1.200000000000 109.149857006090 23.179500000000 10.366187536891
6083 2 -1.200000000000 111.588959955947 20.452500000000 11.585739011820
6084 2 -1.200000000000 110.775925639328 21.361500000000 9.146636061963
6085 1 2.400000000000 104.881426843841 21.816000000000 9.756411799427
6086 1 2.400000000000 105.694461160460 20.907000000000 6.097757374642
6087 1 2.400000000000 106.100978318770 24.543000000000 7.317308849570
6088 1 2.400000000000 108.540081268626 21.816000000000 8.536860324499
6089 2 -1.200000000000 106.304236897924 22.270500000000 7.927084587035
6090 2 -1.200000000000 105.491202581305 23.179500000000 5.487981637178
6091 2 -1.200000000000 107.930305531162 20.452500000000 6.707533112106
6092 2 -1.200000000000 107.117271214543 21.361500000000 4.268430162249
6093 2 -1.200000000000 108.336822689472 24.088500000000 7.927084587035
6094 2 -1.200000000000 107.523788372853 24.997500000000 5.487981637178
6095 2 -1.200000000000 109.962891322709 22.270500000000 6.707533112106
6096 2 -1.200000000000 109.149857006090 23.179500000000 4.268430162249
6097 1 2.400000000000 103.255358210603 23.634000000000 4.878205899714
6098 1 2.400000000000 104.068392527222 22.725000000000 1.219551474928
6099 1 2.400000000000 104.474909685532 26.361000000000 2.439102949857
6100 1 2.400000000000 106.914012635388 23.634000000000 3.658654424785
6101 2 -1.200000000000 104.678168264686 24.088500000000 3.048878687321
6102 2 -1.200000000000 103.865133948067 24.997500000000 0.609775737464
6103 2 -1.200000000000 106.304236897924 22.270500000000 1.829327212393
6104 2 -1.200000000000 105.491202581305 23.179500000000 23.781253761104
6105 2 -1.200000000000 106.710754056234 25.906500000000 3.048878687321
6106 2 -1.200000000000 105.897719739615 26.815500000000 0.609775737464
6107 2 -1.200000000000 108.336822689472 24.088500000000 1.829327212393
6108 2 -1.200000000000 107.523788372853 24.997500000000 23.781253761104
6109 1 2.400000000000 101.629289577365 25.452000000000 0.000000000000
6110 1 2.400000000000 102.442323893984 24.543000000000 20.732375073783
6111 1 2.400000000000 102.848841052294 28.179000000000 21.951926548711
6112 1 2.400000000000 105.287944002151 25.452000000000 23.171478023639
6113 2 -1.200000000000 103.052099631449 25.906500000000 22.561702286175
6114 2 -1.200000000000 102.239065314830 26.815500000000 20.122599336318
6115 2 -1.200000000000 104.678168264686 24.088500000000 21.342150811247
6116 2 -1.200000000000 103.865133948067 24.997500000000 18.903047861390
6117 2 -1.200000000000 105.084685422996 27.724500000000 22.561702286175
6118 2 -1.200000000000 104.271651106377 28.633500000000 20.122599336318
6119 2 -1.200000000000 106.710754056234 25.906500000000 21.342150811247
6120 2 -1.200000000000 105.897719739615 26.815500000000 18.903047861390
6121 1 2.400000000000 113.011770010030 12.726000000000 21.951926548711
6122 1 2.400000000000 113.824804326649 11.817000000000 18.293272123926
6123 1 2.400000000000 114.231321484959 15.453000000000 19.512823598854
6124 1 2.400000000000 116.670424434816 12.726000000000 20.732375073783
6125 2 -1.200000000000 114.434580064113 13.180500000000 20.122599336318
6126 2 -1.200000000000 113.621545747495 14.089500000000 17.683496386462
6127 2 -1.200000000000 116.060648697351 11.362500000000 18.903047861390
6128 2 -1.200000000000 115.247614380732 12.271500000000 16.463944911533
6129 2 -1.200000000000 116.467165855661 14.998500000000 20.122599336318
6130 2 -1.200000000000 115.654131539042 15.907500000000 17.683496386462
6131 2 -1.200000000000 118.093234488899 13.180500000000 18.903047861390
6132 2 -1.200000000000 117.280200172280 14.089500000000 16.463944911533
6133 1 2.400000000000 111.385701376793 14.544000000000 17.073720648997
6134 1 2.400000000000 112.198735693411 13.635000000000 13.415066224212
6135 1 2.400000000000 112.605252851721 17.271000000000 14.634617699141
6136 1 2.400000000000 115.044355801578 14.544000000000 15.854169174069
6137 2 -1.200000000000 112.808511430876 14.998500000000 15.244393436605
6138 2 -1.200000000000 111.995477114257 15.907500000000 12.805290486748
6139 2 -1.200000000000 114.434580064113 13.180500000000 14.024841961676
6140 2 -1.200000000000 113.621545747495 14.089500000000 11.585739011820
6141 2 -1.200000000000 114.841097222423 16.816500000000 15.244393436605
6142 2 -1.200000000000 114.028062905804 17.725500000000 12.805290486748
6143 2 -1.200000000000 116.467165855661 14.998500000000 14.024841961676
6144 2 -1.200000000000 115.654131539042 15.907500000000 11.585739011820
6145 1 2.400000000000 109.759632743555 16.362000000000 12.195514749284
6146 1 2.400000000000 110.572667060174 15.453000000000 8.536860324499
6147 1 2.400000000000 110.979184218483 19.089000000000 9.756411799427
6148 1 2.400000000000 113.418287168340 16.362000000000 10.975963274355
6149 2 -1.200000000000 111.182442797638 16.816500000000 10.366187536891
6150 2 -1.200000000000 110.369408481019 17.725500000000 7.927084587035
6151 2 -1.200000000000 112.808511430876 14.998500000000 9.146636061963
6152 2 -1.200000000000 111.995477114257 15.907500000000 6.707533112106
6153 2 -1.200000000000 113.215028589185 18.634500000000 10.366187536891
6154 2 -1.200000000000 112.401994272566 19.543500000000 7.927084587035
6155 2 -1.200000000000 114.841097222423 16.816500000000 9.146636061963
6156 2 -1.200000000000 114.028062905804 17.725500000000 6.707533112106
6157 1 2.400000000000 108.133564110317 18.180000000000 7.317308849570
6158 1 2.400000000000 108.946598426936 17.271000000000 3.658654424785
6159 1 2.400000000000 109.353115585245 20.907000000000 4.878205899714
6160 1 2.400000000000 111.792218535102 18.180000000000 6.097757374642
6161 2 -1.200000000000 109.556374164400 18.634500000000 5.487981637178
6162 2 -1.200000000000 108.743339847781 19.543500000000 3.048878687321
6163 2 -1.200000000000 111.182442797638 16.816500000000 4.268430162249
6164 2 -1.200000000000 110.369408481019 17.725500000000 1.829327212393
6165 2 -1.200000000000 111.588959955947 20.452500000000 5.487981637178
6166 2 -1.200000000000 110.775925639328 21.361500000000 3.048878687321
6167 2 -1.200000000000 113.215028589185 18.634500000000 4.268430162249
6168 2 -1.200000000000 112.401994272566 19.543500000000 1.829327212393
6169 1 2.400000000000 106.507495477079 19.998000000000 2.439102949857
6170 1 2.400000000000 107.320529793698 19.089000000000 23.171478023639
6171 1 2.400000000000 107.727046952007 22.725000000000 0.000000000000
6172 1 2.400000000000 110.166149901864 19.998000000000 1.219551474928
6173 2 -1.200000000000 107.930305531162 20.452500000000 0.609775737464
6174 2 -1.200000000000 107.117271214543 21.361500000000 22.561702286175
6175 2 -1.200000000000 109.556374164400 18.634500000000 23.781253761104
6176 2 -1.200000000000 108.743339847781 19.543500000000 21.342150811247
6177 2 -1.200000000000 109.962891322709 22.270500000000 0.609775737464
6178 2 -1.200000000000 109.149857006090 23.179500000000 22.561702286175
6179 2 -1.200000000000 111.588959955947 20.452500000000 23.781253761104
6180 2 -1.200000000000 110.775925639328 21.361500000000 21.342150811247
6181 1 2.400000000000 116.263907276506 9.090000000000 19.512823598854
6182 1 2.400000000000 117.076941593125 8.181000000000 15.854169174069
6183 1 2.400000000000 117.483458751434 11.817000000000 17.073720648997
6184 1 2.400000000000 119.922561701291 9.090000000000 18.293272123926
6185 2 -1.200000000000 117.686717330589 9.544500000000 17.683496386462
6186 2 -1.200000000000 116.873683013970 10.453500000000 15.244393436605
6187 2 -1.200000000000 119.312785963827 7.726500000000 16.463944911533
6188 2 -1.200000000000 118.499751647208 8.635500000000 14.024841961676
6189 2 -1.200000000000 119.719303122136 11.362500000000 17.683496386462
6190 2 -1.200000000000 118.906268805518 12.271500000000 15.244393436605
6191 2 -1.200000000000 121.345371755374 9.544500000000 16.463944911533
6192 2 -1.200000000000 120.532337438755 10.453500000000 14.024841961676
6193 1 2.400000000000 114.637838643268 10.908000000000 14.634617699141
6194 1 2.400000000000 115.450872959887 9.999000000000 10.975963274355
6195 1 2.400000000000 115.857390118197 13.635000000000 12.195514749284
6196 1 2.400000000000 118.296493068053 10.908000000000 13.415066224212
6197 2 -1.200000000000 116.060648697351 11.362500000000 12.805290486748
6198 2 -1.200000000000 115.247614380732 12.271500000000 10.366187536891
6199 2 -1.200000000000 117.686717330589 9.544500000000 11.585739011820
6200 2 -1.200000000000 116.873683013970 10.453500000000 9.146636061963
6201 2 -1.200000000000 118.093234488899 13.180500000000 12.805290486748
6202 2 -1.200000000000 117.280200172280 14.089500000000 10.366187536891
6203 2 -1.200000000000 119.719303122136 11.362500000000 11.585739011820
6204 2 -1.200000000000 118.906268805518 12.271500000000 9.146636061963
6205 1 2.400000000000 113.011770010030 12.726000000000 9.756411799427
6206 1 2.400000000000 113.824804326649 11.817000000000 6.097757374642
6207 1 2.400000000000 114.231321484959 15.453000000000 7.317308849570
6208 1 2.400000000000 116.670424434816 12.726000000000 8.536860324499
6209 2 -1.200000000000 114.434580064113 13.180500000000 7.927084587035
6210 2 -1.200000000000 113.621545747495 14.089500000000 5.487981637178
6211 2 -1.200000000000 116.060648697351 11.362500000000 6.707533112106
6212 2 -1.200000000000 115.247614380732 12.271500000000 4.268430162249
6213 2 -1.200000000000 116.467165855661 14.998500000000 7.927084587035
6214 2 -1.200000000000 115.654131539042 15.907500000000 5.487981637178
6215 2 -1.200000000000 118.093234488899 13.180500000000 6.707533112106
6216 2 -1.200000000000 117.280200172280 14.089500000000 4.268430162249
6217 1 2.400000000000 111.385701376793 14.544000000000 4.878205899714
6218 1 2.400000000000 112.198735693411 13.635000000000 1.219551474928
6219 1 2.400000000000 112.605252851721 17.271000000000 2.439102949857
6220 1 2.400000000000 115.044355801578 14.544000000000 3.658654424785
6221 2 -1.200000000000 112.808511430876 14.998500000000 3.048878687321
6222 2 -1.200000000000 111.995477114257 15.907500000000 0.609775737464
6223 2 -1.200000000000 114.434580064113 13.180500000000 1.829327212393
6224 2 -1.200000000000 113.621545747495 14.089500000000 23.781253761104
6225 2 -1.200000000000 114.841097222423 16.816500000000 3.048878687321
6226 2 -1.200000000000 114.028062905804 17.725500000000 0.609775737464
6227 2 -1.200000000000 116.467165855661 14.998500000000 1.829327212393
6228 2 -1.200000000000 115.654131539042 15.907500000000 23.781253761104
6229 1 2.400000000000 109.759632743555 16.362000000000 0.000000000000
6230 1 2.400000000000 110.572667060174 15.453000000000 20.732375073783
6231 1 2.400000000000 110.979184218483 19.089000000000 21.951926548711
6232 1 2.400000000000 113.418287168340 16.362000000000 23.171478023639
6233 2 -1.200000000000 111.182442797638 16.816500000000 22.561702286175
6234 2 -1.200000000000 110.369408481019 17.725500000000 20.122599336318
6235 2 -1.200000000000 112.808511430876 14.998500000000 21.342150811247
6236 2 -1.200000000000 111.995477114257 15.907500000000 18.903047861390
6237 2 -1.200000000000 113.215028589185 18.634500000000 22.561702286175
6238 2 -1.200000000000 112.401994272566 19.543500000000 20.122599336318
6239 2 -1.200000000000 114.841097222423 16.816500000000 21.342150811247
6240 2 -1.200000000000 114.028062905804 17.725500000000 18.903047861390
6241 1 2.400000000000 121.142113176220 3.636000000000 21.951926548711
6242 1 2.400000000000 121.955147492839 2.727000000000 18.293272123926
6243 1 2.400000000000 122.361664651148 6.363000000000 19.512823598854
6244 1 2.400000000000 124.800767601005 3.636000000000 20.732375073783
6245 2 -1.200000000000 122.564923230303 4.090500000000 20.122599336318
6246 2 -1.200000000000 121.751888913684 4.999500000000 17.683496386462
6247 2 -1.200000000000 124.190991863541 2.272500000000 18.903047861390
6248 2 -1.200000000000 123.377957546922 3.181500000000 16.463944911533
6249 2 -1.200000000000 124.597509021850 5.908500000000 20.122599336318
6250 2 -1.200000000000 123.784474705231 6.817500000000 17.683496386462
6251 2 -1.200000000000 126.223577655088 4.090500000000 18.903047861390
6252 2 -1.200000000000 125.410543338469 4.999500000000 16.463944911533
6253 1 2.400000000000 119.516044542982 5.454000000000 17.073720648997
6254 1 2.400000000000 120.329078859601 4.545000000000 13.415066224212
6255 1 2.400000000000 120.735596017910 8.181000000000 14.634617699141
6256 1 2.400000000000 123.174698967767 5.454000000000 15.854169174069
6257 2 -1.200000000000 120.938854597065 5.908500000000 15.244393436605
6258 2 -1.200000000000 120.125820280446 6.817500000000 12.805290486748
6259 2 -1.200000000000 122.564923230303 4.090500000000 14.024841961676
6260 2 -1.200000000000 121.751888913684 4.999500000000 11.585739011820
6261 2 -1.200000000000 122.971440388612 7.726500000000 15.244393436605
6262 2 -1.200000000000 122.158406071993 8.635500000000 12.805290486748
6263 2 -1.200000000000 124.597509021850 5.908500000000 14.024841961676
6264 2 -1.200000000000 123.784474705231 6.817500000000 11.585739011820
6265 1 2.400000000000 117.889975909744 7.272000000000 12.195514749284
6266 1 2.400000000000 118.703010226363 6.363000000000 8.536860324499
6267 1 2.400000000000 119.109527384672 9.999000000000 9.756411799427
6268 1 2.400000000000 121.548630334529 7.272000000000 10.975963274355
6269 2 -1.200000000000 119.312785963827 7.726500000000 10.366187536891
6270 2 -1.200000000000 118.499751647208 8.635500000000 7.927084587035
6271 2 -1.200000000000 120.938854597065 5.908500000000 9.146636061963
6272 2 -1.200000000000 120.125820280446 6.817500000000 6.707533112106
6273 2 -1.200000000000 121.345371755374 9.544500000000 10.366187536891
6274 2 -1.200000000000 120.532337438755 10.453500000000 7.927084587035
6275 2 -1.200000000000 122.971440388612 7.726500000000 9.146636061963
6276 2 -1.200000000000 122.158406071993 8.635500000000 6.707533112106
6277 1 2.400000000000 116.263907276506 9.090000000000 7.317308849570
6278 1 2.400000000000 117.076941593125 8.181000000000 3.658654424785
6279 1 2.400000000000 117.483458751434 11.817000000000 4.878205899714
6280 1 2.400000000000 119.922561701291 9.090000000000 6.097757374642
6281 2 -1.200000000000 117.686717330589 9.544500000000 5.487981637178
6282 2 -1.200000000000 116.873683013970 10.453500000000 3.048878687321
6283 2 -1.200000000000 119.312785963827 7.726500000000 4.268430162249
6284 2 -1.200000000000 118.499751647208 8.635500000000 1.829327212393
6285 2 -1.200000000000 119.719303122136 11.362500000000 5.487981637178
6286 2 -1.200000000000 118.906268805518 12.271500000000 3.048878687321
6287 2 -1.200000000000 121.345371755374 9.544500000000 4.268430162249
6288 2 -1.200000000000 120.532337438755 10.453500000000 1.829327212393
6289 1 2.400000000000 114.637838643268 10.908000000000 2.439102949857
6290 1 2.400000000000 115.450872959887 9.999000000000 23.171478023639
6291 1 2.400000000000 115.857390118197 13.635000000000 0.000000000000
6292 1 2.400000000000 118.296493068053 10.908000000000 1.219551474928
6293 2 -1.200000000000 116.060648697351 11.362500000000 0.609775737464
6294 2 -1.200000000000 115.247614380732 12.271500000000 22.561702286175
6295 2 -1.200000000000 117.686717330589 9.544500000000 23.781253761104
6296 2 -1.200000000000 116.873683013970 10.453500000000 21.342150811247
6297 2 -1.200000000000 118.093234488899 13.180500000000 0.609775737464
6298 2 -1.200000000000 117.280200172280 14.089500000000 22.561702286175
6299 2 -1.200000000000 119.719303122136 11.362500000000 23.781253761104
6300 2 -1.200000000000 118.906268805518 12.271500000000 21.342150811247
6301 1 2.400000000000 124.394250442695 0.000000000000 19.512823598854
6302 1 2.400000000000 125.207284759314 31.815000000000 15.854169174069
6303 1 2.400000000000 125.613801917624 2.727000000000 17.073720648997
6304 1 2.400000000000 128.052904867480 0.000000000000 18.293272123926
6305 2 -1.200000000000 125.817060496778 0.454500000000 17.683496386462
6306 2 -1.200000000000 125.004026180159 1.363500000000 15.244393436605
6307 2 -1.200000000000 127.443129130016 31.360500000000 16.463944911533
6308 2 -1.200000000000 126.630094813397 32.269500000000 14.024841961676
6309 2 -1.200000000000 127.849646288326 2.272500000000 17.683496386462
6310 2 -1.200000000000 127.036611971707 3.181500000000 15.244393436605
6311 2 -1.200000000000 129.475714921564 0.454500000000 16.463944911533
6312 2 -1.200000000000 128.662680604945 1.363500000000 14.024841961676
6313 1 2.400000000000 122.768181809457 1.818000000000 14.634617699141
6314 1 2.400000000000 123.581216126076 0.909000000000 10.975963274355
6315 1 2.400000000000 123.987733284386 4.545000000000 12.195514749284
6316 1 2.400000000000 126.426836234243 1.818000000000 13.415066224212
6317 2 -1.200000000000 124.190991863541 2.272500000000 12.805290486748
6318 2 -1.200000000000 123.377957546922 3.181500000000 10.366187536891
6319 2 -1.200000000000 125.817060496778 0.454500000000 11.585739011820
6320 2 -1.200000000000 125.004026180159 1.363500000000 9.146636061963
6321 2 -1.200000000000 126.223577655088 4.090500000000 12.805290486748
6322 2 -1.200000000000 125.410543338469 4.999500000000 10.366187536891
6323 2 -1.200000000000 127.849646288326 2.272500000000 11.585739011820
6324 2 -1.200000000000 127.036611971707 3.181500000000 9.146636061963
6325 1 2.400000000000 121.142113176220 3.636000000000 9.756411799427
6326 1 2.400000000000 121.955147492839 2.727000000000 6.097757374642
6327 1 2.400000000000 122.361664651148 6.363000000000 7.317308849570
6328 1 2.400000000000 124.800767601005 3.636000000000 8.536860324499
6329 2 -1.200000000000 122.564923230303 4.090500000000 7.927084587035
6330 2 -1.200000000000 121.751888913684 4.999500000000 5.487981637178
6331 2 -1.200000000000 124.190991863541 2.272500000000 6.707533112106
6332 2 -1.200000000000 123.377957546922 3.181500000000 4.268430162249
6333 2 -1.200000000000 124.597509021850 5.908500000000 7.927084587035
6334 2 -1.200000000000 123.784474705231 6.817500000000 5.487981637178
6335 2 -1.200000000000 126.223577655088 4.090500000000 6.707533112106
6336 2 -1.200000000000 125.410543338469 4.999500000000 4.268430162249
6337 1 2.400000000000 119.516044542982 5.454000000000 4.878205899714
6338 1 2.400000000000 120.329078859601 4.545000000000 1.219551474928
6339 1 2.400000000000 120.735596017910 8.181000000000 2.439102949857
6340 1 2.400000000000 123.174698967767 5.454000000000 3.658654424785
6341 2 -1.200000000000 120.938854597065 5.908500000000 3.048878687321
6342 2 -1.200000000000 120.125820280446 6.817500000000 0.609775737464
6343 2 -1.200000000000 122.564923230303 4.090500000000 1.829327212393
6344 2 -1.200000000000 121.751888913684 4.999500000000 23.781253761104
6345 2 -1.200000000000 122.971440388612 7.726500000000 3.048878687321
6346 2 -1.200000000000 122.158406071993 8.635500000000 0.609775737464
6347 2 -1.200000000000 124.597509021850 5.908500000000 1.829327212393
6348 2 -1.200000000000 123.784474705231 6.817500000000 23.781253761104
6349 1 2.400000000000 117.889975909744 7.272000000000 0.000000000000
6350 1 2.400000000000 118.703010226363 6.363000000000 20.732375073783
6351 1 2.400000000000 119.109527384672 9.999000000000 21.951926548711
6352 1 2.400000000000 121.548630334529 7.272000000000 23.171478023639
6353 2 -1.200000000000 119.312785963827 7.726500000000 22.561702286175
6354 2 -1.200000000000 118.499751647208 8.635500000000 20.122599336318
6355 2 -1.200000000000 120.938854597065 5.908500000000 21.342150811247
6356 2 -1.200000000000 120.125820280446 6.817500000000 18.903047861390
6357 2 -1.200000000000 121.345371755374 9.544500000000 22.561702286175
6358 2 -1.200000000000 120.532337438755 10.453500000000 20.122599336318
6359 2 -1.200000000000 122.971440388612 7.726500000000 21.342150811247
6360 2 -1.200000000000 122.158406071993 8.635500000000 18.903047861390
6361 1 2.400000000000 124.394250442695 0.000000000000 7.317308849570
6362 1 2.400000000000 125.207284759314 31.815000000000 3.658654424785
6363 1 2.400000000000 125.613801917624 2.727000000000 4.878205899714
6364 1 2.400000000000 128.052904867480 0.000000000000 6.097757374642
6365 2 -1.200000000000 125.817060496778 0.454500000000 5.487981637178
6366 2 -1.200000000000 125.004026180159 1.363500000000 3.048878687321
6367 2 -1.200000000000 127.443129130016 31.360500000000 4.268430162249
6368 2 -1.200000000000 126.630094813397 32.269500000000 1.829327212393
6369 2 -1.200000000000 127.849646288326 2.272500000000 5.487981637178
6370 2 -1.200000000000 127.036611971707 3.181500000000 3.048878687321
6371 2 -1.200000000000 129.475714921564 0.454500000000 4.268430162249
6372 2 -1.200000000000 128.662680604945 1.363500000000 1.829327212393
6373 1 2.400000000000 122.768181809457 1.818000000000 2.439102949857
6374 1 2.400000000000 123.581216126076 0.909000000000 23.171478023639
6375 1 2.400000000000 123.987733284386 4.545000000000 0.000000000000
6376 1 2.400000000000 126.426836234243 1.818000000000 1.219551474928
6377 2 -1.200000000000 124.190991863541 2.272500000000 0.609775737464
6378 2 -1.200000000000 123.377957546922 3.181500000000 22.561702286175
6379 2 -1.200000000000 125.817060496778 0.454500000000 23.781253761104
6380 2 -1.200000000000 125.004026180159 1.363500000000 21.342150811247
6381 2 -1.200000000000 126.223577655088 4.090500000000 0.609775737464
6382 2 -1.200000000000 125.410543338469 4.999500000000 22.561702286175
6383 2 -1.200000000000 127.849646288326 2.272500000000 23.781253761104
6384 2 -1.200000000000 127.036611971707 3.181500000000 21.342150811247
6385 1 2.400000000000 104.068392527222 30.906000000000 19.512823598854
6386 1 2.400000000000 104.881426843841 29.997000000000 15.854169174069
6387 1 2.400000000000 105.287944002151 0.909000000000 17.073720648997
6388 1 2.400000000000 107.727046952007 30.906000000000 18.293272123926
6389 2 -1.200000000000 105.491202581305 31.360500000000 17.683496386462
6390 2 -1.200000000000 104.678168264686 32.269500000000 15.244393436605
6391 2 -1.200000000000 107.117271214543 29.542500000000 16.463944911533
6392 2 -1.200000000000 106.304236897924 30.451500000000 14.024841961676
6393 2 -1.200000000000 107.523788372853 0.454500000000 17.683496386462
6394 2 -1.200000000000 106.710754056234 1.363500000000 15.244393436605
6395 2 -1.200000000000 109.149857006090 31.360500000000 16.463944911533
6396 2 -1.200000000000 108.336822689472 32.269500000000 14.024841961676
6397 1 2.400000000000 108.946598426936 25.452000000000 21.951926548711
6398 1 2.400000000000 109.759632743555 24.543000000000 18.293272123926
6399 1 2.400000000000 110.166149901864 28.179000000000 19.512823598854
6400 1 2.400000000000 112.605252851721 25.452000000000 20.732375073783
6401 2 -1.200000000000 110.369408481019 25.906500000000 20.122599336318
6402 2 -1.200000000000 109.556374164400 26.815500000000 17.683496386462
6403 2 -1.200000000000 111.995477114257 24.088500000000 18.903047861390
6404 2 -1.200000000000 111.182442797638 24.997500000000 16.463944911533
6405 2 -1.200000000000 112.401994272566 27.724500000000 20.122599336318
6406 2 -1.200000000000 111.588959955947 28.633500000000 17.683496386462
6407 2 -1.200000000000 114.028062905804 25.906500000000 18.903047861390
6408 2 -1.200000000000 113.215028589185 26.815500000000 16.463944911533
6409 1 2.400000000000 107.320529793698 27.270000000000 17.073720648997
6410 1 2.400000000000 108.133564110317 26.361000000000 13.415066224212
6411 1 2.400000000000 108.540081268626 29.997000000000 14.634617699141
6412 1 2.400000000000 110.979184218483 27.270000000000 15.854169174069
6413 2 -1.200000000000 108.743339847781 27.724500000000 15.244393436605
6414 2 -1.200000000000 107.930305531162 28.633500000000 12.805290486748
6415 2 -1.200000000000 110.369408481019 25.906500000000 14.024841961676
6416 2 -1.200000000000 109.556374164400 26.815500000000 11.585739011820
6417 2 -1.200000000000 110.775925639328 29.542500000000 15.244393436605
6418 2 -1.200000000000 109.962891322709 30.451500000000 12.805290486748
6419 2 -1.200000000000 112.401994272566 27.724500000000 14.024841961676
6420 2 -1.200000000000 111.588959955947 28.633500000000 11.585739011820
6421 1 2.400000000000 105.694461160460 29.088000000000 12.195514749284
6422 1 2.400000000000 106.507495477079 28.179000000000 8.536860324499
6423 1 2.400000000000 106.914012635388 31.815000000000 9.756411799427
6424 1 2.400000000000 109.353115585245 29.088000000000 10.975963274355
6425 2 -1.200000000000 107.117271214543 29.542500000000 10.366187536891
6426 2 -1.200000000000 106.304236897924 30.451500000000 7.927084587035
6427 2 -1.200000000000 108.743339847781 27.724500000000 9.146636061963
6428 2 -1.200000000000 107.930305531162 28.633500000000 6.707533112106
6429 2 -1.200000000000 109.149857006090 31.360500000000 10.366187536891
6430 2 -1.200000000000 108.336822689472 32.269500000000 7.927084587035
6431 2 -1.200000000000 110.775925639328 29.542500000000 9.146636061963
6432 2 -1.200000000000 109.962891322709 30.451500000000 6.707533112106
6433 1 2.400000000000 104.068392527222 30.906000000000 7.317308849570
6434 1 2.400000000000 104.881426843841 29.997000000000 3.658654424785
6435 1 2.400000000000 105.287944002151 0.909000000000 4.878205899714
6436 1 2.400000000000 107.727046952007 30.906000000000 6.097757374642
6437 2 -1.200000000000 105.491202581305 31.360500000000 5.487981637178
6438 2 -1.200000000000 104.678168264686 32.269500000000 3.048878687321
6439 2 -1.200000000000 107.117271214543 29.542500000000 4.268430162249
6440 2 -1.200000000000 106.304236897924 30.451500000000 1.829327212393
6441 2 -1.200000000000 107.523788372853 0.454500000000 5.487981637178
6442 2 -1.200000000000 106.710754056234 1.363500000000 3.048878687321
6443 2 -1.200000000000 109.149857006090 31.360500000000 4.268430162249
6444 2 -1.200000000000 108.336822689472 32.269500000000 1.829327212393
6445 1 2.400000000000 112.198735693411 21.816000000000 19.512823598854
6446 1 2.400000000000 113.011770010030 20.907000000000 15.854169174069
6447 1 2.400000000000 113.418287168340 24.543000000000 17.073720648997
6448 1 2.400000000000 115.857390118197 21.816000000000 18.293272123926
6449 2 -1.200000000000 113.621545747495 22.270500000000 17.683496386462
6450 2 -1.200000000000 112.808511430876 23.179500000000 15.244393436605
6451 2 -1.200000000000 115.247614380732 20.452500000000 16.463944911533
6452 2 -1.200000000000 114.434580064113 21.361500000000 14.024841961676
6453 2 -1.200000000000 115.654131539042 24.088500000000 17.683496386462
6454 2 -1.200000000000 114.841097222423 24.997500000000 15.244393436605
6455 2 -1.200000000000 117.280200172280 22.270500000000 16.463944911533
6456 2 -1.200000000000 116.467165855661 23.179500000000 14.024841961676
6457 1 2.400000000000 110.572667060174 23.634000000000 14.634617699141
6458 1 2.400000000000 111.385701376793 22.725000000000 10.975963274355
6459 1 2.400000000000 111.792218535102 26.361000000000 12.195514749284
6460 1 2.400000000000 114.231321484959 23.634000000000 13.415066224212
6461 2 -1.200000000000 111.995477114257 24.088500000000 12.805290486748
6462 2 -1.200000000000 111.182442797638 24.997500000000 10.366187536891
6463 2 -1.200000000000 113.621545747495 22.270500000000 11.585739011820
6464 2 -1.200000000000 112.808511430876 23.179500000000 9.146636061963
6465 2 -1.200000000000 114.028062905804 25.906500000000 12.805290486748
6466 2 -1.200000000000 113.215028589185 26.815500000000 10.366187536891
6467 2 -1.200000000000 115.654131539042 24.088500000000 11.585739011820
6468 2 -1.200000000000 114.841097222423 24.997500000000 9.146636061963
6469 1 2.400000000000 108.946598426936 25.452000000000 9.756411799427
6470 1 2.400000000000 109.759632743555 24.543000000000 6.097757374642
6471 1 2.400000000000 110.166149901864 28.179000000000 7.317308849570
6472 1 2.400000000000 112.605252851721 25.452000000000 8.536860324499
6473 2 -1.200000000000 110.369408481019 25.906500000000 7.927084587035
6474 2 -1.200000000000 109.556374164400 26.815500000000 5.487981637178
6475 2 -1.200000000000 111.995477114257 24.088500000000 6.707533112106
6476 2 -1.200000000000 111.182442797638 24.997500000000 4.268430162249
6477 2 -1.200000000000 112.401994272566 27.724500000000 7.927084587035
6478 2 -1.200000000000 111.588959955947 28.633500000000 5.487981637178
6479 2 -1.200000000000 114.028062905804 25.906500000000 6.707533112106
6480 2 -1.200000000000 113.215028589185 26.815500000000 4.268430162249
6481 1 2.400000000000 107.320529793698 27.270000000000 4.878205899714
6482 1 2.400000000000 108.133564110317 26.361000000000 1.219551474928
6483 1 2.400000000000 108.540081268626 29.997000000000 2.439102949857
6484 1 2.400000000000 110.979184218483 27.270000000000 3.658654424785
6485 2 -1.200000000000 108.743339847781 27.724500000000 3.048878687321
6486 2 -1.200000000000 107.930305531162 28.633500000000 0.609775737464
6487 2 -1.200000000000 110.369408481019 25.906500000000 1.829327212393
6488 2 -1.200000000000 109.556374164400 26.815500000000 23.781253761104
6489 2 -1.200000000000 110.775925639328 29.542500000000 3.048878687321
6490 2 -1.200000000000 109.962891322709 30.451500000000 0.609775737464
6491 2 -1.200000000000 112.401994272566 27.724500000000 1.829327212393
6492 2 -1.200000000000 111.588959955947 28.633500000000 23.781253761104
6493 1 2.400000000000 105.694461160460 29.088000000000 0.000000000000
6494 1 2.400000000000 106.507495477079 28.179000000000 20.732375073783
6495 1 2.400000000000 106.914012635388 31.815000000000 21.951926548711
6496 1 2.400000000000 109.353115585245 29.088000000000 23.171478023639
6497 2 -1.200000000000 107.117271214543 29.542500000000 22.561702286175
6498 2 -1.200000000000 106.304236897924 30.451500000000 20.122599336318
6499 2 -1.200000000000 108.743339847781 27.724500000000 21.342150811247
6500 2 -1.200000000000 107.930305531162 28.633500000000 18.903047861390
6501 2 -1.200000000000 109.149857006090 31.360500000000 22.561702286175
6502 2 -1.200000000000 108.336822689472 32.269500000000 20.122599336318
6503 2 -1.200000000000 110.775925639328 29.542500000000 21.342150811247
6504 2 -1.200000000000 109.962891322709 30.451500000000 18.903047861390
6505 1 2.400000000000 117.076941593125 16.362000000000 21.951926548711
6506 1 2.400000000000 117.889975909744 15.453000000000 18.293272123926
6507 1 2.400000000000 118.296493068053 19.089000000000 19.512823598854
6508 1 2.400000000000 120.735596017910 16.362000000000 20.732375073783
6509 2 -1.200000000000 118.499751647208 16.816500000000 20.122599336318
6510 2 -1.200000000000 117.686717330589 17.725500000000 17.683496386462
6511 2 -1.200000000000 120.125820280446 14.998500000000 18.903047861390
6512 2 -1.200000000000 119.312785963827 15.907500000000 16.463944911533
6513 2 -1.200000000000 120.532337438755 18.634500000000 20.122599336318
6514 2 -1.200000000000 119.719303122136 19.543500000000 17.683496386462
6515 2 -1.200000000000 122.158406071993 16.816500000000 18.903047861390
6516 2 -1.200000000000 121.345371755374 17.725500000000 16.463944911533
6517 1 2.400000000000 115.450872959887 18.180000000000 17.073720648997
6518 1 2.400000000000 116.263907276506 17.271000000000 13.415066224212
6519 1 2.400000000000 116.670424434816 20.907000000000 14.634617699141
6520 1 2.400000000000 119.109527384672 18.180000000000 15.854169174069
6521 2 -1.200000000000 116.873683013970 18.634500000000 15.244393436605
6522 2 -1.200000000000 116.060648697351 19.543500000000 12.805290486748
6523 2 -1.200000000000 118.499751647208 16.816500000000 14.024841961676
6524 2 -1.200000000000 117.686717330589 17.725500000000 11.585739011820
6525 2 -1.200000000000 118.906268805518 20.452500000000 15.244393436605
6526 2 -1.200000000000 118.093234488899 21.361500000000 12.805290486748
6527 2 -1.200000000000 120.532337438755 18.634500000000 14.024841961676
6528 2 -1.200000000000 119.719303122136 19.543500000000 11.585739011820
6529 1 2.400000000000 113.824804326649 19.998000000000 12.195514749284
6530 1 2.400000000000 114.637838643268 19.089000000000 8.536860324499
6531 1 2.400000000000 115.044355801578 22.725000000000 9.756411799427
6532 1 2.400000000000 117.483458751434 19.998000000000 10.975963274355
6533 2 -1.200000000000 115.247614380732 20.452500000000 10.366187536891
6534 2 -1.200000000000 114.434580064113 21.361500000000 7.927084587035
6535 2 -1.200000000000 116.873683013970 18.634500000000 9.146636061963
6536 2 -1.200000000000 116.060648697351 19.543500000000 6.707533112106
6537 2 -1.200000000000 117.280200172280 22.270500000000 10.366187536891
6538 2 -1.200000000000 116.467165855661 23.179500000000 7.927084587035
6539 2 -1.200000000000 118.906268805518 20.452500000000 9.146636061963
6540 2 -1.200000000000 118.093234488899 21.361500000000 6.707533112106
6541 1 2.400000000000 112.198735693411 21.816000000000 7.317308849570
6542 1 2.400000000000 113.011770010030 20.907000000000 3.658654424785
6543 1 2.400000000000 113.418287168340 24.543000000000 4.878205899714
6544 1 2.400000000000 115.857390118197 21.816000000000 6.097757374642
6545 2 -1.200000000000 113.621545747495 22.270500000000 5.487981637178
6546 2 -1.200000000000 112.808511430876 23.179500000000 3.048878687321
6547 2 -1.200000000000 115.247614380732 20.452500000000 4.268430162249
6548 2 -1.200000000000 114.434580064113 21.361500000000 1.829327212393
6549 2 -1.200000000000 115.654131539042 24.088500000000 5.487981637178
6550 2 -1.200000000000 114.841097222423 24.997500000000 3.048878687321
6551 2 -1.200000000000 117.280200172280 22.270500000000 4.268430162249
6552 2 -1.200000000000 116.467165855661 23.179500000000 1.829327212393
6553 1 2.400000000000 110.572667060174 23.634000000000 2.439102949857
6554 1 2.400000000000 111.385701376793 22.725000000000 23.171478023639
6555 1 2.400000000000 111.792218535102 26.361000000000 0.000000000000
6556 1 2.400000000000 114.231321484959 23.634000000000 1.219551474928
6557 2 -1.200000000000 111.995477114257 24.088500000000 0.609775737464
6558 2 -1.200000000000 111.182442797638 24.997500000000 22.561702286175
6559 2 -1.200000000000 113.621545747495 22.270500000000 23.781253761104
6560 2 -1.200000000000 112.808511430876 23.179500000000 21.342150811247
6561 2 -1.200000000000 114.028062905804 25.906500000000 0.609775737464
6562 2 -1.200000000000 113.215028589185 26.815500000000 22.561702286175
6563 2 -1.200000000000 115.654131539042 24.088500000000 23.781253761104
6564 2 -1.200000000000 114.841097222423 24.997500000000 21.342150811247
6565 1 2.400000000000 120.329078859601 12.726000000000 19.512823598854
6566 1 2.400000000000 121.142113176220 11.817000000000 15.854169174069
6567 1 2.400000000000 121.548630334529 15.453000000000 17.073720648997
6568 1 2.400000000000 123.987733284386 12.726000000000 18.293272123926
6569 2 -1.200000000000 121.751888913684 13.180500000000 17.683496386462
6570 2 -1.200000000000 120.938854597065 14.089500000000 15.244393436605
6571 2 -1.200000000000 123.377957546922 11.362500000000 16.463944911533
6572 2 -1.200000000000 122.564923230303 12.271500000000 14.024841961676
6573 2 -1.200000000000 123.784474705231 14.998500000000 17.683496386462
6574 2 -1.200000000000 122.971440388612 15.907500000000 15.244393436605
6575 2 -1.200000000000 125.410543338469 13.180500000000 16.463944911533
6576 2 -1.200000000000 124.597509021850 14.089500000000 14.024841961676
6577 1 2.400000000000 118.703010226363 14.544000000000 14.634617699141
6578 1 2.400000000000 119.516044542982 13.635000000000 10.975963274355
6579 1 2.400000000000 119.922561701291 17.271000000000 12.195514749284
6580 1 2.400000000000 122.361664651148 14.544000000000 13.415066224212
6581 2 -1.200000000000 120.125820280446 14.998500000000 12.805290486748
6582 2 -1.200000000000 119.312785963827 15.907500000000 10.366187536891
6583 2 -1.200000000000 121.751888913684 13.180500000000 11.585739011820
6584 2 -1.200000000000 120.938854597065 14.089500000000 9.146636061963
6585 2 -1.200000000000 122.158406071993 16.816500000000 12.805290486748
6586 2 -1.200000000000 121.345371755374 17.725500000000 10.366187536891
6587 2 -1.200000000000 123.784474705231 14.998500000000 11.585739011820
6588 2 -1.200000000000 122.971440388612 15.907500000000 9.146636061963
6589 1 2.400000000000 117.076941593125 16.362000000000 9.756411799427
6590 1 2.400000000000 117.889975909744 15.453000000000 6.097757374642
6591 1 2.400000000000 118.296493068053 19.089000000000 7.317308849570
6592 1 2.400000000000 120.735596017910 16.362000000000 8.536860324499
6593 2 -1.200000000000 118.499751647208 16.816500000000 7.927084587035
6594 2 -1.200000000000 117.686717330589 17.725500000000 5.487981637178
6595 2 -1.200000000000 120.125820280446 14.998500000000 6.707533112106
6596 2 -1.200000000000 119.312785963827 15.907500000000 4.268430162249
6597 2 -1.200000000000 120.532337438755 18.634500000000 7.927084587035
6598 2 -1.200000000000 119.719303122136 19.543500000000 5.487981637178
6599 2 -1.200000000000 122.158406071993 16.816500000000 6.707533112106
6600 2 -1.200000000000 121.345371755374 17.725500000000 4.268430162249
6601 1 2.400000000000 115.450872959887 18.180000000000 4.878205899714
6602 1 2.400000000000 116.263907276506 17.271000000000 1.219551474928
6603 1 2.400000000000 116.670424434816 20.907000000000 2.439102949857
6604 1 2.400000000000 119.109527384672 18.180000000000 3.658654424785
6605 2 -1.200000000000 116.873683013970 18.634500000000 3.048878687321
6606 2 -1.200000000000 116.060648697351 19.543500000000 0.609775737464
6607 2 -1.200000000000 118.499751647208 16.816500000000 1.829327212393
6608 2 -1.200000000000 117.686717330589 17.725500000000 23.781253761104
6609 2 -1.200000000000 118.906268805518 20.452500000000 3.048878687321
6610 2 -1.200000000000 118.093234488899 21.361500000000 0.609775737464
6611 2 -1.200000000000 120.532337438755 18.634500000000 1.829327212393
6612 2 -1.200000000000 119.719303122136 19.543500000000 23.781253761104
6613 1 2.400000000000 113.824804326649 19.998000000000 0.000000000000
6614 1 2.400000000000 114.637838643268 19.089000000000 20.732375073783
6615 1 2.400000000000 115.044355801578 22.725000000000 21.951926548711
6616 1 2.400000000000 117.483458751434 19.998000000000 23.171478023639
6617 2 -1.200000000000 115.247614380732 20.452500000000 22.561702286175
6618 2 -1.200000000000 114.434580064113 21.361500000000 20.122599336318
6619 2 -1.200000000000 116.873683013970 18.634500000000 21.342150811247
6620 2 -1.200000000000 116.060648697351 19.543500000000 18.903047861390
6621 2 -1.200000000000 117.280200172280 22.270500000000 22.561702286175
6622 2 -1.200000000000 116.467165855661 23.179500000000 20.122599336318
6623 2 -1.200000000000 118.906268805518 20.452500000000 21.342150811247
6624 2 -1.200000000000 118.093234488899 21.361500000000 18.903047861390
6625 1 2.400000000000 125.207284759314 7.272000000000 21.951926548711
6626 1 2.400000000000 126.020319075933 6.363000000000 18.293272123926
6627 1 2.400000000000 126.426836234243 9.999000000000 19.512823598854
6628 1 2.400000000000 128.865939184099 7.272000000000 20.732375073783
6629 2 -1.200000000000 126.630094813397 7.726500000000 20.122599336318
6630 2 -1.200000000000 125.817060496778 8.635500000000 17.683496386462
6631 2 -1.200000000000 128.256163446635 5.908500000000 18.903047861390
6632 2 -1.200000000000 127.443129130016 6.817500000000 16.463944911533
6633 2 -1.200000000000 128.662680604945 9.544500000000 20.122599336318
6634 2 -1.200000000000 127.849646288326 10.453500000000 17.683496386462
6635 2 -1.200000000000 130.288749238183 7.726500000000 18.903047861390
6636 2 -1.200000000000 129.475714921564 8.635500000000 16.463944911533
6637 1 2.400000000000 123.581216126076 9.090000000000 17.073720648997
6638 1 2.400000000000 124.394250442695 8.181000000000 13.415066224212
6639 1 2.400000000000 124.800767601005 11.817000000000 14.634617699141
6640 1 2.400000000000 127.239870550862 9.090000000000 15.854169174069
6641 2 -1.200000000000 125.004026180159 9.544500000000 15.244393436605
6642 2 -1.200000000000 124.190991863541 10.453500000000 12.805290486748
6643 2 -1.200000000000 126.630094813397 7.726500000000 14.024841961676
6644 2 -1.200000000000 125.817060496778 8.635500000000 11.585739011820
6645 2 -1.200000000000 127.036611971707 11.362500000000 15.244393436605
6646 2 -1.200000000000 126.223577655088 12.271500000000 12.805290486748
6647 2 -1.200000000000 128.662680604945 9.544500000000 14.024841961676
6648 2 -1.200000000000 127.849646288326 10.453500000000 11.585739011820
6649 1 2.400000000000 121.955147492839 10.908000000000 12.195514749284
6650 1 2.400000000000 122.768181809457 9.999000000000 8.536860324499
6651 1 2.400000000000 123.174698967767 13.635000000000 9.756411799427
6652 1 2.400000000000 125.613801917624 10.908000000000 10.975963274355
6653 2 -1.200000000000 123.377957546922 11.362500000000 10.366187536891
6654 2 -1.200000000000 122.564923230303 12.271500000000 7.927084587035
6655 2 -1.200000000000 125.004026180159 9.544500000000 9.146636061963
6656 2 -1.200000000000 124.190991863541 10.453500000000 6.707533112106
6657 2 -1.200000000000 125.410543338469 13.180500000000 10.366187536891
6658 2 -1.200000000000 124.597509021850 14.089500000000 7.927084587035
6659 2 -1.200000000000 127.036611971707 11.362500000000 9.146636061963
6660 2 -1.200000000000 126.223577655088 12.271500000000 6.707533112106
6661 1 2.400000000000 120.329078859601 12.726000000000 7.317308849570
6662 1 2.400000000000 121.142113176220 11.817000000000 3.658654424785
6663 1 2.400000000000 121.548630334529 15.453000000000 4.878205899714
6664 1 2.400000000000 123.987733284386 12.726000000000 6.097757374642
6665 2 -1.200000000000 121.751888913684 13.180500000000 5.487981637178
6666 2 -1.200000000000 120.938854597065 14.089500000000 3.048878687321
6667 2 -1.200000000000 123.377957546922 11.362500000000 4.268430162249
6668 2 -1.200000000000 122.564923230303 12.271500000000 1.829327212393
6669 2 -1.200000000000 123.784474705231 14.998500000000 5.487981637178
6670 2 -1.200000000000 122.971440388612 15.907500000000 3.048878687321
6671 2 -1.200000000000 125.410543338469 13.180500000000 4.268430162249
6672 2 -1.200000000000 124.597509021850 14.089500000000 1.829327212393
6673 1 2.400000000000 118.703010226363 14.544000000000 2.439102949857
6674 1 2.400000000000 119.516044542982 13.635000000000 23.171478023639
6675 1 2.400000000000 119.922561701291 17.271000000000 0.000000000000
6676 1 2.400000000000 122.361664651148 14.544000000000 1.219551474928
6677 2 -1.200000000000 120.125820280446 14.998500000000 0.609775737464
6678 2 -1.200000000000 119.312785963827 15.907500000000 22.561702286175
6679 2 -1.200000000000 121.751888913684 13.180500000000 23.781253761104
6680 2 -1.200000000000 120.938854597065 14.089500000000 21.342150811247
6681 2 -1.200000000000 122.158406071993 16.816500000000 0.609775737464
6682 2 -1.200000000000 121.345371755374 17.725500000000 22.561702286175
6683 2 -1.200000000000 123.784474705231 14.998500000000 23.781253761104
6684 2 -1.200000000000 122.971440388612 15.907500000000 21.342150811247
6685 1 2.400000000000 128.459422025790 3.636000000000 19.512823598854
6686 1 2.400000000000 129.272456342409 2.727000000000 15.854169174069
6687 1 2.400000000000 129.678973500718 6.363000000000 17.073720648997
6688 1 2.400000000000 132.118076450575 3.636000000000 18.293272123926
6689 2 -1.200000000000 129.882232079873 4.090500000000 17.683496386462
6690 2 -1.200000000000 129.069197763254 4.999500000000 15.244393436605
6691 2 -1.200000000000 131.508300713111 2.272500000000 16.463944911533
6692 2 -1.200000000000 130.695266396492 3.181500000000 14.024841961676
6693 2 -1.200000000000 131.914817871420 5.908500000000 17.683496386462
6694 2 -1.200000000000 131.101783554801 6.817500000000 15.244393436605
6695 2 -1.200000000000 133.540886504658 4.090500000000 16.463944911533
6696 2 -1.200000000000 132.727852188039 4.999500000000 14.024841961676
6697 1 2.400000000000 126.833353392552 5.454000000000 14.634617699141
6698 1 2.400000000000 127.646387709171 4.545000000000 10.975963274355
6699 1 2.400000000000 128.052904867480 8.181000000000 12.195514749284
6700 1 2.400000000000 130.492007817337 5.454000000000 13.415066224212
6701 2 -1.200000000000 128.256163446635 5.908500000000 12.805290486748
6702 2 -1.200000000000 127.443129130016 6.817500000000 10.366187536891
6703 2 -1.200000000000 129.882232079873 4.090500000000 11.585739011820
6704 2 -1.200000000000 129.069197763254 4.999500000000 9.146636061963
6705 2 -1.200000000000 130.288749238183 7.726500000000 12.805290486748
6706 2 -1.200000000000 129.475714921564 8.635500000000 10.366187536891
6707 2 -1.200000000000 131.914817871420 5.908500000000 11.585739011820
6708 2 -1.200000000000 131.101783554801 6.817500000000 9.146636061963
6709 1 2.400000000000 125.207284759314 7.272000000000 9.756411799427
6710 1 2.400000000000 126.020319075933 6.363000000000 6.097757374642
6711 1 2.400000000000 126.426836234243 9.999000000000 7.317308849570
6712 1 2.400000000000 128.865939184099 7.272000000000 8.536860324499
6713 2 -1.200000000000 126.630094813397 7.726500000000 7.927084587035
6714 2 -1.200000000000 125.817060496778 8.635500000000 5.487981637178
6715 2 -1.200000000000 128.256163446635 5.908500000000 6.707533112106
6716 2 -1.200000000000 127.443129130016 6.817500000000 4.268430162249
6717 2 -1.200000000000 128.662680604945 9.544500000000 7.927084587035
6718 2 -1.200000000000 127.849646288326 10.453500000000 5.487981637178
6719 2 -1.200000000000 130.288749238183 7.726500000000 6.707533112106
6720 2 -1.200000000000 129.475714921564 8.635500000000 4.268430162249
6721 1 2.400000000000 123.581216126076 9.090000000000 4.878205899714
6722 1 2.400000000000 124.394250442695 8.181000000000 1.219551474928
6723 1 2.400000000000 124.800767601005 11.817000000000 2.439102949857
6724 1 2.400000000000 127.239870550862 9.090000000000 3.658654424785
6725 2 -1.200000000000 125.004026180159 9.544500000000 3.048878687321
6726 2 -1.200000000000 124.190991863541 10.453500000000 0.609775737464
6727 2 -1.200000000000 126.630094813397 7.726500000000 1.829327212393
6728 2 -1.200000000000 125.817060496778 8.635500000000 23.781253761104
6729 2 -1.200000000000 127.036611971707 11.362500000000 3.048878687321
6730 2 -1.200000000000 126.223577655088 12.271500000000 0.609775737464
6731 2 -1.200000000000 128.662680604945 9.544500000000 1.829327212393
6732 2 -1.200000000000 127.849646288326 10.453500000000 23.781253761104
6733 1 2.400000000000 121.955147492839 10.908000000000 0.000000000000
6734 1 2.400000000000 122.768181809457 9.999000000000 20.732375073783
6735 1 2.400000000000 123.174698967767 13.635000000000 21.951926548711
6736 1 2.400000000000 125.613801917624 10.908000000000 23.171478023639
6737 2 -1.200000000000 123.377957546922 11.362500000000 22.561702286175
6738 2 -1.200000000000 122.564923230303 12.271500000000 20.122599336318
6739 2 -1.200000000000 125.004026180159 9.544500000000 21.342150811247
6740 2 -1.200000000000 124.190991863541 10.453500000000 18.903047861390
6741 2 -1.200000000000 125.410543338469 13.180500000000 22.561702286175
6742 2 -1.200000000000 124.597509021850 14.089500000000 20.122599336318
6743 2 -1.200000000000 127.036611971707 11.362500000000 21.342150811247
6744 2 -1.200000000000 126.223577655088 12.271500000000 18.903047861390
6745 1 2.400000000000 131.711559292266 0.000000000000 17.073720648997
6746 1 2.400000000000 132.524593608885 31.815000000000 13.415066224212
6747 1 2.400000000000 132.931110767194 2.727000000000 14.634617699141
6748 1 2.400000000000 135.370213717051 0.000000000000 15.854169174069
6749 2 -1.200000000000 133.134369346349 0.454500000000 15.244393436605
6750 2 -1.200000000000 132.321335029730 1.363500000000 12.805290486748
6751 2 -1.200000000000 134.760437979587 31.360500000000 14.024841961676
6752 2 -1.200000000000 133.947403662968 32.269500000000 11.585739011820
6753 2 -1.200000000000 135.166955137896 2.272500000000 15.244393436605
6754 2 -1.200000000000 134.353920821277 3.181500000000 12.805290486748
6755 2 -1.200000000000 136.793023771134 0.454500000000 14.024841961676
6756 2 -1.200000000000 135.979989454515 1.363500000000 11.585739011820
6757 1 2.400000000000 130.085490659028 1.818000000000 12.195514749284
6758 1 2.400000000000 130.898524975647 0.909000000000 8.536860324499
6759 1 2.400000000000 131.305042133956 4.545000000000 9.756411799427
6760 1 2.400000000000 133.744145083813 1.818000000000 10.975963274355
6761 2 -1.200000000000 131.508300713111 2.272500000000 10.366187536891
6762 2 -1.200000000000 130.695266396492 3.181500000000 7.927084587035
6763 2 -1.200000000000 133.134369346349 0.454500000000 9.146636061963
6764 2 -1.200000000000 132.321335029730 1.363500000000 6.707533112106
6765 2 -1.200000000000 133.540886504658 4.090500000000 10.366187536891
6766 2 -1.200000000000 132.727852188039 4.999500000000 7.927084587035
6767 2 -1.200000000000 135.166955137896 2.272500000000 9.146636061963
6768 2 -1.200000000000 134.353920821277 3.181500000000 6.707533112106
6769 1 2.400000000000 128.459422025790 3.636000000000 7.317308849570
6770 1 2.400000000000 129.272456342409 2.727000000000 3.658654424785
6771 1 2.400000000000 129.678973500718 6.363000000000 4.878205899714
6772 1 2.400000000000 132.118076450575 3.636000000000 6.097757374642
6773 2 -1.200000000000 129.882232079873 4.090500000000 5.487981637178
6774 2 -1.200000000000 129.069197763254 4.999500000000 3.048878687321
6775 2 -1.200000000000 131.508300713111 2.272500000000 4.268430162249
6776 2 -1.200000000000 130.695266396492 3.181500000000 1.829327212393
6777 2 -1.200000000000 131.914817871420 5.908500000000 5.487981637178
6778 2 -1.200000000000 131.101783554801 6.817500000000 3.048878687321
6779 2 -1.200000000000 133.540886504658 4.090500000000 4.268430162249
6780 2 -1.200000000000 132.727852188039 4.999500000000 1.829327212393
6781 1 2.400000000000 126.833353392552 5.454000000000 2.439102949857
6782 1 2.400000000000 127.646387709171 4.545000000000 23.171478023639
6783 1 2.400000000000 128.052904867480 8.181000000000 0.000000000000
6784 1 2.400000000000 130.492007817337 5.454000000000 1.219551474928
6785 2 -1.200000000000 128.256163446635 5.908500000000 0.609775737464
6786 2 -1.200000000000 127.443129130016 6.817500000000 22.561702286175
6787 2 -1.200000000000 129.882232079873 4.090500000000 23.781253761104
6788 2 -1.200000000000 129.069197763254 4.999500000000 21.342150811247
6789 2 -1.200000000000 130.288749238183 7.726500000000 0.609775737464
6790 2 -1.200000000000 129.475714921564 8.635500000000 22.561702286175
6791 2 -1.200000000000 131.914817871420 5.908500000000 23.781253761104
6792 2 -1.200000000000 131.101783554801 6.817500000000 21.342150811247
6793 1 2.400000000000 131.711559292266 0.000000000000 4.878205899714
6794 1 2.400000000000 132.524593608885 31.815000000000 1.219551474928
6795 1 2.400000000000 132.931110767194 2.727000000000 2.439102949857
6796 1 2.400000000000 135.370213717051 0.000000000000 3.658654424785
6797 2 -1.200000000000 133.134369346349 0.454500000000 3.048878687321
6798 2 -1.200000000000 132.321335029730 1.363500000000 0.609775737464
6799 2 -1.200000000000 134.760437979587 31.360500000000 1.829327212393
6800 2 -1.200000000000 133.947403662968 32.269500000000 23.781253761104
6801 2 -1.200000000000 135.166955137896 2.272500000000 3.048878687321
6802 2 -1.200000000000 134.353920821277 3.181500000000 0.609775737464
6803 2 -1.200000000000 136.793023771134 0.454500000000 1.829327212393
6804 2 -1.200000000000 135.979989454515 1.363500000000 23.781253761104
6805 1 2.400000000000 130.085490659028 1.818000000000 0.000000000000
6806 1 2.400000000000 130.898524975647 0.909000000000 20.732375073783
6807 1 2.400000000000 131.305042133956 4.545000000000 21.951926548711
6808 1 2.400000000000 133.744145083813 1.818000000000 23.171478023639
6809 2 -1.200000000000 131.508300713111 2.272500000000 22.561702286175
6810 2 -1.200000000000 130.695266396492 3.181500000000 20.122599336318
6811 2 -1.200000000000 133.134369346349 0.454500000000 21.342150811247
6812 2 -1.200000000000 132.321335029730 1.363500000000 18.903047861390
6813 2 -1.200000000000 133.540886504658 4.090500000000 22.561702286175
6814 2 -1.200000000000 132.727852188039 4.999500000000 20.122599336318
6815 2 -1.200000000000 135.166955137896 2.272500000000 21.342150811247
6816 2 -1.200000000000 134.353920821277 3.181500000000 18.903047861390
6817 1 2.400000000000 113.011770010030 29.088000000000 21.951926548711
6818 1 2.400000000000 113.824804326649 28.179000000000 18.293272123926
6819 1 2.400000000000 114.231321484959 31.815000000000 19.512823598854
6820 1 2.400000000000 116.670424434816 29.088000000000 20.732375073783
6821 2 -1.200000000000 114.434580064113 29.542500000000 20.122599336318
6822 2 -1.200000000000 113.621545747495 30.451500000000 17.683496386462
6823 2 -1.200000000000 116.060648697351 27.724500000000 18.903047861390
6824 2 -1.200000000000 115.247614380732 28.633500000000 16.463944911533
6825 2 -1.200000000000 116.467165855661 31.360500000000 20.122599336318
6826 2 -1.200000000000 115.654131539042 32.269500000000 17.683496386462
6827 2 -1.200000000000 118.093234488899 29.542500000000 18.903047861390
6828 2 -1.200000000000 117.280200172280 30.451500000000 16.463944911533
6829 1 2.400000000000 111.385701376793 30.906000000000 17.073720648997
6830 1 2.400000000000 112.198735693411 29.997000000000 13.415066224212
6831 1 2.400000000000 112.605252851721 0.909000000000 14.634617699141
6832 1 2.400000000000 115.044355801578 30.906000000000 15.854169174069
6833 2 -1.200000000000 112.808511430876 31.360500000000 15.244393436605
6834 2 -1.200000000000 111.995477114257 32.269500000000 12.805290486748
6835 2 -1.200000000000 114.434580064113 29.542500000000 14.024841961676
6836 2 -1.200000000000 113.621545747495 30.451500000000 11.585739011820
6837 2 -1.200000000000 114.841097222423 0.454500000000 15.244393436605
6838 2 -1.200000000000 114.028062905804 1.363500000000 12.805290486748
6839 2 -1.200000000000 116.467165855661 31.360500000000 14.024841961676
6840 2 -1.200000000000 115.654131539042 32.269500000000 11.585739011820
6841 1 2.400000000000 116.263907276506 25.452000000000 19.512823598854
6842 1 2.400000000000 117.076941593125 24.543000000000 15.854169174069
6843 1 2.400000000000 117.483458751434 28.179000000000 17.073720648997
6844 1 2.400000000000 119.922561701291 25.452000000000 18.293272123926
6845 2 -1.200000000000 117.686717330589 25.906500000000 17.683496386462
6846 2 -1.200000000000 116.873683013970 26.815500000000 15.244393436605
6847 2 -1.200000000000 119.312785963827 24.088500000000 16.463944911533
6848 2 -1.200000000000 118.499751647208 24.997500000000 14.024841961676
6849 2 -1.200000000000 119.719303122136 27.724500000000 17.683496386462
6850 2 -1.200000000000 118.906268805518 28.633500000000 15.244393436605
6851 2 -1.200000000000 121.345371755374 25.906500000000 16.463944911533
6852 2 -1.200000000000 120.532337438755 26.815500000000 14.024841961676
6853 1 2.400000000000 114.637838643268 27.270000000000 14.634617699141
6854 1 2.400000000000 115.450872959887 26.361000000000 10.975963274355
6855 1 2.400000000000 115.857390118197 29.997000000000 12.195514749284
6856 1 2.400000000000 118.296493068053 27.270000000000 13.415066224212
6857 2 -1.200000000000 116.060648697351 27.724500000000 12.805290486748
6858 2 -1.200000000000 115.247614380732 28.633500000000 10.366187536891
6859 2 -1.200000000000 117.686717330589 25.906500000000 11.585739011820
6860 2 -1.200000000000 116.873683013970 26.815500000000 9.146636061963
6861 2 -1.200000000000 118.093234488899 29.542500000000 12.805290486748
6862 2 -1.200000000000 117.280200172280 30.451500000000 10.366187536891
6863 2 -1.200000000000 119.719303122136 27.724500000000 11.585739011820
6864 2 -1.200000000000 118.906268805518 28.633500000000 9.146636061963
6865 1 2.400000000000 113.011770010030 29.088000000000 9.756411799427
6866 1 2.400000000000 113.824804326649 28.179000000000 6.097757374642
6867 1 2.400000000000 114.231321484959 31.815000000000 7.317308849570
6868 1 2.400000000000 116.670424434816 29.088000000000 8.536860324499
6869 2 -1.200000000000 114.434580064113 29.542500000000 7.927084587035
6870 2 -1.200000000000 113.621545747495 30.451500000000 5.487981637178
6871 2 -1.200000000000 116.060648697351 27.724500000000 6.707533112106
6872 2 -1.200000000000 115.247614380732 28.633500000000 4.268430162249
6873 2 -1.200000000000 116.467165855661 31.360500000000 7.927084587035
6874 2 -1.200000000000 115.654131539042 32.269500000000 5.487981637178
6875 2 -1.200000000000 118.093234488899 29.542500000000 6.707533112106
6876 2 -1.200000000000 117.280200172280 30.451500000000 4.268430162249
6877 1 2.400000000000 111.385701376793 30.906000000000 4.878205899714
6878 1 2.400000000000 112.198735693411 29.997000000000 1.219551474928
6879 1 2.400000000000 112.605252851721 0.909000000000 2.439102949857
6880 1 2.400000000000 115.044355801578 30.906000000000 3.658654424785
6881 2 -1.200000000000 112.808511430876 31.360500000000 3.048878687321
6882 2 -1.200000000000 111.995477114257 32.269500000000 0.609775737464
6883 2 -1.200000000000 114.434580064113 29.542500000000 1.829327212393
6884 2 -1.200000000000 113.621545747495 30.451500000000 23.781253761104
6885 2 -1.200000000000 114.841097222423 0.454500000000 3.048878687321
6886 2 -1.200000000000 114.028062905804 1.363500000000 0.609775737464
6887 2 -1.200000000000 116.467165855661 31.360500000000 1.829327212393
6888 2 -1.200000000000 115.654131539042 32.269500000000 23.781253761104
6889 1 2.400000000000 121.142113176220 19.998000000000 21.951926548711
6890 1 2.400000000000 121.955147492839 19.089000000000 18.293272123926
6891 1 2.400000000000 122.361664651148 22.725000000000 19.512823598854
6892 1 2.400000000000 124.800767601005 19.998000000000 20.732375073783
6893 2 -1.200000000000 122.564923230303 20.452500000000 20.122599336318
6894 2 -1.200000000000 121.751888913684 21.361500000000 17.683496386462
6895 2 -1.200000000000 124.190991863541 18.634500000000 18.903047861390
6896 2 -1.200000000000 123.377957546922 19.543500000000 16.463944911533
6897 2 -1.200000000000 124.597509021850 22.270500000000 20.122599336318
6898 2 -1.200000000000 123.784474705231 23.179500000000 17.683496386462
6899 2 -1.200000000000 126.223577655088 20.452500000000 18.903047861390
6900 2 -1.200000000000 125.410543338469 21.361500000000 16.463944911533
6901 1 2.400000000000 119.516044542982 21.816000000000 17.073720648997
6902 1 2.400000000000 120.329078859601 20.907000000000 13.415066224212
6903 1 2.400000000000 120.735596017910 24.543000000000 14.634617699141
6904 1 2.400000000000 123.174698967767 21.816000000000 15.854169174069
6905 2 -1.200000000000 120.938854597065 22.270500000000 15.244393436605
6906 2 -1.200000000000 120.125820280446 23.179500000000 12.805290486748
6907 2 -1.200000000000 122.564923230303 20.452500000000 14.024841961676
6908 2 -1.200000000000 121.751888913684 21.361500000000 11.585739011820
6909 2 -1.200000000000 122.971440388612 24.088500000000 15.244393436605
6910 2 -1.200000000000 122.158406071993 24.997500000000 12.805290486748
6911 2 -1.200000000000 124.597509021850 22.270500000000 14.024841961676
6912 2 -1.200000000000 123.784474705231 23.179500000000 11.585739011820
6913 1 2.400000000000 117.889975909744 23.634000000000 12.195514749284
6914 1 2.400000000000 118.703010226363 22.725000000000 8.536860324499
6915 1 2.400000000000 119.109527384672 26.361000000000 9.756411799427
6916 1 2.400000000000 121.548630334529 23.634000000000 10.975963274355
6917 2 -1.200000000000 119.312785963827 24.088500000000 10.366187536891
6918 2 -1.200000000000 118.499751647208 24.997500000000 7.927084587035
6919 2 -1.200000000000 120.938854597065 22.270500000000 9.146636061963
6920 2 -1.200000000000 120.125820280446 23.179500000000 6.707533112106
6921 2 -1.200000000000 121.345371755374 25.906500000000 10.366187536891
6922 2 -1.200000000000 120.532337438755 26.815500000000 7.927084587035
6923 2 -1.200000000000 122.971440388612 24.088500000000 9.146636061963
6924 2 -1.200000000000 122.158406071993 24.997500000000 6.707533112106
6925 1 2.400000000000 116.263907276506 25.452000000000 7.317308849570
6926 1 2.400000000000 117.076941593125 24.543000000000 3.658654424785
6927 1 2.400000000000 117.483458751434 28.179000000000 4.878205899714
6928 1 2.400000000000 119.922561701291 25.452000000000 6.097757374642
6929 2 -1.200000000000 117.686717330589 25.906500000000 5.487981637178
6930 2 -1.200000000000 116.873683013970 26.815500000000 3.048878687321
6931 2 -1.200000000000 119.312785963827 24.088500000000 4.268430162249
6932 2 -1.200000000000 118.499751647208 24.997500000000 1.829327212393
6933 2 -1.200000000000 119.719303122136 27.724500000000 5.487981637178
6934 2 -1.200000000000 118.906268805518 28.633500000000 3.048878687321
6935 2 -1.200000000000 121.345371755374 25.906500000000 4.268430162249
6936 2 -1.200000000000 120.532337438755 26.815500000000 1.829327212393
6937 1 2.400000000000 114.637838643268 27.270000000000 2.439102949857
6938 1 2.400000000000 115.450872959887 26.361000000000 23.171478023639
6939 1 2.400000000000 115.857390118197 29.997000000000 0.000000000000
6940 1 2.400000000000 118.296493068053 27.270000000000 1.219551474928
6941 2 -1.200000000000 116.060648697351 27.724500000000 0.609775737464
6942 2 -1.200000000000 115.247614380732 28.633500000000 22.561702286175
6943 2 -1.200000000000 117.686717330589 25.906500000000 23.781253761104
6944 2 -1.200000000000 116.873683013970 26.815500000000 21.342150811247
6945 2 -1.200000000000 118.093234488899 29.542500000000 0.609775737464
6946 2 -1.200000000000 117.280200172280 30.451500000000 22.561702286175
6947 2 -1.200000000000 119.719303122136 27.724500000000 23.781253761104
6948 2 -1.200000000000 118.906268805518 28.633500000000 21.342150811247
6949 1 2.400000000000 124.394250442695 16.362000000000 19.512823598854
6950 1 2.400000000000 125.207284759314 15.453000000000 15.854169174069
6951 1 2.400000000000 125.613801917624 19.089000000000 17.073720648997
6952 1 2.400000000000 128.052904867480 16.362000000000 18.293272123926
6953 2 -1.200000000000 125.817060496778 16.816500000000 17.683496386462
6954 2 -1.200000000000 125.004026180159 17.725500000000 15.244393436605
6955 2 -1.200000000000 127.443129130016 14.998500000000 16.463944911533
6956 2 -1.200000000000 126.630094813397 15.907500000000 14.024841961676
6957 2 -1.200000000000 127.849646288326 18.634500000000 17.683496386462
6958 2 -1.200000000000 127.036611971707 19.543500000000 15.244393436605
6959 2 -1.200000000000 129.475714921564 16.816500000000 16.463944911533
6960 2 -1.200000000000 128.662680604945 17.725500000000 14.024841961676
6961 1 2.400000000000 122.768181809457 18.180000000000 14.634617699141
6962 1 2.400000000000 123.581216126076 17.271000000000 10.975963274355
6963 1 2.400000000000 123.987733284386 20.907000000000 12.195514749284
6964 1 2.400000000000 126.426836234243 18.180000000000 13.415066224212
6965 2 -1.200000000000 124.190991863541 18.634500000000 12.805290486748
6966 2 -1.200000000000 123.377957546922 19.543500000000 10.366187536891
6967 2 -1.200000000000 125.817060496778 16.816500000000 11.585739011820
6968 2 -1.200000000000 125.004026180159 17.725500000000 9.146636061963
6969 2 -1.200000000000 126.223577655088 20.452500000000 12.805290486748
6970 2 -1.200000000000 125.410543338469 21.361500000000 10.366187536891
6971 2 -1.200000000000 127.849646288326 18.634500000000 11.585739011820
6972 2 -1.200000000000 127.036611971707 19.543500000000 9.146636061963
6973 1 2.400000000000 121.142113176220 19.998000000000 9.756411799427
6974 1 2.400000000000 121.955147492839 19.089000000000 6.097757374642
6975 1 2.400000000000 122.361664651148 22.725000000000 7.317308849570
6976 1 2.400000000000 124.800767601005 19.998000000000 8.536860324499
6977 2 -1.200000000000 122.564923230303 20.452500000000 7.927084587035
6978 2 -1.200000000000 121.751888913684 21.361500000000 5.487981637178
6979 2 -1.200000000000 124.190991863541 18.634500000000 6.707533112106
6980 2 -1.200000000000 123.377957546922 19.543500000000 4.268430162249
6981 2 -1.200000000000 124.597509021850 22.270500000000 7.927084587035
6982 2 -1.200000000000 123.784474705231 23.179500000000 5.487981637178
6983 2 -1.200000000000 126.223577655088 20.452500000000 6.707533112106
6984 2 -1.200000000000 125.410543338469 21.361500000000 4.268430162249
6985 1 2.400000000000 119.516044542982 21.816000000000 4.878205899714
6986 1 2.400000000000 120.329078859601 20.907000000000 1.219551474928
6987 1 2.400000000000 120.735596017910 24.543000000000 2.439102949857
6988 1 2.400000000000 123.174698967767 21.816000000000 3.658654424785
6989 2 -1.200000000000 120.938854597065 22.270500000000 3.048878687321
6990 2 -1.200000000000 120.125820280446 23.179500000000 0.609775737464
6991 2 -1.200000000000 122.564923230303 20.452500000000 1.829327212393
6992 2 -1.200000000000 121.751888913684 21.361500000000 23.781253761104
6993 2 -1.200000000000 122.971440388612 24.088500000000 3.048878687321
6994 2 -1.200000000000 122.158406071993 24.997500000000 0.609775737464
6995 2 -1.200000000000 124.597509021850 22.270500000000 1.829327212393
6996 2 -1.200000000000 123.784474705231 23.179500000000 23.781253761104
6997 1 2.400000000000 117.889975909744 23.634000000000 0.000000000000
6998 1 2.400000000000 118.703010226363 22.725000000000 20.732375073783
6999 1 2.400000000000 119.109527384672 26.361000000000 21.951926548711
7000 1 2.400000000000 121.548630334529 23.634000000000 23.171478023639
7001 2 -1.200000000000 119.312785963827 24.088500000000 22.561702286175
7002 2 -1.200000000000 118.499751647208 24.997500000000 20.122599336318
7003 2 -1.200000000000 120.938854597065 22.270500000000 21.342150811247
7004 2 -1.200000000000 120.125820280446 23.179500000000 18.903047861390
7005 2 -1.200000000000 121.345371755374 25.906500000000 22.561702286175
7006 2 -1.200000000000 120.532337438755 26.815500000000 20.122599336318
7007 2 -1.200000000000 122.971440388612 24.088500000000 21.342150811247
7008 2 -1.200000000000 122.158406071993 24.997500000000 18.903047861390
7009 1 2.400000000000 129.272456342409 10.908000000000 21.951926548711
7010 1 2.400000000000 130.085490659028 9.999000000000 18.293272123926
7011 1 2.400000000000 130.492007817337 13.635000000000 19.512823598854
7012 1 2.400000000000 132.931110767194 10.908000000000 20.732375073783
7013 2 -1.200000000000 130.695266396492 11.362500000000 20.122599336318
7014 2 -1.200000000000 129.882232079873 12.271500000000 17.683496386462
7015 2 -1.200000000000 132.321335029730 9.544500000000 18.903047861390
7016 2 -1.200000000000 131.508300713111 10.453500000000 16.463944911533
7017 2 -1.200000000000 132.727852188039 13.180500000000 20.122599336318
7018 2 -1.200000000000 131.914817871420 14.089500000000 17.683496386462
7019 2 -1.200000000000 134.353920821277 11.362500000000 18.903047861390
7020 2 -1.200000000000 133.540886504658 12.271500000000 16.463944911533
7021 1 2.400000000000 127.646387709171 12.726000000000 17.073720648997
7022 1 2.400000000000 128.459422025790 11.817000000000 13.415066224212
7023 1 2.400000000000 128.865939184099 15.453000000000 14.634617699141
7024 1 2.400000000000 131.305042133956 12.726000000000 15.854169174069
7025 2 -1.200000000000 129.069197763254 13.180500000000 15.244393436605
7026 2 -1.200000000000 128.256163446635 14.089500000000 12.805290486748
7027 2 -1.200000000000 130.695266396492 11.362500000000 14.024841961676
7028 2 -1.200000000000 129.882232079873 12.271500000000 11.585739011820
7029 2 -1.200000000000 131.101783554801 14.998500000000 15.244393436605
7030 2 -1.200000000000 130.288749238182 15.907500000000 12.805290486748
7031 2 -1.200000000000 132.727852188039 13.180500000000 14.024841961676
7032 2 -1.200000000000 131.914817871420 14.089500000000 11.585739011820
7033 1 2.400000000000 126.020319075933 14.544000000000 12.195514749284
7034 1 2.400000000000 126.833353392552 13.635000000000 8.536860324499
7035 1 2.400000000000 127.239870550862 17.271000000000 9.756411799427
7036 1 2.400000000000 129.678973500718 14.544000000000 10.975963274355
7037 2 -1.200000000000 127.443129130016 14.998500000000 10.366187536891
7038 2 -1.200000000000 126.630094813397 15.907500000000 7.927084587035
7039 2 -1.200000000000 129.069197763254 13.180500000000 9.146636061963
7040 2 -1.200000000000 128.256163446635 14.089500000000 6.707533112106
7041 2 -1.200000000000 129.475714921564 16.816500000000 10.366187536891
7042 2 -1.200000000000 128.662680604945 17.725500000000 7.927084587035
7043 2 -1.200000000000 131.101783554801 14.998500000000 9.146636061963
7044 2 -1.200000000000 130.288749238183 15.907500000000 6.707533112106
7045 1 2.400000000000 124.394250442695 16.362000000000 7.317308849570
7046 1 2.400000000000 125.207284759314 15.453000000000 3.658654424785
7047 1 2.400000000000 125.613801917624 19.089000000000 4.878205899714
7048 1 2.400000000000 128.052904867480 16.362000000000 6.097757374642
7049 2 -1.200000000000 125.817060496778 16.816500000000 5.487981637178
7050 2 -1.200000000000 125.004026180159 17.725500000000 3.048878687321
7051 2 -1.200000000000 127.443129130016 14.998500000000 4.268430162249
7052 2 -1.200000000000 126.630094813397 15.907500000000 1.829327212393
7053 2 -1.200000000000 127.849646288326 18.634500000000 5.487981637178
7054 2 -1.200000000000 127.036611971707 19.543500000000 3.048878687321
7055 2 -1.200000000000 129.475714921564 16.816500000000 4.268430162249
7056 2 -1.200000000000 128.662680604945 17.725500000000 1.829327212393
7057 1 2.400000000000 122.768181809457 18.180000000000 2.439102949857
7058 1 2.400000000000 123.581216126076 17.271000000000 23.171478023639
7059 1 2.400000000000 123.987733284386 20.907000000000 0.000000000000
7060 1 2.400000000000 126.426836234243 18.180000000000 1.219551474928
7061 2 -1.200000000000 124.190991863541 18.634500000000 0.609775737464
7062 2 -1.200000000000 123.377957546922 19.543500000000 22.561702286175
7063 2 -1.200000000000 125.817060496778 16.816500000000 23.781253761104
7064 2 -1.200000000000 125.004026180159 17.725500000000 21.342150811247
7065 2 -1.200000000000 126.223577655088 20.452500000000 0.609775737464
7066 2 -1.200000000000 125.410543338469 21.361500000000 22.561702286175
7067 2 -1.200000000000 127.849646288326 18.634500000000 23.781253761104
7068 2 -1.200000000000 127.036611971707 19.543500000000 21.342150811247
7069 1 2.400000000000 132.524593608885 7.272000000000 19.512823598854
7070 1 2.400000000000 133.337627925503 6.363000000000 15.854169174069
7071 1 2.400000000000 133.744145083813 9.999000000000 17.073720648997
7072 1 2.400000000000 136.183248033670 7.272000000000 18.293272123926
7073 2 -1.200000000000 133.947403662968 7.726500000000 17.683496386462
7074 2 -1.200000000000 133.134369346349 8.635500000000 15.244393436605
7075 2 -1.200000000000 135.573472296205 5.908500000000 16.463944911533
7076 2 -1.200000000000 134.760437979587 6.817500000000 14.024841961676
7077 2 -1.200000000000 135.979989454515 9.544500000000 17.683496386462
7078 2 -1.200000000000 135.166955137896 10.453500000000 15.244393436605
7079 2 -1.200000000000 137.606058087753 7.726500000000 16.463944911533
7080 2 -1.200000000000 136.793023771134 8.635500000000 14.024841961676
7081 1 2.400000000000 130.898524975647 9.090000000000 14.634617699141
7082 1 2.400000000000 131.711559292266 8.181000000000 10.975963274355
7083 1 2.400000000000 132.118076450575 11.817000000000 12.195514749284
7084 1 2.400000000000 134.557179400432 9.090000000000 13.415066224212
7085 2 -1.200000000000 132.321335029730 9.544500000000 12.805290486748
7086 2 -1.200000000000 131.508300713111 10.453500000000 10.366187536891
7087 2 -1.200000000000 133.947403662968 7.726500000000 11.585739011820
7088 2 -1.200000000000 133.134369346349 8.635500000000 9.146636061963
7089 2 -1.200000000000 134.353920821277 11.362500000000 12.805290486748
7090 2 -1.200000000000 133.540886504658 12.271500000000 10.366187536891
7091 2 -1.200000000000 135.979989454515 9.544500000000 11.585739011820
7092 2 -1.200000000000 135.166955137896 10.453500000000 9.146636061963
7093 1 2.400000000000 129.272456342409 10.908000000000 9.756411799427
7094 1 2.400000000000 130.085490659028 9.999000000000 6.097757374642
7095 1 2.400000000000 130.492007817337 13.635000000000 7.317308849570
7096 1 2.400000000000 132.931110767194 10.908000000000 8.536860324499
7097 2 -1.200000000000 130.695266396492 11.362500000000 7.927084587035
7098 2 -1.200000000000 129.882232079873 12.271500000000 5.487981637178
7099 2 -1.200000000000 132.321335029730 9.544500000000 6.707533112106
7100 2 -1.200000000000 131.508300713111 10.453500000000 4.268430162249
7101 2 -1.200000000000 132.727852188039 13.180500000000 7.927084587035
7102 2 -1.200000000000 131.914817871420 14.089500000000 5.487981637178
7103 2 -1.200000000000 134.353920821277 11.362500000000 6.707533112106
7104 2 -1.200000000000 133.540886504658 12.271500000000 4.268430162249
7105 1 2.400000000000 127.646387709171 12.726000000000 4.878205899714
7106 1 2.400000000000 128.459422025790 11.817000000000 1.219551474928
7107 1 2.400000000000 128.865939184099 15.453000000000 2.439102949857
7108 1 2.400000000000 131.305042133956 12.726000000000 3.658654424785
7109 2 -1.200000000000 129.069197763254 13.180500000000 3.048878687321
7110 2 -1.200000000000 128.256163446635 14.089500000000 0.609775737464
7111 2 -1.200000000000 130.695266396492 11.362500000000 1.829327212393
7112 2 -1.200000000000 129.882232079873 12.271500000000 23.781253761104
7113 2 -1.200000000000 131.101783554801 14.998500000000 3.048878687321
7114 2 -1.200000000000 130.288749238183 15.907500000000 0.609775737464
7115 2 -1.200000000000 132.727852188039 13.180500000000 1.829327212393
7116 2 -1.200000000000 131.914817871420 14.089500000000 23.781253761104
7117 1 2.400000000000 126.020319075933 14.544000000000 0.000000000000
7118 1 2.400000000000 126.833353392552 13.635000000000 20.732375073783
7119 1 2.400000000000 127.239870550862 17.271000000000 21.951926548711
7120 1 2.400000000000 129.678973500718 14.544000000000 23.171478023639
7121 2 -1.200000000000 127.443129130016 14.998500000000 22.561702286175
7122 2 -1.200000000000 126.630094813397 15.907500000000 20.122599336318
7123 2 -1.200000000000 129.069197763254 13.180500000000 21.342150811247
7124 2 -1.200000000000 128.256163446635 14.089500000000 18.903047861390
7125 2 -1.200000000000 129.475714921564 16.816500000000 22.561702286175
7126 2 -1.200000000000 128.662680604945 17.725500000000 20.122599336318
7127 2 -1.200000000000 131.101783554801 14.998500000000 21.342150811247
7128 2 -1.200000000000 130.288749238183 15.907500000000 18.903047861390
7129 1 2.400000000000 137.402799508598 1.818000000000 21.951926548711
7130 1 2.400000000000 138.215833825217 0.909000000000 18.293272123926
7131 1 2.400000000000 138.622350983526 4.545000000000 19.512823598854
7132 1 2.400000000000 141.061453933383 1.818000000000 20.732375073783
7133 2 -1.200000000000 138.825609562681 2.272500000000 20.122599336318
7134 2 -1.200000000000 138.012575246062 3.181500000000 17.683496386462
7135 2 -1.200000000000 140.451678195919 0.454500000000 18.903047861390
7136 2 -1.200000000000 139.638643879300 1.363500000000 16.463944911533
7137 2 -1.200000000000 140.858195354228 4.090500000000 20.122599336318
7138 2 -1.200000000000 140.045161037610 4.999500000000 17.683496386462
7139 2 -1.200000000000 142.484263987466 2.272500000000 18.903047861390
7140 2 -1.200000000000 141.671229670847 3.181500000000 16.463944911533
7141 1 2.400000000000 135.776730875360 3.636000000000 17.073720648997
7142 1 2.400000000000 136.589765191979 2.727000000000 13.415066224212
7143 1 2.400000000000 136.996282350289 6.363000000000 14.634617699141
7144 1 2.400000000000 139.435385300145 3.636000000000 15.854169174069
7145 2 -1.200000000000 137.199540929443 4.090500000000 15.244393436605
7146 2 -1.200000000000 136.386506612824 4.999500000000 12.805290486748
7147 2 -1.200000000000 138.825609562681 2.272500000000 14.024841961676
7148 2 -1.200000000000 138.012575246062 3.181500000000 11.585739011820
7149 2 -1.200000000000 139.232126720991 5.908500000000 15.244393436605
7150 2 -1.200000000000 138.419092404372 6.817500000000 12.805290486748
7151 2 -1.200000000000 140.858195354228 4.090500000000 14.024841961676
7152 2 -1.200000000000 140.045161037610 4.999500000000 11.585739011820
7153 1 2.400000000000 134.150662242122 5.454000000000 12.195514749284
7154 1 2.400000000000 134.963696558741 4.545000000000 8.536860324499
7155 1 2.400000000000 135.370213717051 8.181000000000 9.756411799427
7156 1 2.400000000000 137.809316666908 5.454000000000 10.975963274355
7157 2 -1.200000000000 135.573472296205 5.908500000000 10.366187536891
7158 2 -1.200000000000 134.760437979587 6.817500000000 7.927084587035
7159 2 -1.200000000000 137.199540929443 4.090500000000 9.146636061963
7160 2 -1.200000000000 136.386506612824 4.999500000000 6.707533112106
7161 2 -1.200000000000 137.606058087753 7.726500000000 10.366187536891
7162 2 -1.200000000000 136.793023771134 8.635500000000 7.927084587035
7163 2 -1.200000000000 139.232126720991 5.908500000000 9.146636061963
7164 2 -1.200000000000 138.419092404372 6.817500000000 6.707533112106
7165 1 2.400000000000 132.524593608885 7.272000000000 7.317308849570
7166 1 2.400000000000 133.337627925503 6.363000000000 3.658654424785
7167 1 2.400000000000 133.744145083813 9.999000000000 4.878205899714
7168 1 2.400000000000 136.183248033670 7.272000000000 6.097757374642
7169 2 -1.200000000000 133.947403662968 7.726500000000 5.487981637178
7170 2 -1.200000000000 133.134369346349 8.635500000000 3.048878687321
7171 2 -1.200000000000 135.573472296205 5.908500000000 4.268430162249
7172 2 -1.200000000000 134.760437979587 6.817500000000 1.829327212393
7173 2 -1.200000000000 135.979989454515 9.544500000000 5.487981637178
7174 2 -1.200000000000 135.166955137896 10.453500000000 3.048878687321
7175 2 -1.200000000000 137.606058087753 7.726500000000 4.268430162249
7176 2 -1.200000000000 136.793023771134 8.635500000000 1.829327212393
7177 1 2.400000000000 130.898524975647 9.090000000000 2.439102949857
7178 1 2.400000000000 131.711559292266 8.181000000000 23.171478023639
7179 1 2.400000000000 132.118076450575 11.817000000000 0.000000000000
7180 1 2.400000000000 134.557179400432 9.090000000000 1.219551474928
7181 2 -1.200000000000 132.321335029730 9.544500000000 0.609775737464
7182 2 -1.200000000000 131.508300713111 10.453500000000 22.561702286175
7183 2 -1.200000000000 133.947403662968 7.726500000000 23.781253761104
7184 2 -1.200000000000 133.134369346349 8.635500000000 21.342150811247
7185 2 -1.200000000000 134.353920821277 11.362500000000 0.609775737464
7186 2 -1.200000000000 133.540886504658 12.271500000000 22.561702286175
7187 2 -1.200000000000 135.979989454515 9.544500000000 23.781253761104
7188 2 -1.200000000000 135.166955137896 10.453500000000 21.342150811247
7189 1 2.400000000000 139.028868141836 0.000000000000 14.634617699141
7190 1 2.400000000000 139.841902458455 31.815000000000 10.975963274355
7191 1 2.400000000000 140.248419616764 2.727000000000 12.195514749284
7192 1 2.400000000000 142.687522566621 0.000000000000 13.415066224212
7193 2 -1.200000000000 140.451678195919 0.454500000000 12.805290486748
7194 2 -1.200000000000 139.638643879300 1.363500000000 10.366187536891
7195 2 -1.200000000000 142.077746829157 31.360500000000 11.585739011820
7196 2 -1.200000000000 141.264712512538 32.269500000000 9.146636061963
7197 2 -1.200000000000 142.484263987466 2.272500000000 12.805290486748
7198 2 -1.200000000000 141.671229670847 3.181500000000 10.366187536891
7199 2 -1.200000000000 144.110332620704 0.454500000000 11.585739011820
7200 2 -1.200000000000 143.297298304085 1.363500000000 9.146636061963
7201 1 2.400000000000 137.402799508598 1.818000000000 9.756411799427
7202 1 2.400000000000 138.215833825217 0.909000000000 6.097757374642
7203 1 2.400000000000 138.622350983526 4.545000000000 7.317308849570
7204 1 2.400000000000 141.061453933383 1.818000000000 8.536860324499
7205 2 -1.200000000000 138.825609562681 2.272500000000 7.927084587035
7206 2 -1.200000000000 138.012575246062 3.181500000000 5.487981637178
7207 2 -1.200000000000 140.451678195919 0.454500000000 6.707533112106
7208 2 -1.200000000000 139.638643879300 1.363500000000 4.268430162249
7209 2 -1.200000000000 140.858195354228 4.090500000000 7.927084587035
7210 2 -1.200000000000 140.045161037610 4.999500000000 5.487981637178
7211 2 -1.200000000000 142.484263987466 2.272500000000 6.707533112106
7212 2 -1.200000000000 141.671229670847 3.181500000000 4.268430162249
7213 1 2.400000000000 135.776730875360 3.636000000000 4.878205899714
7214 1 2.400000000000 136.589765191979 2.727000000000 1.219551474928
7215 1 2.400000000000 136.996282350289 6.363000000000 2.439102949857
7216 1 2.400000000000 139.435385300145 3.636000000000 3.658654424785
7217 2 -1.200000000000 137.199540929443 4.090500000000 3.048878687321
7218 2 -1.200000000000 136.386506612824 4.999500000000 0.609775737464
7219 2 -1.200000000000 138.825609562681 2.272500000000 1.829327212393
7220 2 -1.200000000000 138.012575246062 3.181500000000 23.781253761104
7221 2 -1.200000000000 139.232126720991 5.908500000000 3.048878687321
7222 2 -1.200000000000 138.419092404372 6.817500000000 0.609775737464
7223 2 -1.200000000000 140.858195354228 4.090500000000 1.829327212393
7224 2 -1.200000000000 140.045161037610 4.999500000000 23.781253761104
7225 1 2.400000000000 134.150662242122 5.454000000000 0.000000000000
7226 1 2.400000000000 134.963696558741 4.545000000000 20.732375073783
7227 1 2.400000000000 135.370213717051 8.181000000000 21.951926548711
7228 1 2.400000000000 137.809316666908 5.454000000000 23.171478023639
7229 2 -1.200000000000 135.573472296205 5.908500000000 22.561702286175
7230 2 -1.200000000000 134.760437979587 6.817500000000 20.122599336318
7231 2 -1.200000000000 137.199540929443 4.090500000000 21.342150811247
7232 2 -1.200000000000 136.386506612824 4.999500000000 18.903047861390
7233 2 -1.200000000000 137.606058087753 7.726500000000 22.561702286175
7234 2 -1.200000000000 136.793023771134 8.635500000000 20.122599336318
7235 2 -1.200000000000 139.232126720991 5.908500000000 21.342150811247
7236 2 -1.200000000000 138.419092404372 6.817500000000 18.903047861390
7237 1 2.400000000000 139.028868141836 0.000000000000 2.439102949857
7238 1 2.400000000000 139.841902458455 31.815000000000 23.171478023639
7239 1 2.400000000000 140.248419616764 2.727000000000 0.000000000000
7240 1 2.400000000000 142.687522566621 0.000000000000 1.219551474928
7241 2 -1.200000000000 140.451678195919 0.454500000000 0.609775737464
7242 2 -1.200000000000 139.638643879300 1.363500000000 22.561702286175
7243 2 -1.200000000000 142.077746829157 31.360500000000 23.781253761104
7244 2 -1.200000000000 141.264712512538 32.269500000000 21.342150811247
7245 2 -1.200000000000 142.484263987466 2.272500000000 0.609775737464
7246 2 -1.200000000000 141.671229670847 3.181500000000 22.561702286175
7247 2 -1.200000000000 144.110332620704 0.454500000000 23.781253761104
7248 2 -1.200000000000 143.297298304085 1.363500000000 21.342150811247
7249 1 2.400000000000 120.329078859601 29.088000000000 19.512823598854
7250 1 2.400000000000 121.142113176220 28.179000000000 15.854169174069
7251 1 2.400000000000 121.548630334529 31.815000000000 17.073720648997
7252 1 2.400000000000 123.987733284386 29.088000000000 18.293272123926
7253 2 -1.200000000000 121.751888913684 29.542500000000 17.683496386462
7254 2 -1.200000000000 120.938854597065 30.451500000000 15.244393436605
7255 2 -1.200000000000 123.377957546922 27.724500000000 16.463944911533
7256 2 -1.200000000000 122.564923230303 28.633500000000 14.024841961676
7257 2 -1.200000000000 123.784474705231 31.360500000000 17.683496386462
7258 2 -1.200000000000 122.971440388612 32.269500000000 15.244393436605
7259 2 -1.200000000000 125.410543338469 29.542500000000 16.463944911533
7260 2 -1.200000000000 124.597509021850 30.451500000000 14.024841961676
7261 1 2.400000000000 118.703010226363 30.906000000000 14.634617699141
7262 1 2.400000000000 119.516044542982 29.997000000000 10.975963274355
7263 1 2.400000000000 119.922561701291 0.909000000000 12.195514749284
7264 1 2.400000000000 122.361664651148 30.906000000000 13.415066224212
7265 2 -1.200000000000 120.125820280446 31.360500000000 12.805290486748
7266 2 -1.200000000000 119.312785963827 32.269500000000 10.366187536891
7267 2 -1.200000000000 121.751888913684 29.542500000000 11.585739011820
7268 2 -1.200000000000 120.938854597065 30.451500000000 9.146636061963
7269 2 -1.200000000000 122.158406071993 0.454500000000 12.805290486748
7270 2 -1.200000000000 121.345371755374 1.363500000000 10.366187536891
7271 2 -1.200000000000 123.784474705231 31.360500000000 11.585739011820
7272 2 -1.200000000000 122.971440388612 32.269500000000 9.146636061963
7273 1 2.400000000000 125.207284759314 23.634000000000 21.951926548711
7274 1 2.400000000000 126.020319075933 22.725000000000 18.293272123926
7275 1 2.400000000000 126.426836234243 26.361000000000 19.512823598854
7276 1 2.400000000000 128.865939184099 23.634000000000 20.732375073783
7277 2 -1.200000000000 126.630094813397 24.088500000000 20.122599336318
7278 2 -1.200000000000 125.817060496778 24.997500000000 17.683496386462
7279 2 -1.200000000000 128.256163446635 22.270500000000 18.903047861390
7280 2 -1.200000000000 127.443129130016 23.179500000000 16.463944911533
7281 2 -1.200000000000 128.662680604945 25.906500000000 20.122599336318
7282 2 -1.200000000000 127.849646288326 26.815500000000 17.683496386462
7283 2 -1.200000000000 130.288749238183 24.088500000000 18.903047861390
7284 2 -1.200000000000 129.475714921564 24.997500000000 16.463944911533
7285 1 2.400000000000 123.581216126076 25.452000000000 17.073720648997
7286 1 2.400000000000 124.394250442695 24.543000000000 13.415066224212
7287 1 2.400000000000 124.800767601005 28.179000000000 14.634617699141
7288 1 2.400000000000 127.239870550862 25.452000000000 15.854169174069
7289 2 -1.200000000000 125.004026180159 25.906500000000 15.244393436605
7290 2 -1.200000000000 124.190991863541 26.815500000000 12.805290486748
7291 2 -1.200000000000 126.630094813397 24.088500000000 14.024841961676
7292 2 -1.200000000000 125.817060496778 24.997500000000 11.585739011820
7293 2 -1.200000000000 127.036611971707 27.724500000000 15.244393436605
7294 2 -1.200000000000 126.223577655088 28.633500000000 12.805290486748
7295 2 -1.200000000000 128.662680604945 25.906500000000 14.024841961676
7296 2 -1.200000000000 127.849646288326 26.815500000000 11.585739011820
7297 1 2.400000000000 121.955147492839 27.270000000000 12.195514749284
7298 1 2.400000000000 122.768181809457 26.361000000000 8.536860324499
7299 1 2.400000000000 123.174698967767 29.997000000000 9.756411799427
7300 1 2.400000000000 125.613801917624 27.270000000000 10.975963274355
7301 2 -1.200000000000 123.377957546922 27.724500000000 10.366187536891
7302 2 -1.200000000000 122.564923230303 28.633500000000 7.927084587035
7303 2 -1.200000000000 125.004026180159 25.906500000000 9.146636061963
7304 2 -1.200000000000 124.190991863541 26.815500000000 6.707533112106
7305 2 -1.200000000000 125.410543338469 29.542500000000 10.366187536891
7306 2 -1.200000000000 124.597509021850 30.451500000000 7.927084587035
7307 2 -1.200000000000 127.036611971707 27.724500000000 9.146636061963
7308 2 -1.200000000000 126.223577655088 28.633500000000 6.707533112106
7309 1 2.400000000000 120.329078859601 29.088000000000 7.317308849570
7310 1 2.400000000000 121.142113176220 28.179000000000 3.658654424785
7311 1 2.400000000000 121.548630334529 31.815000000000 4.878205899714
7312 1 2.400000000000 123.987733284386 29.088000000000 6.097757374642
7313 2 -1.200000000000 121.751888913684 29.542500000000 5.487981637178
7314 2 -1.200000000000 120.938854597065 30.451500000000 3.048878687321
7315 2 -1.200000000000 123.377957546922 27.724500000000 4.268430162249
7316 2 -1.200000000000 122.564923230303 28.633500000000 1.829327212393
7317 2 -1.200000000000 123.784474705231 31.360500000000 5.487981637178
7318 2 -1.200000000000 122.971440388612 32.269500000000 3.048878687321
7319 2 -1.200000000000 125.410543338469 29.542500000000 4.268430162249
7320 2 -1.200000000000 124.597509021850 30.451500000000 1.829327212393
7321 1 2.400000000000 118.703010226363 30.906000000000 2.439102949857
7322 1 2.400000000000 119.516044542982 29.997000000000 23.171478023639
7323 1 2.400000000000 119.922561701291 0.909000000000 0.000000000000
7324 1 2.400000000000 122.361664651148 30.906000000000 1.219551474928
7325 2 -1.200000000000 120.125820280446 31.360500000000 0.609775737464
7326 2 -1.200000000000 119.312785963827 32.269500000000 22.561702286175
7327 2 -1.200000000000 121.751888913684 29.542500000000 23.781253761104
7328 2 -1.200000000000 120.938854597065 30.451500000000 21.342150811247
7329 2 -1.200000000000 122.158406071993 0.454500000000 0.609775737464
7330 2 -1.200000000000 121.345371755374 1.363500000000 22.561702286175
7331 2 -1.200000000000 123.784474705231 31.360500000000 23.781253761104
7332 2 -1.200000000000 122.971440388612 32.269500000000 21.342150811247
7333 1 2.400000000000 128.459422025790 19.998000000000 19.512823598854
7334 1 2.400000000000 129.272456342409 19.089000000000 15.854169174069
7335 1 2.400000000000 129.678973500718 22.725000000000 17.073720648997
7336 1 2.400000000000 132.118076450575 19.998000000000 18.293272123926
7337 2 -1.200000000000 129.882232079873 20.452500000000 17.683496386462
7338 2 -1.200000000000 129.069197763254 21.361500000000 15.244393436605
7339 2 -1.200000000000 131.508300713111 18.634500000000 16.463944911533
7340 2 -1.200000000000 130.695266396492 19.543500000000 14.024841961676
7341 2 -1.200000000000 131.914817871420 22.270500000000 17.683496386462
7342 2 -1.200000000000 131.101783554801 23.179500000000 15.244393436605
7343 2 -1.200000000000 133.540886504658 20.452500000000 16.463944911533
7344 2 -1.200000000000 132.727852188039 21.361500000000 14.024841961676
7345 1 2.400000000000 126.833353392552 21.816000000000 14.634617699141
7346 1 2.400000000000 127.646387709171 20.907000000000 10.975963274355
7347 1 2.400000000000 128.052904867480 24.543000000000 12.195514749284
7348 1 2.400000000000 130.492007817337 21.816000000000 13.415066224212
7349 2 -1.200000000000 128.256163446635 22.270500000000 12.805290486748
7350 2 -1.200000000000 127.443129130016 23.179500000000 10.366187536891
7351 2 -1.200000000000 129.882232079873 20.452500000000 11.585739011820
7352 2 -1.200000000000 129.069197763254 21.361500000000 9.146636061963
7353 2 -1.200000000000 130.288749238183 24.088500000000 12.805290486748
7354 2 -1.200000000000 129.475714921564 24.997500000000 10.366187536891
7355 2 -1.200000000000 131.914817871420 22.270500000000 11.585739011820
7356 2 -1.200000000000 131.101783554801 23.179500000000 9.146636061963
7357 1 2.400000000000 125.207284759314 23.634000000000 9.756411799427
7358 1 2.400000000000 126.020319075933 22.725000000000 6.097757374642
7359 1 2.400000000000 126.426836234243 26.361000000000 7.317308849570
7360 1 2.400000000000 128.865939184099 23.634000000000 8.536860324499
7361 2 -1.200000000000 126.630094813397 24.088500000000 7.927084587035
7362 2 -1.200000000000 125.817060496778 24.997500000000 5.487981637178
7363 2 -1.200000000000 128.256163446635 22.270500000000 6.707533112106
7364 2 -1.200000000000 127.443129130016 23.179500000000 4.268430162249
7365 2 -1.200000000000 128.662680604945 25.906500000000 7.927084587035
7366 2 -1.200000000000 127.849646288326 26.815500000000 5.487981637178
7367 2 -1.200000000000 130.288749238183 24.088500000000 6.707533112106
7368 2 -1.200000000000 129.475714921564 24.997500000000 4.268430162249
7369 1 2.400000000000 123.581216126076 25.452000000000 4.878205899714
7370 1 2.400000000000 124.394250442695 24.543000000000 1.219551474928
7371 1 2.400000000000 124.800767601005 28.179000000000 2.439102949857
7372 1 2.400000000000 127.239870550862 25.452000000000 3.658654424785
7373 2 -1.200000000000 125.004026180159 25.906500000000 3.048878687321
7374 2 -1.200000000000 124.190991863541 26.815500000000 0.609775737464
7375 2 -1.200000000000 126.630094813397 24.088500000000 1.829327212393
7376 2 -1.200000000000 125.817060496778 24.997500000000 23.781253761104
7377 2 -1.200000000000 127.036611971707 27.724500000000 3.048878687321
7378 2 -1.200000000000 126.223577655088 28.633500000000 0.609775737464
7379 2 -1.200000000000 128.662680604945 25.906500000000 1.829327212393
7380 2 -1.200000000000 127.849646288326 26.815500000000 23.781253761104
7381 1 2.400000000000 121.955147492839 27.270000000000 0.000000000000
7382 1 2.400000000000 122.768181809457 26.361000000000 20.732375073783
7383 1 2.400000000000 123.174698967767 29.997000000000 21.951926548711
7384 1 2.400000000000 125.613801917624 27.270000000000 23.171478023639
7385 2 -1.200000000000 123.377957546922 27.724500000000 22.561702286175
7386 2 -1.200000000000 122.564923230303 28.633500000000 20.122599336318
7387 2 -1.200000000000 125.004026180159 25.906500000000 21.342150811247
7388 2 -1.200000000000 124.190991863541 26.815500000000 18.903047861390
7389 2 -1.200000000000 125.410543338469 29.542500000000 22.561702286175
7390 2 -1.200000000000 124.597509021850 30.451500000000 20.122599336318
7391 2 -1.200000000000 127.036611971707 27.724500000000 21.342150811247
7392 2 -1.200000000000 126.223577655088 28.633500000000 18.903047861390
7393 1 2.400000000000 133.337627925503 14.544000000000 21.951926548711
7394 1 2.400000000000 134.150662242122 13.635000000000 18.293272123926
7395 1 2.400000000000 134.557179400432 17.271000000000 19.512823598854
7396 1 2.400000000000 136.996282350289 14.544000000000 20.732375073783
7397 2 -1.200000000000 134.760437979587 14.998500000000 20.122599336318
7398 2 -1.200000000000 133.947403662968 15.907500000000 17.683496386462
7399 2 -1.200000000000 136.386506612824 13.180500000000 18.903047861390
7400 2 -1.200000000000 135.573472296205 14.089500000000 16.463944911533
7401 2 -1.200000000000 136.793023771134 16.816500000000 20.122599336318
7402 2 -1.200000000000 135.979989454515 17.725500000000 17.683496386462
7403 2 -1.200000000000 138.419092404372 14.998500000000 18.903047861390
7404 2 -1.200000000000 137.606058087753 15.907500000000 16.463944911533
7405 1 2.400000000000 131.711559292266 16.362000000000 17.073720648997
7406 1 2.400000000000 132.524593608885 15.453000000000 13.415066224212
7407 1 2.400000000000 132.931110767194 19.089000000000 14.634617699141
7408 1 2.400000000000 135.370213717051 16.362000000000 15.854169174069
7409 2 -1.200000000000 133.134369346349 16.816500000000 15.244393436605
7410 2 -1.200000000000 132.321335029730 17.725500000000 12.805290486748
7411 2 -1.200000000000 134.760437979587 14.998500000000 14.024841961676
7412 2 -1.200000000000 133.947403662968 15.907500000000 11.585739011820
7413 2 -1.200000000000 135.166955137896 18.634500000000 15.244393436605
7414 2 -1.200000000000 134.353920821277 19.543500000000 12.805290486748
7415 2 -1.200000000000 136.793023771134 16.816500000000 14.024841961676
7416 2 -1.200000000000 135.979989454515 17.725500000000 11.585739011820
7417 1 2.400000000000 130.085490659028 18.180000000000 12.195514749284
7418 1 2.400000000000 130.898524975647 17.271000000000 8.536860324499
7419 1 2.400000000000 131.305042133956 20.907000000000 9.756411799427
7420 1 2.400000000000 133.744145083813 18.180000000000 10.975963274355
7421 2 -1.200000000000 131.508300713111 18.634500000000 10.366187536891
7422 2 -1.200000000000 130.695266396492 19.543500000000 7.927084587035
7423 2 -1.200000000000 133.134369346349 16.816500000000 9.146636061963
7424 2 -1.200000000000 132.321335029730 17.725500000000 6.707533112106
7425 2 -1.200000000000 133.540886504658 20.452500000000 10.366187536891
7426 2 -1.200000000000 132.727852188039 21.361500000000 7.927084587035
7427 2 -1.200000000000 135.166955137896 18.634500000000 9.146636061963
7428 2 -1.200000000000 134.353920821277 19.543500000000 6.707533112106
7429 1 2.400000000000 128.459422025790 19.998000000000 7.317308849570
7430 1 2.400000000000 129.272456342409 19.089000000000 3.658654424785
7431 1 2.400000000000 129.678973500718 22.725000000000 4.878205899714
7432 1 2.400000000000 132.118076450575 19.998000000000 6.097757374642
7433 2 -1.200000000000 129.882232079873 20.452500000000 5.487981637178
7434 2 -1.200000000000 129.069197763254 21.361500000000 3.048878687321
7435 2 -1.200000000000 131.508300713111 18.634500000000 4.268430162249
7436 2 -1.200000000000 130.695266396492 19.543500000000 1.829327212393
7437 2 -1.200000000000 131.914817871420 22.270500000000 5.487981637178
7438 2 -1.200000000000 131.101783554801 23.179500000000 3.048878687321
7439 2 -1.200000000000 133.540886504658 20.452500000000 4.268430162249
7440 2 -1.200000000000 132.727852188039 21.361500000000 1.829327212393
7441 1 2.400000000000 126.833353392552 21.816000000000 2.439102949857
7442 1 2.400000000000 127.646387709171 20.907000000000 23.171478023639
7443 1 2.400000000000 128.052904867480 24.543000000000 0.000000000000
7444 1 2.400000000000 130.492007817337 21.816000000000 1.219551474928
7445 2 -1.200000000000 128.256163446635 22.270500000000 0.609775737464
7446 2 -1.200000000000 127.443129130016 23.179500000000 22.561702286175
7447 2 -1.200000000000 129.882232079873 20.452500000000 23.781253761104
7448 2 -1.200000000000 129.069197763254 21.361500000000 21.342150811247
7449 2 -1.200000000000 130.288749238182 24.088500000000 0.609775737464
7450 2 -1.200000000000 129.475714921564 24.997500000000 22.561702286175
7451 2 -1.200000000000 131.914817871420 22.270500000000 23.781253761104
7452 2 -1.200000000000 131.101783554801 23.179500000000 21.342150811247
7453 1 2.400000000000 136.589765191979 10.908000000000 19.512823598854
7454 1 2.400000000000 137.402799508598 9.999000000000 15.854169174069
7455 1 2.400000000000 137.809316666908 13.635000000000 17.073720648997
7456 1 2.400000000000 140.248419616764 10.908000000000 18.293272123926
7457 2 -1.200000000000 138.012575246062 11.362500000000 17.683496386462
7458 2 -1.200000000000 137.199540929443 12.271500000000 15.244393436605
7459 2 -1.200000000000 139.638643879300 9.544500000000 16.463944911533
7460 2 -1.200000000000 138.825609562681 10.453500000000 14.024841961676
7461 2 -1.200000000000 140.045161037610 13.180500000000 17.683496386462
7462 2 -1.200000000000 139.232126720991 14.089500000000 15.244393436605
7463 2 -1.200000000000 141.671229670847 11.362500000000 16.463944911533
7464 2 -1.200000000000 140.858195354228 12.271500000000 14.024841961676
7465 1 2.400000000000 134.963696558741 12.726000000000 14.634617699141
7466 1 2.400000000000 135.776730875360 11.817000000000 10.975963274355
7467 1 2.400000000000 136.183248033670 15.453000000000 12.195514749284
7468 1 2.400000000000 138.622350983526 12.726000000000 13.415066224212
7469 2 -1.200000000000 136.386506612824 13.180500000000 12.805290486748
7470 2 -1.200000000000 135.573472296205 14.089500000000 10.366187536891
7471 2 -1.200000000000 138.012575246062 11.362500000000 11.585739011820
7472 2 -1.200000000000 137.199540929443 12.271500000000 9.146636061963
7473 2 -1.200000000000 138.419092404372 14.998500000000 12.805290486748
7474 2 -1.200000000000 137.606058087753 15.907500000000 10.366187536891
7475 2 -1.200000000000 140.045161037610 13.180500000000 11.585739011820
7476 2 -1.200000000000 139.232126720991 14.089500000000 9.146636061963
7477 1 2.400000000000 133.337627925503 14.544000000000 9.756411799427
7478 1 2.400000000000 134.150662242122 13.635000000000 6.097757374642
7479 1 2.400000000000 134.557179400432 17.271000000000 7.317308849570
7480 1 2.400000000000 136.996282350289 14.544000000000 8.536860324499
7481 2 -1.200000000000 134.760437979587 14.998500000000 7.927084587035
7482 2 -1.200000000000 133.947403662968 15.907500000000 5.487981637178
7483 2 -1.200000000000 136.386506612824 13.180500000000 6.707533112106
7484 2 -1.200000000000 135.573472296205 14.089500000000 4.268430162249
7485 2 -1.200000000000 136.793023771134 16.816500000000 7.927084587035
7486 2 -1.200000000000 135.979989454515 17.725500000000 5.487981637178
7487 2 -1.200000000000 138.419092404372 14.998500000000 6.707533112106
7488 2 -1.200000000000 137.606058087753 15.907500000000 4.268430162249
7489 1 2.400000000000 131.711559292266 16.362000000000 4.878205899714
7490 1 2.400000000000 132.524593608885 15.453000000000 1.219551474928
7491 1 2.400000000000 132.931110767194 19.089000000000 2.439102949857
7492 1 2.400000000000 135.370213717051 16.362000000000 3.658654424785
7493 2 -1.200000000000 133.134369346349 16.816500000000 3.048878687321
7494 2 -1.200000000000 132.321335029730 17.725500000000 0.609775737464
7495 2 -1.200000000000 134.760437979587 14.998500000000 1.829327212393
7496 2 -1.200000000000 133.947403662968 15.907500000000 23.781253761104
7497 2 -1.200000000000 135.166955137896 18.634500000000 3.048878687321
7498 2 -1.200000000000 134.353920821277 19.543500000000 0.609775737464
7499 2 -1.200000000000 136.793023771134 16.816500000000 1.829327212393
7500 2 -1.200000000000 135.979989454515 17.725500000000 23.781253761104
7501 1 2.400000000000 130.085490659028 18.180000000000 0.000000000000
7502 1 2.400000000000 130.898524975647 17.271000000000 20.732375073783
7503 1 2.400000000000 131.305042133956 20.907000000000 21.951926548711
7504 1 2.400000000000 133.744145083813 18.180000000000 23.171478023639
7505 2 -1.200000000000 131.508300713111 18.634500000000 22.561702286175
7506 2 -1.200000000000 130.695266396492 19.543500000000 20.122599336318
7507 2 -1.200000000000 133.134369346349 16.816500000000 21.342150811247
7508 2 -1.200000000000 132.321335029730 17.725500000000 18.903047861390
7509 2 -1.200000000000 133.540886504658 20.452500000000 22.561702286175
7510 2 -1.200000000000 132.727852188039 21.361500000000 20.122599336318
7511 2 -1.200000000000 135.166955137896 18.634500000000 21.342150811247
7512 2 -1.200000000000 134.353920821277 19.543500000000 18.903047861390
7513 1 2.400000000000 139.841902458455 7.272000000000 17.073720648997
7514 1 2.400000000000 140.654936775074 6.363000000000 13.415066224212
7515 1 2.400000000000 141.061453933383 9.999000000000 14.634617699141
7516 1 2.400000000000 143.500556883240 7.272000000000 15.854169174069
7517 2 -1.200000000000 141.264712512538 7.726500000000 15.244393436605
7518 2 -1.200000000000 140.451678195919 8.635500000000 12.805290486748
7519 2 -1.200000000000 142.890781145776 5.908500000000 14.024841961676
7520 2 -1.200000000000 142.077746829157 6.817500000000 11.585739011820
7521 2 -1.200000000000 143.297298304085 9.544500000000 15.244393436605
7522 2 -1.200000000000 142.484263987466 10.453500000000 12.805290486748
7523 2 -1.200000000000 144.923366937323 7.726500000000 14.024841961676
7524 2 -1.200000000000 144.110332620704 8.635500000000 11.585739011820
7525 1 2.400000000000 138.215833825217 9.090000000000 12.195514749284
7526 1 2.400000000000 139.028868141836 8.181000000000 8.536860324499
7527 1 2.400000000000 139.435385300145 11.817000000000 9.756411799427
7528 1 2.400000000000 141.874488250002 9.090000000000 10.975963274355
7529 2 -1.200000000000 139.638643879300 9.544500000000 10.366187536891
7530 2 -1.200000000000 138.825609562681 10.453500000000 7.927084587035
7531 2 -1.200000000000 141.264712512538 7.726500000000 9.146636061963
7532 2 -1.200000000000 140.451678195919 8.635500000000 6.707533112106
7533 2 -1.200000000000 141.671229670847 11.362500000000 10.366187536891
7534 2 -1.200000000000 140.858195354228 12.271500000000 7.927084587035
7535 2 -1.200000000000 143.297298304085 9.544500000000 9.146636061963
7536 2 -1.200000000000 142.484263987466 10.453500000000 6.707533112106
7537 1 2.400000000000 136.589765191979 10.908000000000 7.317308849570
7538 1 2.400000000000 137.402799508598 9.999000000000 3.658654424785
7539 1 2.400000000000 137.809316666908 13.635000000000 4.878205899714
7540 1 2.400000000000 140.248419616764 10.908000000000 6.097757374642
7541 2 -1.200000000000 138.012575246062 11.362500000000 5.487981637178
7542 2 -1.200000000000 137.199540929443 12.271500000000 3.048878687321
7543 2 -1.200000000000 139.638643879300 9.544500000000 4.268430162249
7544 2 -1.200000000000 138.825609562681 10.453500000000 1.829327212393
7545 2 -1.200000000000 140.045161037610 13.180500000000 5.487981637178
7546 2 -1.200000000000 139.232126720991 14.089500000000 3.048878687321
7547 2 -1.200000000000 141.671229670847 11.362500000000 4.268430162249
7548 2 -1.200000000000 140.858195354228 12.271500000000 1.829327212393
7549 1 2.400000000000 134.963696558741 12.726000000000 2.439102949857
7550 1 2.400000000000 135.776730875360 11.817000000000 23.171478023639
7551 1 2.400000000000 136.183248033670 15.453000000000 0.000000000000
7552 1 2.400000000000 138.622350983526 12.726000000000 1.219551474928
7553 2 -1.200000000000 136.386506612824 13.180500000000 0.609775737464
7554 2 -1.200000000000 135.573472296205 14.089500000000 22.561702286175
7555 2 -1.200000000000 138.012575246062 11.362500000000 23.781253761104
7556 2 -1.200000000000 137.199540929443 12.271500000000 21.342150811247
7557 2 -1.200000000000 138.419092404372 14.998500000000 0.609775737464
7558 2 -1.200000000000 137.606058087753 15.907500000000 22.561702286175
7559 2 -1.200000000000 140.045161037610 13.180500000000 23.781253761104
7560 2 -1.200000000000 139.232126720991 14.089500000000 21.342150811247
7561 1 2.400000000000 139.841902458455 7.272000000000 4.878205899714
7562 1 2.400000000000 140.654936775074 6.363000000000 1.219551474928
7563 1 2.400000000000 141.061453933383 9.999000000000 2.439102949857
7564 1 2.400000000000 143.500556883240 7.272000000000 3.658654424785
7565 2 -1.200000000000 141.264712512538 7.726500000000 3.048878687321
7566 2 -1.200000000000 140.451678195919 8.635500000000 0.609775737464
7567 2 -1.200000000000 142.890781145776 5.908500000000 1.829327212393
7568 2 -1.200000000000 142.077746829157 6.817500000000 23.781253761104
7569 2 -1.200000000000 143.297298304085 9.544500000000 3.048878687321
7570 2 -1.200000000000 142.484263987466 10.453500000000 0.609775737464
7571 2 -1.200000000000 144.923366937323 7.726500000000 1.829327212393
7572 2 -1.200000000000 144.110332620704 8.635500000000 23.781253761104
7573 1 2.400000000000 138.215833825217 9.090000000000 0.000000000000
7574 1 2.400000000000 139.028868141836 8.181000000000 20.732375073783
7575 1 2.400000000000 139.435385300145 11.817000000000 21.951926548711
7576 1 2.400000000000 141.874488250002 9.090000000000 23.171478023639
7577 2 -1.200000000000 139.638643879300 9.544500000000 22.561702286175
7578 2 -1.200000000000 138.825609562681 10.453500000000 20.122599336318
7579 2 -1.200000000000 141.264712512538 7.726500000000 21.342150811247
7580 2 -1.200000000000 140.451678195919 8.635500000000 18.903047861390
7581 2 -1.200000000000 141.671229670847 11.362500000000 22.561702286175
7582 2 -1.200000000000 140.858195354228 12.271500000000 20.122599336318
7583 2 -1.200000000000 143.297298304085 9.544500000000 21.342150811247
7584 2 -1.200000000000 142.484263987466 10.453500000000 18.903047861390
7585 1 2.400000000000 129.272456342409 27.270000000000 21.951926548711
7586 1 2.400000000000 130.085490659028 26.361000000000 18.293272123926
7587 1 2.400000000000 130.492007817337 29.997000000000 19.512823598854
7588 1 2.400000000000 132.931110767194 27.270000000000 20.732375073783
7589 2 -1.200000000000 130.695266396492 27.724500000000 20.122599336318
7590 2 -1.200000000000 129.882232079873 28.633500000000 17.683496386462
7591 2 -1.200000000000 132.321335029730 25.906500000000 18.903047861390
7592 2 -1.200000000000 131.508300713111 26.815500000000 16.463944911533
7593 2 -1.200000000000 132.727852188039 29.542500000000 20.122599336318
7594 2 -1.200000000000 131.914817871420 30.451500000000 17.683496386462
7595 2 -1.200000000000 134.353920821277 27.724500000000 18.903047861390
7596 2 -1.200000000000 133.540886504658 28.633500000000 16.463944911533
7597 1 2.400000000000 127.646387709171 29.088000000000 17.073720648997
7598 1 2.400000000000 128.459422025790 28.179000000000 13.415066224212
7599 1 2.400000000000 128.865939184099 31.815000000000 14.634617699141
7600 1 2.400000000000 131.305042133956 29.088000000000 15.854169174069
7601 2 -1.200000000000 129.069197763254 29.542500000000 15.244393436605
7602 2 -1.200000000000 128.256163446635 30.451500000000 12.805290486748
7603 2 -1.200000000000 130.695266396492 27.724500000000 14.024841961676
7604 2 -1.200000000000 129.882232079873 28.633500000000 11.585739011820
7605 2 -1.200000000000 131.101783554801 31.360500000000 15.244393436605
7606 2 -1.200000000000 130.288749238183 32.269500000000 12.805290486748
7607 2 -1.200000000000 132.727852188039 29.542500000000 14.024841961676
7608 2 -1.200000000000 131.914817871420 30.451500000000 11.585739011820
7609 1 2.400000000000 126.020319075933 30.906000000000 12.195514749284
7610 1 2.400000000000 126.833353392552 29.997000000000 8.536860324499
7611 1 2.400000000000 127.239870550862 0.909000000000 9.756411799427
7612 1 2.400000000000 129.678973500718 30.906000000000 10.975963274355
7613 2 -1.200000000000 127.443129130016 31.360500000000 10.366187536891
7614 2 -1.200000000000 126.630094813397 32.269500000000 7.927084587035
7615 2 -1.200000000000 129.069197763254 29.542500000000 9.146636061963
7616 2 -1.200000000000 128.256163446635 30.451500000000 6.707533112106
7617 2 -1.200000000000 129.475714921564 0.454500000000 10.366187536891
7618 2 -1.200000000000 128.662680604945 1.363500000000 7.927084587035
7619 2 -1.200000000000 131.101783554801 31.360500000000 9.146636061963
7620 2 -1.200000000000 130.288749238183 32.269500000000 6.707533112106
7621 1 2.400000000000 132.524593608885 23.634000000000 19.512823598854
7622 1 2.400000000000 133.337627925503 22.725000000000 15.854169174069
7623 1 2.400000000000 133.744145083813 26.361000000000 17.073720648997
7624 1 2.400000000000 136.183248033670 23.634000000000 18.293272123926
7625 2 -1.200000000000 133.947403662968 24.088500000000 17.683496386462
7626 2 -1.200000000000 133.134369346349 24.997500000000 15.244393436605
7627 2 -1.200000000000 135.573472296205 22.270500000000 16.463944911533
7628 2 -1.200000000000 134.760437979587 23.179500000000 14.024841961676
7629 2 -1.200000000000 135.979989454515 25.906500000000 17.683496386462
7630 2 -1.200000000000 135.166955137896 26.815500000000 15.244393436605
7631 2 -1.200000000000 137.606058087753 24.088500000000 16.463944911533
7632 2 -1.200000000000 136.793023771134 24.997500000000 14.024841961676
7633 1 2.400000000000 130.898524975647 25.452000000000 14.634617699141
7634 1 2.400000000000 131.711559292266 24.543000000000 10.975963274355
7635 1 2.400000000000 132.118076450575 28.179000000000 12.195514749284
7636 1 2.400000000000 134.557179400432 25.452000000000 13.415066224212
7637 2 -1.200000000000 132.321335029730 25.906500000000 12.805290486748
7638 2 -1.200000000000 131.508300713111 26.815500000000 10.366187536891
7639 2 -1.200000000000 133.947403662968 24.088500000000 11.585739011820
7640 2 -1.200000000000 133.134369346349 24.997500000000 9.146636061963
7641 2 -1.200000000000 134.353920821277 27.724500000000 12.805290486748
7642 2 -1.200000000000 133.540886504658 28.633500000000 10.366187536891
7643 2 -1.200000000000 135.979989454515 25.906500000000 11.585739011820
7644 2 -1.200000000000 135.166955137896 26.815500000000 9.146636061963
7645 1 2.400000000000 129.272456342409 27.270000000000 9.756411799427
7646 1 2.400000000000 130.085490659028 26.361000000000 6.097757374642
7647 1 2.400000000000 130.492007817337 29.997000000000 7.317308849570
7648 1 2.400000000000 132.931110767194 27.270000000000 8.536860324499
7649 2 -1.200000000000 130.695266396492 27.724500000000 7.927084587035
7650 2 -1.200000000000 129.882232079873 28.633500000000 5.487981637178
7651 2 -1.200000000000 132.321335029730 25.906500000000 6.707533112106
7652 2 -1.200000000000 131.508300713111 26.815500000000 4.268430162249
7653 2 -1.200000000000 132.727852188039 29.542500000000 7.927084587035
7654 2 -1.200000000000 131.914817871420 30.451500000000 5.487981637178
7655 2 -1.200000000000 134.353920821277 27.724500000000 6.707533112106
7656 2 -1.200000000000 133.540886504658 28.633500000000 4.268430162249
7657 1 2.400000000000 127.646387709171 29.088000000000 4.878205899714
7658 1 2.400000000000 128.459422025790 28.179000000000 1.219551474928
7659 1 2.400000000000 128.865939184099 31.815000000000 2.439102949857
7660 1 2.400000000000 131.305042133956 29.088000000000 3.658654424785
7661 2 -1.200000000000 129.069197763254 29.542500000000 3.048878687321
7662 2 -1.200000000000 128.256163446635 30.451500000000 0.609775737464
7663 2 -1.200000000000 130.695266396492 27.724500000000 1.829327212393
7664 2 -1.200000000000 129.882232079873 28.633500000000 23.781253761104
7665 2 -1.200000000000 131.101783554801 31.360500000000 3.048878687321
7666 2 -1.200000000000 130.288749238183 32.269500000000 0.609775737464
7667 2 -1.200000000000 132.727852188039 29.542500000000 1.829327212393
7668 2 -1.200000000000 131.914817871420 30.451500000000 23.781253761104
7669 1 2.400000000000 126.020319075933 30.906000000000 0.000000000000
7670 1 2.400000000000 126.833353392552 29.997000000000 20.732375073783
7671 1 2.400000000000 127.239870550862 0.909000000000 21.951926548711
7672 1 2.400000000000 129.678973500718 30.906000000000 23.171478023639
7673 2 -1.200000000000 127.443129130016 31.360500000000 22.561702286175
7674 2 -1.200000000000 126.630094813397 32.269500000000 20.122599336318
7675 2 -1.200000000000 129.069197763254 29.542500000000 21.342150811247
7676 2 -1.200000000000 128.256163446635 30.451500000000 18.903047861390
7677 2 -1.200000000000 129.475714921564 0.454500000000 22.561702286175
7678 2 -1.200000000000 128.662680604945 1.363500000000 20.122599336318
7679 2 -1.200000000000 131.101783554801 31.360500000000 21.342150811247
7680 2 -1.200000000000 130.288749238183 32.269500000000 18.903047861390
7681 1 2.400000000000 137.402799508598 18.180000000000 21.951926548711
7682 1 2.400000000000 138.215833825217 17.271000000000 18.293272123926
7683 1 2.400000000000 138.622350983526 20.907000000000 19.512823598854
7684 1 2.400000000000 141.061453933383 18.180000000000 20.732375073783
7685 2 -1.200000000000 138.825609562681 18.634500000000 20.122599336318
7686 2 -1.200000000000 138.012575246062 19.543500000000 17.683496386462
7687 2 -1.200000000000 140.451678195919 16.816500000000 18.903047861390
7688 2 -1.200000000000 139.638643879300 17.725500000000 16.463944911533
7689 2 -1.200000000000 140.858195354228 20.452500000000 20.122599336318
7690 2 -1.200000000000 140.045161037610 21.361500000000 17.683496386462
7691 2 -1.200000000000 142.484263987466 18.634500000000 18.903047861390
7692 2 -1.200000000000 141.671229670847 19.543500000000 16.463944911533
7693 1 2.400000000000 135.776730875360 19.998000000000 17.073720648997
7694 1 2.400000000000 136.589765191979 19.089000000000 13.415066224212
7695 1 2.400000000000 136.996282350289 22.725000000000 14.634617699141
7696 1 2.400000000000 139.435385300145 19.998000000000 15.854169174069
7697 2 -1.200000000000 137.199540929443 20.452500000000 15.244393436605
7698 2 -1.200000000000 136.386506612824 21.361500000000 12.805290486748
7699 2 -1.200000000000 138.825609562681 18.634500000000 14.024841961676
7700 2 -1.200000000000 138.012575246062 19.543500000000 11.585739011820
7701 2 -1.200000000000 139.232126720991 22.270500000000 15.244393436605
7702 2 -1.200000000000 138.419092404372 23.179500000000 12.805290486748
7703 2 -1.200000000000 140.858195354228 20.452500000000 14.024841961676
7704 2 -1.200000000000 140.045161037610 21.361500000000 11.585739011820
7705 1 2.400000000000 134.150662242122 21.816000000000 12.195514749284
7706 1 2.400000000000 134.963696558741 20.907000000000 8.536860324499
7707 1 2.400000000000 135.370213717051 24.543000000000 9.756411799427
7708 1 2.400000000000 137.809316666908 21.816000000000 10.975963274355
7709 2 -1.200000000000 135.573472296205 22.270500000000 10.366187536891
7710 2 -1.200000000000 134.760437979587 23.179500000000 7.927084587035
7711 2 -1.200000000000 137.199540929443 20.452500000000 9.146636061963
7712 2 -1.200000000000 136.386506612824 21.361500000000 6.707533112106
7713 2 -1.200000000000 137.606058087753 24.088500000000 10.366187536891
7714 2 -1.200000000000 136.793023771134 24.997500000000 7.927084587035
7715 2 -1.200000000000 139.232126720991 22.270500000000 9.146636061963
7716 2 -1.200000000000 138.419092404372 23.179500000000 6.707533112106
7717 1 2.400000000000 132.524593608885 23.634000000000 7.317308849570
7718 1 2.400000000000 133.337627925503 22.725000000000 3.658654424785
7719 1 2.400000000000 133.744145083813 26.361000000000 4.878205899714
7720 1 2.400000000000 136.183248033670 23.634000000000 6.097757374642
7721 2 -1.200000000000 133.947403662968 24.088500000000 5.487981637178
7722 2 -1.200000000000 133.134369346349 24.997500000000 3.048878687321
7723 2 -1.200000000000 135.573472296205 22.270500000000 4.268430162249
7724 2 -1.200000000000 134.760437979587 23.179500000000 1.829327212393
7725 2 -1.200000000000 135.979989454515 25.906500000000 5.487981637178
7726 2 -1.200000000000 135.166955137896 26.815500000000 3.048878687321
7727 2 -1.200000000000 137.606058087753 24.088500000000 4.268430162249
7728 2 -1.200000000000 136.793023771134 24.997500000000 1.829327212393
7729 1 2.400000000000 130.898524975647 25.452000000000 2.439102949857
7730 1 2.400000000000 131.711559292266 24.543000000000 23.171478023639
7731 1 2.400000000000 132.118076450575 28.179000000000 0.000000000000
7732 1 2.400000000000 134.557179400432 25.452000000000 1.219551474928
7733 2 -1.200000000000 132.321335029730 25.906500000000 0.609775737464
7734 2 -1.200000000000 131.508300713111 26.815500000000 22.561702286175
7735 2 -1.200000000000 133.947403662968 24.088500000000 23.781253761104
7736 2 -1.200000000000 133.134369346349 24.997500000000 21.342150811247
7737 2 -1.200000000000 134.353920821277 27.724500000000 0.609775737464
7738 2 -1.200000000000 133.540886504658 28.633500000000 22.561702286175
7739 2 -1.200000000000 135.979989454515 25.906500000000 23.781253761104
7740 2 -1.200000000000 135.166955137896 26.815500000000 21.342150811247
7741 1 2.400000000000 140.654936775074 14.544000000000 19.512823598854
7742 1 2.400000000000 141.467971091693 13.635000000000 15.854169174069
7743 1 2.400000000000 141.874488250002 17.271000000000 17.073720648997
7744 1 2.400000000000 144.313591199859 14.544000000000 18.293272123926
7745 2 -1.200000000000 142.077746829157 14.998500000000 17.683496386462
7746 2 -1.200000000000 141.264712512538 15.907500000000 15.244393436605
7747 2 -1.200000000000 143.703815462395 13.180500000000 16.463944911533
7748 2 -1.200000000000 142.890781145776 14.089500000000 14.024841961676
7749 2 -1.200000000000 144.110332620704 16.816500000000 17.683496386462
7750 2 -1.200000000000 143.297298304085 17.725500000000 15.244393436605
7751 2 -1.200000000000 145.736401253942 14.998500000000 16.463944911533
7752 2 -1.200000000000 144.923366937323 15.907500000000 14.024841961676
7753 1 2.400000000000 139.028868141836 16.362000000000 14.634617699141
7754 1 2.400000000000 139.841902458455 15.453000000000 10.975963274355
7755 1 2.400000000000 140.248419616764 19.089000000000 12.195514749284
7756 1 2.400000000000 142.687522566621 16.362000000000 13.415066224212
7757 2 -1.200000000000 140.451678195919 16.816500000000 12.805290486748
7758 2 -1.200000000000 139.638643879300 17.725500000000 10.366187536891
7759 2 -1.200000000000 142.077746829157 14.998500000000 11.585739011820
7760 2 -1.200000000000 141.264712512538 15.907500000000 9.146636061963
7761 2 -1.200000000000 142.484263987466 18.634500000000 12.805290486748
7762 2 -1.200000000000 141.671229670847 19.543500000000 10.366187536891
7763 2 -1.200000000000 144.110332620704 16.816500000000 11.585739011820
7764 2 -1.200000000000 143.297298304085 17.725500000000 9.146636061963
7765 1 2.400000000000 137.402799508598 18.180000000000 9.756411799427
7766 1 2.400000000000 138.215833825217 17.271000000000 6.097757374642
7767 1 2.400000000000 138.622350983526 20.907000000000 7.317308849570
7768 1 2.400000000000 141.061453933383 18.180000000000 8.536860324499
7769 2 -1.200000000000 138.825609562681 18.634500000000 7.927084587035
7770 2 -1.200000000000 138.012575246062 19.543500000000 5.487981637178
7771 2 -1.200000000000 140.451678195919 16.816500000000 6.707533112106
7772 2 -1.200000000000 139.638643879300 17.725500000000 4.268430162249
7773 2 -1.200000000000 140.858195354228 20.452500000000 7.927084587035
7774 2 -1.200000000000 140.045161037610 21.361500000000 5.487981637178
7775 2 -1.200000000000 142.484263987466 18.634500000000 6.707533112106
7776 2 -1.200000000000 141.671229670847 19.543500000000 4.268430162249
7777 1 2.400000000000 135.776730875360 19.998000000000 4.878205899714
7778 1 2.400000000000 136.589765191979 19.089000000000 1.219551474928
7779 1 2.400000000000 136.996282350289 22.725000000000 2.439102949857
7780 1 2.400000000000 139.435385300145 19.998000000000 3.658654424785
7781 2 -1.200000000000 137.199540929443 20.452500000000 3.048878687321
7782 2 -1.200000000000 136.386506612824 21.361500000000 0.609775737464
7783 2 -1.200000000000 138.825609562681 18.634500000000 1.829327212393
7784 2 -1.200000000000 138.012575246062 19.543500000000 23.781253761104
7785 2 -1.200000000000 139.232126720991 22.270500000000 3.048878687321
7786 2 -1.200000000000 138.419092404372 23.179500000000 0.609775737464
7787 2 -1.200000000000 140.858195354228 20.452500000000 1.829327212393
7788 2 -1.200000000000 140.045161037610 21.361500000000 23.781253761104
7789 1 2.400000000000 134.150662242122 21.816000000000 0.000000000000
7790 1 2.400000000000 134.963696558741 20.907000000000 20.732375073783
7791 1 2.400000000000 135.370213717051 24.543000000000 21.951926548711
7792 1 2.400000000000 137.809316666908 21.816000000000 23.171478023639
7793 2 -1.200000000000 135.573472296205 22.270500000000 22.561702286175
7794 2 -1.200000000000 134.760437979587 23.179500000000 20.122599336318
7795 2 -1.200000000000 137.199540929443 20.452500000000 21.342150811247
7796 2 -1.200000000000 136.386506612824 21.361500000000 18.903047861390
7797 2 -1.200000000000 137.606058087753 24.088500000000 22.561702286175
7798 2 -1.200000000000 136.793023771134 24.997500000000 20.122599336318
7799 2 -1.200000000000 139.232126720991 22.270500000000 21.342150811247
7800 2 -1.200000000000 138.419092404372 23.179500000000 18.903047861390
7801 1 2.400000000000 140.654936775074 14.544000000000 7.317308849570
7802 1 2.400000000000 141.467971091693 13.635000000000 3.658654424785
7803 1 2.400000000000 141.874488250002 17.271000000000 4.878205899714
7804 1 2.400000000000 144.313591199859 14.544000000000 6.097757374642
7805 2 -1.200000000000 142.077746829157 14.998500000000 5.487981637178
7806 2 -1.200000000000 141.264712512538 15.907500000000 3.048878687321
7807 2 -1.200000000000 143.703815462395 13.180500000000 4.268430162249
7808 2 -1.200000000000 142.890781145776 14.089500000000 1.829327212393
7809 2 -1.200000000000 144.110332620704 16.816500000000 5.487981637178
7810 2 -1.200000000000 143.297298304085 17.725500000000 3.048878687321
7811 2 -1.200000000000 145.736401253942 14.998500000000 4.268430162249
7812 2 -1.200000000000 144.923366937323 15.907500000000 1.829327212393
7813 1 2.400000000000 139.028868141836 16.362000000000 2.439102949857
7814 1 2.400000000000 139.841902458455 15.453000000000 23.171478023639
7815 1 2.400000000000 140.248419616764 19.089000000000 0.000000000000
7816 1 2.400000000000 142.687522566621 16.362000000000 1.219551474928
7817 2 -1.200000000000 140.451678195919 16.816500000000 0.609775737464
7818 2 -1.200000000000 139.638643879300 17.725500000000 22.561702286175
7819 2 -1.200000000000 142.077746829157 14.998500000000 23.781253761104
7820 2 -1.200000000000 141.264712512538 15.907500000000 21.342150811247
7821 2 -1.200000000000 142.484263987466 18.634500000000 0.609775737464
7822 2 -1.200000000000 141.671229670847 19.543500000000 22.561702286175
7823 2 -1.200000000000 144.110332620704 16.816500000000 23.781253761104
7824 2 -1.200000000000 143.297298304085 17.725500000000 21.342150811247
7825 1 2.400000000000 133.337627925503 30.906000000000 21.951926548711
7826 1 2.400000000000 134.150662242122 29.997000000000 18.293272123926
7827 1 2.400000000000 134.557179400432 0.909000000000 19.512823598854
7828 1 2.400000000000 136.996282350289 30.906000000000 20.732375073783
7829 2 -1.200000000000 134.760437979587 31.360500000000 20.122599336318
7830 2 -1.200000000000 133.947403662968 32.269500000000 17.683496386462
7831 2 -1.200000000000 136.386506612824 29.542500000000 18.903047861390
7832 2 -1.200000000000 135.573472296205 30.451500000000 16.463944911533
7833 2 -1.200000000000 136.793023771134 0.454500000000 20.122599336318
7834 2 -1.200000000000 135.979989454515 1.363500000000 17.683496386462
7835 2 -1.200000000000 138.419092404372 31.360500000000 18.903047861390
7836 2 -1.200000000000 137.606058087753 32.269500000000 16.463944911533
7837 1 2.400000000000 136.589765191979 27.270000000000 19.512823598854
7838 1 2.400000000000 137.402799508598 26.361000000000 15.854169174069
7839 1 2.400000000000 137.809316666908 29.997000000000 17.073720648997
7840 1 2.400000000000 140.248419616764 27.270000000000 18.293272123926
7841 2 -1.200000000000 138.012575246062 27.724500000000 17.683496386462
7842 2 -1.200000000000 137.199540929443 28.633500000000 15.244393436605
7843 2 -1.200000000000 139.638643879300 25.906500000000 16.463944911533
7844 2 -1.200000000000 138.825609562681 26.815500000000 14.024841961676
7845 2 -1.200000000000 140.045161037610 29.542500000000 17.683496386462
7846 2 -1.200000000000 139.232126720991 30.451500000000 15.244393436605
7847 2 -1.200000000000 141.671229670847 27.724500000000 16.463944911533
7848 2 -1.200000000000 140.858195354228 28.633500000000 14.024841961676
7849 1 2.400000000000 134.963696558741 29.088000000000 14.634617699141
7850 1 2.400000000000 135.776730875360 28.179000000000 10.975963274355
7851 1 2.400000000000 136.183248033670 31.815000000000 12.195514749284
7852 1 2.400000000000 138.622350983526 29.088000000000 13.415066224212
7853 2 -1.200000000000 136.386506612824 29.542500000000 12.805290486748
7854 2 -1.200000000000 135.573472296205 30.451500000000 10.366187536891
7855 2 -1.200000000000 138.012575246062 27.724500000000 11.585739011820
7856 2 -1.200000000000 137.199540929443 28.633500000000 9.146636061963
7857 2 -1.200000000000 138.419092404372 31.360500000000 12.805290486748
7858 2 -1.200000000000 137.606058087753 32.269500000000 10.366187536891
7859 2 -1.200000000000 140.045161037610 29.542500000000 11.585739011820
7860 2 -1.200000000000 139.232126720991 30.451500000000 9.146636061963
7861 1 2.400000000000 133.337627925503 30.906000000000 9.756411799427
7862 1 2.400000000000 134.150662242122 29.997000000000 6.097757374642
7863 1 2.400000000000 134.557179400432 0.909000000000 7.317308849570
7864 1 2.400000000000 136.996282350289 30.906000000000 8.536860324499
7865 2 -1.200000000000 134.760437979587 31.360500000000 7.927084587035
7866 2 -1.200000000000 133.947403662968 32.269500000000 5.487981637178
7867 2 -1.200000000000 136.386506612824 29.542500000000 6.707533112106
7868 2 -1.200000000000 135.573472296205 30.451500000000 4.268430162249
7869 2 -1.200000000000 136.793023771134 0.454500000000 7.927084587035
7870 2 -1.200000000000 135.979989454515 1.363500000000 5.487981637178
7871 2 -1.200000000000 138.419092404372 31.360500000000 6.707533112106
7872 2 -1.200000000000 137.606058087753 32.269500000000 4.268430162249
7873 1 2.400000000000 139.841902458455 23.634000000000 17.073720648997
7874 1 2.400000000000 140.654936775074 22.725000000000 13.415066224212
7875 1 2.400000000000 141.061453933383 26.361000000000 14.634617699141
7876 1 2.400000000000 143.500556883240 23.634000000000 15.854169174069
7877 2 -1.200000000000 141.264712512538 24.088500000000 15.244393436605
7878 2 -1.200000000000 140.451678195919 24.997500000000 12.805290486748
7879 2 -1.200000000000 142.890781145776 22.270500000000 14.024841961676
7880 2 -1.200000000000 142.077746829157 23.179500000000 11.585739011820
7881 2 -1.200000000000 143.297298304085 25.906500000000 15.244393436605
7882 2 -1.200000000000 142.484263987466 26.815500000000 12.805290486748
7883 2 -1.200000000000 144.923366937323 24.088500000000 14.024841961676
7884 2 -1.200000000000 144.110332620704 24.997500000000 11.585739011820
7885 1 2.400000000000 138.215833825217 25.452000000000 12.195514749284
7886 1 2.400000000000 139.028868141836 24.543000000000 8.536860324499
7887 1 2.400000000000 139.435385300145 28.179000000000 9.756411799427
7888 1 2.400000000000 141.874488250002 25.452000000000 10.975963274355
7889 2 -1.200000000000 139.638643879300 25.906500000000 10.366187536891
7890 2 -1.200000000000 138.825609562681 26.815500000000 7.927084587035
7891 2 -1.200000000000 141.264712512538 24.088500000000 9.146636061963
7892 2 -1.200000000000 140.451678195919 24.997500000000 6.707533112106
7893 2 -1.200000000000 141.671229670847 27.724500000000 10.366187536891
7894 2 -1.200000000000 140.858195354228 28.633500000000 7.927084587035
7895 2 -1.200000000000 143.297298304085 25.906500000000 9.146636061963
7896 2 -1.200000000000 142.484263987466 26.815500000000 6.707533112106
7897 1 2.400000000000 136.589765191979 27.270000000000 7.317308849570
7898 1 2.400000000000 137.402799508598 26.361000000000 3.658654424785
7899 1 2.400000000000 137.809316666908 29.997000000000 4.878205899714
7900 1 2.400000000000 140.248419616764 27.270000000000 6.097757374642
7901 2 -1.200000000000 138.012575246062 27.724500000000 5.487981637178
7902 2 -1.200000000000 137.199540929443 28.633500000000 3.048878687321
7903 2 -1.200000000000 139.638643879300 25.906500000000 4.268430162249
7904 2 -1.200000000000 138.825609562681 26.815500000000 1.829327212393
7905 2 -1.200000000000 140.045161037610 29.542500000000 5.487981637178
7906 2 -1.200000000000 139.232126720991 30.451500000000 3.048878687321
7907 2 -1.200000000000 141.671229670847 27.724500000000 4.268430162249
7908 2 -1.200000000000 140.858195354228 28.633500000000 1.829327212393
7909 1 2.400000000000 134.963696558741 29.088000000000 2.439102949857
7910 1 2.400000000000 135.776730875360 28.179000000000 23.171478023639
7911 1 2.400000000000 136.183248033670 31.815000000000 0.000000000000
7912 1 2.400000000000 138.622350983526 29.088000000000 1.219551474928
7913 2 -1.200000000000 136.386506612824 29.542500000000 0.609775737464
7914 2 -1.200000000000 135.573472296205 30.451500000000 22.561702286175
7915 2 -1.200000000000 138.012575246062 27.724500000000 23.781253761104
7916 2 -1.200000000000 137.199540929443 28.633500000000 21.342150811247
7917 2 -1.200000000000 138.419092404372 31.360500000000 0.609775737464
7918 2 -1.200000000000 137.606058087753 32.269500000000 22.561702286175
7919 2 -1.200000000000 140.045161037610 29.542500000000 23.781253761104
7920 2 -1.200000000000 139.232126720991 30.451500000000 21.342150811247
7921 1 2.400000000000 139.841902458455 23.634000000000 4.878205899714
7922 1 2.400000000000 140.654936775074 22.725000000000 1.219551474928
7923 1 2.400000000000 141.061453933383 26.361000000000 2.439102949857
7924 1 2.400000000000 143.500556883240 23.634000000000 3.658654424785
7925 2 -1.200000000000 141.264712512538 24.088500000000 3.048878687321
7926 2 -1.200000000000 140.451678195919 24.997500000000 0.609775737464
7927 2 -1.200000000000 142.890781145776 22.270500000000 1.829327212393
7928 2 -1.200000000000 142.077746829157 23.179500000000 23.781253761104
7929 2 -1.200000000000 143.297298304085 25.906500000000 3.048878687321
7930 2 -1.200000000000 142.484263987466 26.815500000000 0.609775737464
7931 2 -1.200000000000 144.923366937323 24.088500000000 1.829327212393
7932 2 -1.200000000000 144.110332620704 24.997500000000 23.781253761104
7933 1 2.400000000000 138.215833825217 25.452000000000 0.000000000000
7934 1 2.400000000000 139.028868141836 24.543000000000 20.732375073783
7935 1 2.400000000000 139.435385300145 28.179000000000 21.951926548711
7936 1 2.400000000000 141.874488250002 25.452000000000 23.171478023639
7937 2 -1.200000000000 139.638643879300 25.906500000000 22.561702286175
7938 2 -1.200000000000 138.825609562681 26.815500000000 20.122599336318
7939 2 -1.200000000000 141.264712512538 24.088500000000 21.342150811247
7940 2 -1.200000000000 140.451678195919 24.997500000000 18.903047861390
7941 2 -1.200000000000 141.671229670847 27.724500000000 22.561702286175
7942 2 -1.200000000000 140.858195354228 28.633500000000 20.122599336318
7943 2 -1.200000000000 143.297298304085 25.906500000000 21.342150811247
7944 2 -1.200000000000 142.484263987466 26.815500000000 18.903047861390
7945 1 2.400000000000 140.654936775074 30.906000000000 19.512823598854
7946 1 2.400000000000 141.467971091693 29.997000000000 15.854169174069
7947 1 2.400000000000 141.874488250002 0.909000000000 17.073720648997
7948 1 2.400000000000 144.313591199859 30.906000000000 18.293272123926
7949 2 -1.200000000000 142.077746829157 31.360500000000 17.683496386462
7950 2 -1.200000000000 141.264712512538 32.269500000000 15.244393436605
7951 2 -1.200000000000 143.703815462395 29.542500000000 16.463944911533
7952 2 -1.200000000000 142.890781145776 30.451500000000 14.024841961676
7953 2 -1.200000000000 144.110332620704 0.454500000000 17.683496386462
7954 2 -1.200000000000 143.297298304085 1.363500000000 15.244393436605
7955 2 -1.200000000000 145.736401253942 31.360500000000 16.463944911533
7956 2 -1.200000000000 144.923366937323 32.269500000000 14.024841961676
7957 1 2.400000000000 140.654936775074 30.906000000000 7.317308849570
7958 1 2.400000000000 141.467971091693 29.997000000000 3.658654424785
7959 1 2.400000000000 141.874488250002 0.909000000000 4.878205899714
7960 1 2.400000000000 144.313591199859 30.906000000000 6.097757374642
7961 2 -1.200000000000 142.077746829157 31.360500000000 5.487981637178
7962 2 -1.200000000000 141.264712512538 32.269500000000 3.048878687321
7963 2 -1.200000000000 143.703815462395 29.542500000000 4.268430162249
7964 2 -1.200000000000 142.890781145776 30.451500000000 1.829327212393
7965 2 -1.200000000000 144.110332620704 0.454500000000 5.487981637178
7966 2 -1.200000000000 143.297298304085 1.363500000000 3.048878687321
7967 2 -1.200000000000 145.736401253942 31.360500000000 4.268430162249
7968 2 -1.200000000000 144.923366937323 32.269500000000 1.829327212393
